p cnf 43 118
-1 11 0
-6 11 0
1 6 -11 0
-2 12 0
-7 12 0
2 7 -12 0
-3 13 0
-8 13 0
3 8 -13 0
-4 14 0
-9 14 0
4 9 -14 0
-5 15 0
-10 15 0
5 10 -15 0
-16 2 3 0
-16 -2 -3 0
16 -2 3 0
16 2 -3 0
-17 16 6 0
-17 -16 -6 0
17 -16 6 0
17 16 -6 0
-18 17 9 0
-18 -17 -9 0
18 -17 9 0
18 17 -9 0
-18 0
-19 3 4 0
-19 -3 -4 0
19 -3 4 0
19 3 -4 0
-20 19 7 0
-20 -19 -7 0
20 -19 7 0
20 19 -7 0
-21 20 10 0
-21 -20 -10 0
21 -20 10 0
21 20 -10 0
-21 0
-22 4 5 0
-22 -4 -5 0
22 -4 5 0
22 4 -5 0
-23 22 6 0
-23 -22 -6 0
23 -22 6 0
23 22 -6 0
-24 23 8 0
-24 -23 -8 0
24 -23 8 0
24 23 -8 0
-24 0
-25 1 5 0
-25 -1 -5 0
25 -1 5 0
25 1 -5 0
-26 25 7 0
-26 -25 -7 0
26 -25 7 0
26 25 -7 0
-27 26 9 0
-27 -26 -9 0
27 -26 9 0
27 26 -9 0
-27 0
-28 6 7 0
-28 -6 -7 0
28 -6 7 0
28 6 -7 0
-29 28 8 0
-29 -28 -8 0
29 -28 8 0
29 28 -8 0
-30 29 9 0
-30 -29 -9 0
30 -29 9 0
30 29 -9 0
-31 30 10 0
-31 -30 -10 0
31 -30 10 0
31 30 -10 0
-32 1 2 0
-32 -1 -2 0
32 -1 2 0
32 1 -2 0
-33 32 3 0
-33 -32 -3 0
33 -32 3 0
33 32 -3 0
-34 33 4 0
-34 -33 -4 0
34 -33 4 0
34 33 -4 0
-35 34 5 0
-35 -34 -5 0
35 -34 5 0
35 34 -5 0
31 35 0
-11 36 0
-37 0
-12 38 0
-36 38 0
-12 -36 39 0
-37 39 0
-12 -37 0
-13 40 0
-38 40 0
-13 -38 41 0
-39 41 0
-13 -39 0
-14 42 0
-40 42 0
-14 -40 43 0
-41 43 0
-14 -41 0
-15 -43 0
