c tt3 packing >= 13 in tournament n=10 bits=111111000111110001111000111000101111111111101 m_TT3=82
p cnf 5740 11916
-1 -2 0
-1 -3 0
-1 -4 0
-1 -5 0
-1 -6 0
-1 -7 0
-1 -8 0
-1 -9 0
-1 -10 0
-1 -11 0
-1 -12 0
-1 -13 0
-1 -14 0
-1 -15 0
-1 -28 0
-1 -29 0
-1 -30 0
-1 -31 0
-1 -32 0
-1 -33 0
-1 -34 0
-2 -3 0
-2 -4 0
-2 -5 0
-2 -6 0
-2 -7 0
-2 -8 0
-2 -9 0
-2 -16 0
-2 -17 0
-2 -18 0
-2 -19 0
-2 -20 0
-2 -21 0
-2 -28 0
-2 -35 0
-2 -36 0
-2 -37 0
-2 -38 0
-2 -39 0
-2 -40 0
-3 -4 0
-3 -5 0
-3 -6 0
-3 -7 0
-3 -8 0
-3 -10 0
-3 -16 0
-3 -22 0
-3 -23 0
-3 -29 0
-3 -35 0
-3 -41 0
-3 -42 0
-4 -5 0
-4 -6 0
-4 -7 0
-4 -8 0
-4 -11 0
-4 -17 0
-4 -22 0
-4 -24 0
-4 -30 0
-4 -36 0
-4 -41 0
-4 -43 0
-5 -6 0
-5 -7 0
-5 -8 0
-5 -12 0
-5 -18 0
-5 -23 0
-5 -24 0
-5 -31 0
-5 -37 0
-5 -42 0
-5 -43 0
-6 -7 0
-6 -8 0
-6 -13 0
-6 -19 0
-6 -25 0
-6 -26 0
-6 -32 0
-6 -38 0
-6 -44 0
-6 -45 0
-7 -8 0
-7 -14 0
-7 -20 0
-7 -25 0
-7 -27 0
-7 -33 0
-7 -39 0
-7 -44 0
-7 -46 0
-8 -15 0
-8 -21 0
-8 -26 0
-8 -27 0
-8 -34 0
-8 -40 0
-8 -45 0
-8 -46 0
-9 -10 0
-9 -11 0
-9 -12 0
-9 -13 0
-9 -14 0
-9 -15 0
-9 -16 0
-9 -17 0
-9 -18 0
-9 -19 0
-9 -20 0
-9 -21 0
-9 -28 0
-9 -47 0
-9 -48 0
-9 -49 0
-9 -50 0
-9 -51 0
-9 -52 0
-10 -11 0
-10 -12 0
-10 -13 0
-10 -14 0
-10 -15 0
-10 -16 0
-10 -22 0
-10 -23 0
-10 -29 0
-10 -47 0
-10 -53 0
-10 -54 0
-11 -12 0
-11 -13 0
-11 -14 0
-11 -15 0
-11 -17 0
-11 -22 0
-11 -24 0
-11 -30 0
-11 -48 0
-11 -53 0
-11 -55 0
-12 -13 0
-12 -14 0
-12 -15 0
-12 -18 0
-12 -23 0
-12 -24 0
-12 -31 0
-12 -49 0
-12 -54 0
-12 -55 0
-13 -14 0
-13 -15 0
-13 -19 0
-13 -25 0
-13 -26 0
-13 -32 0
-13 -50 0
-13 -56 0
-13 -57 0
-14 -15 0
-14 -20 0
-14 -25 0
-14 -27 0
-14 -33 0
-14 -51 0
-14 -56 0
-14 -58 0
-15 -21 0
-15 -26 0
-15 -27 0
-15 -34 0
-15 -52 0
-15 -57 0
-15 -58 0
-16 -17 0
-16 -18 0
-16 -19 0
-16 -20 0
-16 -21 0
-16 -22 0
-16 -23 0
-16 -35 0
-16 -47 0
-16 -59 0
-16 -60 0
-17 -18 0
-17 -19 0
-17 -20 0
-17 -21 0
-17 -22 0
-17 -24 0
-17 -36 0
-17 -48 0
-17 -59 0
-17 -61 0
-18 -19 0
-18 -20 0
-18 -21 0
-18 -23 0
-18 -24 0
-18 -37 0
-18 -49 0
-18 -60 0
-18 -61 0
-19 -20 0
-19 -21 0
-19 -25 0
-19 -26 0
-19 -38 0
-19 -50 0
-19 -62 0
-19 -63 0
-20 -21 0
-20 -25 0
-20 -27 0
-20 -39 0
-20 -51 0
-20 -62 0
-20 -64 0
-21 -26 0
-21 -27 0
-21 -40 0
-21 -52 0
-21 -63 0
-21 -64 0
-22 -23 0
-22 -24 0
-22 -41 0
-22 -53 0
-22 -59 0
-22 -65 0
-22 -66 0
-22 -67 0
-23 -24 0
-23 -42 0
-23 -54 0
-23 -60 0
-23 -68 0
-23 -69 0
-23 -70 0
-24 -43 0
-24 -55 0
-24 -61 0
-24 -74 0
-24 -75 0
-24 -76 0
-25 -26 0
-25 -27 0
-25 -44 0
-25 -56 0
-25 -62 0
-25 -71 0
-25 -77 0
-25 -80 0
-26 -27 0
-26 -45 0
-26 -57 0
-26 -63 0
-26 -72 0
-26 -78 0
-26 -81 0
-27 -46 0
-27 -58 0
-27 -64 0
-27 -73 0
-27 -79 0
-27 -82 0
-28 -29 0
-28 -30 0
-28 -31 0
-28 -32 0
-28 -33 0
-28 -34 0
-28 -35 0
-28 -36 0
-28 -37 0
-28 -38 0
-28 -39 0
-28 -40 0
-28 -47 0
-28 -48 0
-28 -49 0
-28 -50 0
-28 -51 0
-28 -52 0
-29 -30 0
-29 -31 0
-29 -32 0
-29 -33 0
-29 -34 0
-29 -35 0
-29 -41 0
-29 -42 0
-29 -47 0
-29 -53 0
-29 -54 0
-30 -31 0
-30 -32 0
-30 -33 0
-30 -34 0
-30 -36 0
-30 -41 0
-30 -43 0
-30 -48 0
-30 -53 0
-30 -55 0
-31 -32 0
-31 -33 0
-31 -34 0
-31 -37 0
-31 -42 0
-31 -43 0
-31 -49 0
-31 -54 0
-31 -55 0
-32 -33 0
-32 -34 0
-32 -38 0
-32 -44 0
-32 -45 0
-32 -50 0
-32 -56 0
-32 -57 0
-33 -34 0
-33 -39 0
-33 -44 0
-33 -46 0
-33 -51 0
-33 -56 0
-33 -58 0
-34 -40 0
-34 -45 0
-34 -46 0
-34 -52 0
-34 -57 0
-34 -58 0
-35 -36 0
-35 -37 0
-35 -38 0
-35 -39 0
-35 -40 0
-35 -41 0
-35 -42 0
-35 -47 0
-35 -59 0
-35 -60 0
-36 -37 0
-36 -38 0
-36 -39 0
-36 -40 0
-36 -41 0
-36 -43 0
-36 -48 0
-36 -59 0
-36 -61 0
-37 -38 0
-37 -39 0
-37 -40 0
-37 -42 0
-37 -43 0
-37 -49 0
-37 -60 0
-37 -61 0
-38 -39 0
-38 -40 0
-38 -44 0
-38 -45 0
-38 -50 0
-38 -62 0
-38 -63 0
-39 -40 0
-39 -44 0
-39 -46 0
-39 -51 0
-39 -62 0
-39 -64 0
-40 -45 0
-40 -46 0
-40 -52 0
-40 -63 0
-40 -64 0
-41 -42 0
-41 -43 0
-41 -53 0
-41 -59 0
-41 -65 0
-41 -66 0
-41 -67 0
-42 -43 0
-42 -54 0
-42 -60 0
-42 -68 0
-42 -69 0
-42 -70 0
-43 -55 0
-43 -61 0
-43 -74 0
-43 -75 0
-43 -76 0
-44 -45 0
-44 -46 0
-44 -56 0
-44 -62 0
-44 -71 0
-44 -77 0
-44 -80 0
-45 -46 0
-45 -57 0
-45 -63 0
-45 -72 0
-45 -78 0
-45 -81 0
-46 -58 0
-46 -64 0
-46 -73 0
-46 -79 0
-46 -82 0
-47 -48 0
-47 -49 0
-47 -50 0
-47 -51 0
-47 -52 0
-47 -53 0
-47 -54 0
-47 -59 0
-47 -60 0
-48 -49 0
-48 -50 0
-48 -51 0
-48 -52 0
-48 -53 0
-48 -55 0
-48 -59 0
-48 -61 0
-49 -50 0
-49 -51 0
-49 -52 0
-49 -54 0
-49 -55 0
-49 -60 0
-49 -61 0
-50 -51 0
-50 -52 0
-50 -56 0
-50 -57 0
-50 -62 0
-50 -63 0
-51 -52 0
-51 -56 0
-51 -58 0
-51 -62 0
-51 -64 0
-52 -57 0
-52 -58 0
-52 -63 0
-52 -64 0
-53 -54 0
-53 -55 0
-53 -59 0
-53 -65 0
-53 -66 0
-53 -67 0
-54 -55 0
-54 -60 0
-54 -68 0
-54 -69 0
-54 -70 0
-55 -61 0
-55 -74 0
-55 -75 0
-55 -76 0
-56 -57 0
-56 -58 0
-56 -62 0
-56 -71 0
-56 -77 0
-56 -80 0
-57 -58 0
-57 -63 0
-57 -72 0
-57 -78 0
-57 -81 0
-58 -64 0
-58 -73 0
-58 -79 0
-58 -82 0
-59 -60 0
-59 -61 0
-59 -65 0
-59 -66 0
-59 -67 0
-60 -61 0
-60 -68 0
-60 -69 0
-60 -70 0
-61 -74 0
-61 -75 0
-61 -76 0
-62 -63 0
-62 -64 0
-62 -71 0
-62 -77 0
-62 -80 0
-63 -64 0
-63 -72 0
-63 -78 0
-63 -81 0
-64 -73 0
-64 -79 0
-64 -82 0
-65 -66 0
-65 -67 0
-65 -68 0
-65 -71 0
-65 -72 0
-65 -74 0
-65 -77 0
-65 -78 0
-66 -67 0
-66 -69 0
-66 -71 0
-66 -73 0
-66 -75 0
-66 -77 0
-66 -79 0
-67 -70 0
-67 -72 0
-67 -73 0
-67 -76 0
-67 -78 0
-67 -79 0
-68 -69 0
-68 -70 0
-68 -71 0
-68 -72 0
-68 -74 0
-68 -80 0
-68 -81 0
-69 -70 0
-69 -71 0
-69 -73 0
-69 -75 0
-69 -80 0
-69 -82 0
-70 -72 0
-70 -73 0
-70 -76 0
-70 -81 0
-70 -82 0
-71 -72 0
-71 -73 0
-71 -77 0
-71 -80 0
-72 -73 0
-72 -78 0
-72 -81 0
-73 -79 0
-73 -82 0
-74 -75 0
-74 -76 0
-74 -77 0
-74 -78 0
-74 -80 0
-74 -81 0
-75 -76 0
-75 -77 0
-75 -79 0
-75 -80 0
-75 -82 0
-76 -78 0
-76 -79 0
-76 -81 0
-76 -82 0
-77 -78 0
-77 -79 0
-77 -80 0
-78 -79 0
-78 -81 0
-79 -82 0
-80 -81 0
-80 -82 0
-81 -82 0
1 83 0
-84 0
-85 0
-86 0
-87 0
-88 0
-89 0
-90 0
-91 0
-92 0
-93 0
-94 0
-95 0
-96 0
-97 0
-98 0
-99 0
-100 0
-101 0
-102 0
-103 0
-104 0
-105 0
-106 0
-107 0
-108 0
-109 0
-110 0
-111 0
-112 0
-113 0
-114 0
-115 0
-116 0
-117 0
-118 0
-119 0
-120 0
-121 0
-122 0
-123 0
-124 0
-125 0
-126 0
-127 0
-128 0
-129 0
-130 0
-131 0
-132 0
-133 0
-134 0
-135 0
-136 0
-137 0
-138 0
-139 0
-140 0
-141 0
-142 0
-143 0
-144 0
-145 0
-146 0
-147 0
-148 0
-149 0
-150 0
-151 0
2 152 0
-83 152 0
2 -83 153 0
-84 153 0
2 -84 154 0
-85 154 0
2 -85 155 0
-86 155 0
2 -86 156 0
-87 156 0
2 -87 157 0
-88 157 0
2 -88 158 0
-89 158 0
2 -89 159 0
-90 159 0
2 -90 160 0
-91 160 0
2 -91 161 0
-92 161 0
2 -92 162 0
-93 162 0
2 -93 163 0
-94 163 0
2 -94 164 0
-95 164 0
2 -95 165 0
-96 165 0
2 -96 166 0
-97 166 0
2 -97 167 0
-98 167 0
2 -98 168 0
-99 168 0
2 -99 169 0
-100 169 0
2 -100 170 0
-101 170 0
2 -101 171 0
-102 171 0
2 -102 172 0
-103 172 0
2 -103 173 0
-104 173 0
2 -104 174 0
-105 174 0
2 -105 175 0
-106 175 0
2 -106 176 0
-107 176 0
2 -107 177 0
-108 177 0
2 -108 178 0
-109 178 0
2 -109 179 0
-110 179 0
2 -110 180 0
-111 180 0
2 -111 181 0
-112 181 0
2 -112 182 0
-113 182 0
2 -113 183 0
-114 183 0
2 -114 184 0
-115 184 0
2 -115 185 0
-116 185 0
2 -116 186 0
-117 186 0
2 -117 187 0
-118 187 0
2 -118 188 0
-119 188 0
2 -119 189 0
-120 189 0
2 -120 190 0
-121 190 0
2 -121 191 0
-122 191 0
2 -122 192 0
-123 192 0
2 -123 193 0
-124 193 0
2 -124 194 0
-125 194 0
2 -125 195 0
-126 195 0
2 -126 196 0
-127 196 0
2 -127 197 0
-128 197 0
2 -128 198 0
-129 198 0
2 -129 199 0
-130 199 0
2 -130 200 0
-131 200 0
2 -131 201 0
-132 201 0
2 -132 202 0
-133 202 0
2 -133 203 0
-134 203 0
2 -134 204 0
-135 204 0
2 -135 205 0
-136 205 0
2 -136 206 0
-137 206 0
2 -137 207 0
-138 207 0
2 -138 208 0
-139 208 0
2 -139 209 0
-140 209 0
2 -140 210 0
-141 210 0
2 -141 211 0
-142 211 0
2 -142 212 0
-143 212 0
2 -143 213 0
-144 213 0
2 -144 214 0
-145 214 0
2 -145 215 0
-146 215 0
2 -146 216 0
-147 216 0
2 -147 217 0
-148 217 0
2 -148 218 0
-149 218 0
2 -149 219 0
-150 219 0
2 -150 220 0
-151 220 0
2 -151 0
3 221 0
-152 221 0
3 -152 222 0
-153 222 0
3 -153 223 0
-154 223 0
3 -154 224 0
-155 224 0
3 -155 225 0
-156 225 0
3 -156 226 0
-157 226 0
3 -157 227 0
-158 227 0
3 -158 228 0
-159 228 0
3 -159 229 0
-160 229 0
3 -160 230 0
-161 230 0
3 -161 231 0
-162 231 0
3 -162 232 0
-163 232 0
3 -163 233 0
-164 233 0
3 -164 234 0
-165 234 0
3 -165 235 0
-166 235 0
3 -166 236 0
-167 236 0
3 -167 237 0
-168 237 0
3 -168 238 0
-169 238 0
3 -169 239 0
-170 239 0
3 -170 240 0
-171 240 0
3 -171 241 0
-172 241 0
3 -172 242 0
-173 242 0
3 -173 243 0
-174 243 0
3 -174 244 0
-175 244 0
3 -175 245 0
-176 245 0
3 -176 246 0
-177 246 0
3 -177 247 0
-178 247 0
3 -178 248 0
-179 248 0
3 -179 249 0
-180 249 0
3 -180 250 0
-181 250 0
3 -181 251 0
-182 251 0
3 -182 252 0
-183 252 0
3 -183 253 0
-184 253 0
3 -184 254 0
-185 254 0
3 -185 255 0
-186 255 0
3 -186 256 0
-187 256 0
3 -187 257 0
-188 257 0
3 -188 258 0
-189 258 0
3 -189 259 0
-190 259 0
3 -190 260 0
-191 260 0
3 -191 261 0
-192 261 0
3 -192 262 0
-193 262 0
3 -193 263 0
-194 263 0
3 -194 264 0
-195 264 0
3 -195 265 0
-196 265 0
3 -196 266 0
-197 266 0
3 -197 267 0
-198 267 0
3 -198 268 0
-199 268 0
3 -199 269 0
-200 269 0
3 -200 270 0
-201 270 0
3 -201 271 0
-202 271 0
3 -202 272 0
-203 272 0
3 -203 273 0
-204 273 0
3 -204 274 0
-205 274 0
3 -205 275 0
-206 275 0
3 -206 276 0
-207 276 0
3 -207 277 0
-208 277 0
3 -208 278 0
-209 278 0
3 -209 279 0
-210 279 0
3 -210 280 0
-211 280 0
3 -211 281 0
-212 281 0
3 -212 282 0
-213 282 0
3 -213 283 0
-214 283 0
3 -214 284 0
-215 284 0
3 -215 285 0
-216 285 0
3 -216 286 0
-217 286 0
3 -217 287 0
-218 287 0
3 -218 288 0
-219 288 0
3 -219 289 0
-220 289 0
3 -220 0
4 290 0
-221 290 0
4 -221 291 0
-222 291 0
4 -222 292 0
-223 292 0
4 -223 293 0
-224 293 0
4 -224 294 0
-225 294 0
4 -225 295 0
-226 295 0
4 -226 296 0
-227 296 0
4 -227 297 0
-228 297 0
4 -228 298 0
-229 298 0
4 -229 299 0
-230 299 0
4 -230 300 0
-231 300 0
4 -231 301 0
-232 301 0
4 -232 302 0
-233 302 0
4 -233 303 0
-234 303 0
4 -234 304 0
-235 304 0
4 -235 305 0
-236 305 0
4 -236 306 0
-237 306 0
4 -237 307 0
-238 307 0
4 -238 308 0
-239 308 0
4 -239 309 0
-240 309 0
4 -240 310 0
-241 310 0
4 -241 311 0
-242 311 0
4 -242 312 0
-243 312 0
4 -243 313 0
-244 313 0
4 -244 314 0
-245 314 0
4 -245 315 0
-246 315 0
4 -246 316 0
-247 316 0
4 -247 317 0
-248 317 0
4 -248 318 0
-249 318 0
4 -249 319 0
-250 319 0
4 -250 320 0
-251 320 0
4 -251 321 0
-252 321 0
4 -252 322 0
-253 322 0
4 -253 323 0
-254 323 0
4 -254 324 0
-255 324 0
4 -255 325 0
-256 325 0
4 -256 326 0
-257 326 0
4 -257 327 0
-258 327 0
4 -258 328 0
-259 328 0
4 -259 329 0
-260 329 0
4 -260 330 0
-261 330 0
4 -261 331 0
-262 331 0
4 -262 332 0
-263 332 0
4 -263 333 0
-264 333 0
4 -264 334 0
-265 334 0
4 -265 335 0
-266 335 0
4 -266 336 0
-267 336 0
4 -267 337 0
-268 337 0
4 -268 338 0
-269 338 0
4 -269 339 0
-270 339 0
4 -270 340 0
-271 340 0
4 -271 341 0
-272 341 0
4 -272 342 0
-273 342 0
4 -273 343 0
-274 343 0
4 -274 344 0
-275 344 0
4 -275 345 0
-276 345 0
4 -276 346 0
-277 346 0
4 -277 347 0
-278 347 0
4 -278 348 0
-279 348 0
4 -279 349 0
-280 349 0
4 -280 350 0
-281 350 0
4 -281 351 0
-282 351 0
4 -282 352 0
-283 352 0
4 -283 353 0
-284 353 0
4 -284 354 0
-285 354 0
4 -285 355 0
-286 355 0
4 -286 356 0
-287 356 0
4 -287 357 0
-288 357 0
4 -288 358 0
-289 358 0
4 -289 0
5 359 0
-290 359 0
5 -290 360 0
-291 360 0
5 -291 361 0
-292 361 0
5 -292 362 0
-293 362 0
5 -293 363 0
-294 363 0
5 -294 364 0
-295 364 0
5 -295 365 0
-296 365 0
5 -296 366 0
-297 366 0
5 -297 367 0
-298 367 0
5 -298 368 0
-299 368 0
5 -299 369 0
-300 369 0
5 -300 370 0
-301 370 0
5 -301 371 0
-302 371 0
5 -302 372 0
-303 372 0
5 -303 373 0
-304 373 0
5 -304 374 0
-305 374 0
5 -305 375 0
-306 375 0
5 -306 376 0
-307 376 0
5 -307 377 0
-308 377 0
5 -308 378 0
-309 378 0
5 -309 379 0
-310 379 0
5 -310 380 0
-311 380 0
5 -311 381 0
-312 381 0
5 -312 382 0
-313 382 0
5 -313 383 0
-314 383 0
5 -314 384 0
-315 384 0
5 -315 385 0
-316 385 0
5 -316 386 0
-317 386 0
5 -317 387 0
-318 387 0
5 -318 388 0
-319 388 0
5 -319 389 0
-320 389 0
5 -320 390 0
-321 390 0
5 -321 391 0
-322 391 0
5 -322 392 0
-323 392 0
5 -323 393 0
-324 393 0
5 -324 394 0
-325 394 0
5 -325 395 0
-326 395 0
5 -326 396 0
-327 396 0
5 -327 397 0
-328 397 0
5 -328 398 0
-329 398 0
5 -329 399 0
-330 399 0
5 -330 400 0
-331 400 0
5 -331 401 0
-332 401 0
5 -332 402 0
-333 402 0
5 -333 403 0
-334 403 0
5 -334 404 0
-335 404 0
5 -335 405 0
-336 405 0
5 -336 406 0
-337 406 0
5 -337 407 0
-338 407 0
5 -338 408 0
-339 408 0
5 -339 409 0
-340 409 0
5 -340 410 0
-341 410 0
5 -341 411 0
-342 411 0
5 -342 412 0
-343 412 0
5 -343 413 0
-344 413 0
5 -344 414 0
-345 414 0
5 -345 415 0
-346 415 0
5 -346 416 0
-347 416 0
5 -347 417 0
-348 417 0
5 -348 418 0
-349 418 0
5 -349 419 0
-350 419 0
5 -350 420 0
-351 420 0
5 -351 421 0
-352 421 0
5 -352 422 0
-353 422 0
5 -353 423 0
-354 423 0
5 -354 424 0
-355 424 0
5 -355 425 0
-356 425 0
5 -356 426 0
-357 426 0
5 -357 427 0
-358 427 0
5 -358 0
6 428 0
-359 428 0
6 -359 429 0
-360 429 0
6 -360 430 0
-361 430 0
6 -361 431 0
-362 431 0
6 -362 432 0
-363 432 0
6 -363 433 0
-364 433 0
6 -364 434 0
-365 434 0
6 -365 435 0
-366 435 0
6 -366 436 0
-367 436 0
6 -367 437 0
-368 437 0
6 -368 438 0
-369 438 0
6 -369 439 0
-370 439 0
6 -370 440 0
-371 440 0
6 -371 441 0
-372 441 0
6 -372 442 0
-373 442 0
6 -373 443 0
-374 443 0
6 -374 444 0
-375 444 0
6 -375 445 0
-376 445 0
6 -376 446 0
-377 446 0
6 -377 447 0
-378 447 0
6 -378 448 0
-379 448 0
6 -379 449 0
-380 449 0
6 -380 450 0
-381 450 0
6 -381 451 0
-382 451 0
6 -382 452 0
-383 452 0
6 -383 453 0
-384 453 0
6 -384 454 0
-385 454 0
6 -385 455 0
-386 455 0
6 -386 456 0
-387 456 0
6 -387 457 0
-388 457 0
6 -388 458 0
-389 458 0
6 -389 459 0
-390 459 0
6 -390 460 0
-391 460 0
6 -391 461 0
-392 461 0
6 -392 462 0
-393 462 0
6 -393 463 0
-394 463 0
6 -394 464 0
-395 464 0
6 -395 465 0
-396 465 0
6 -396 466 0
-397 466 0
6 -397 467 0
-398 467 0
6 -398 468 0
-399 468 0
6 -399 469 0
-400 469 0
6 -400 470 0
-401 470 0
6 -401 471 0
-402 471 0
6 -402 472 0
-403 472 0
6 -403 473 0
-404 473 0
6 -404 474 0
-405 474 0
6 -405 475 0
-406 475 0
6 -406 476 0
-407 476 0
6 -407 477 0
-408 477 0
6 -408 478 0
-409 478 0
6 -409 479 0
-410 479 0
6 -410 480 0
-411 480 0
6 -411 481 0
-412 481 0
6 -412 482 0
-413 482 0
6 -413 483 0
-414 483 0
6 -414 484 0
-415 484 0
6 -415 485 0
-416 485 0
6 -416 486 0
-417 486 0
6 -417 487 0
-418 487 0
6 -418 488 0
-419 488 0
6 -419 489 0
-420 489 0
6 -420 490 0
-421 490 0
6 -421 491 0
-422 491 0
6 -422 492 0
-423 492 0
6 -423 493 0
-424 493 0
6 -424 494 0
-425 494 0
6 -425 495 0
-426 495 0
6 -426 496 0
-427 496 0
6 -427 0
7 497 0
-428 497 0
7 -428 498 0
-429 498 0
7 -429 499 0
-430 499 0
7 -430 500 0
-431 500 0
7 -431 501 0
-432 501 0
7 -432 502 0
-433 502 0
7 -433 503 0
-434 503 0
7 -434 504 0
-435 504 0
7 -435 505 0
-436 505 0
7 -436 506 0
-437 506 0
7 -437 507 0
-438 507 0
7 -438 508 0
-439 508 0
7 -439 509 0
-440 509 0
7 -440 510 0
-441 510 0
7 -441 511 0
-442 511 0
7 -442 512 0
-443 512 0
7 -443 513 0
-444 513 0
7 -444 514 0
-445 514 0
7 -445 515 0
-446 515 0
7 -446 516 0
-447 516 0
7 -447 517 0
-448 517 0
7 -448 518 0
-449 518 0
7 -449 519 0
-450 519 0
7 -450 520 0
-451 520 0
7 -451 521 0
-452 521 0
7 -452 522 0
-453 522 0
7 -453 523 0
-454 523 0
7 -454 524 0
-455 524 0
7 -455 525 0
-456 525 0
7 -456 526 0
-457 526 0
7 -457 527 0
-458 527 0
7 -458 528 0
-459 528 0
7 -459 529 0
-460 529 0
7 -460 530 0
-461 530 0
7 -461 531 0
-462 531 0
7 -462 532 0
-463 532 0
7 -463 533 0
-464 533 0
7 -464 534 0
-465 534 0
7 -465 535 0
-466 535 0
7 -466 536 0
-467 536 0
7 -467 537 0
-468 537 0
7 -468 538 0
-469 538 0
7 -469 539 0
-470 539 0
7 -470 540 0
-471 540 0
7 -471 541 0
-472 541 0
7 -472 542 0
-473 542 0
7 -473 543 0
-474 543 0
7 -474 544 0
-475 544 0
7 -475 545 0
-476 545 0
7 -476 546 0
-477 546 0
7 -477 547 0
-478 547 0
7 -478 548 0
-479 548 0
7 -479 549 0
-480 549 0
7 -480 550 0
-481 550 0
7 -481 551 0
-482 551 0
7 -482 552 0
-483 552 0
7 -483 553 0
-484 553 0
7 -484 554 0
-485 554 0
7 -485 555 0
-486 555 0
7 -486 556 0
-487 556 0
7 -487 557 0
-488 557 0
7 -488 558 0
-489 558 0
7 -489 559 0
-490 559 0
7 -490 560 0
-491 560 0
7 -491 561 0
-492 561 0
7 -492 562 0
-493 562 0
7 -493 563 0
-494 563 0
7 -494 564 0
-495 564 0
7 -495 565 0
-496 565 0
7 -496 0
8 566 0
-497 566 0
8 -497 567 0
-498 567 0
8 -498 568 0
-499 568 0
8 -499 569 0
-500 569 0
8 -500 570 0
-501 570 0
8 -501 571 0
-502 571 0
8 -502 572 0
-503 572 0
8 -503 573 0
-504 573 0
8 -504 574 0
-505 574 0
8 -505 575 0
-506 575 0
8 -506 576 0
-507 576 0
8 -507 577 0
-508 577 0
8 -508 578 0
-509 578 0
8 -509 579 0
-510 579 0
8 -510 580 0
-511 580 0
8 -511 581 0
-512 581 0
8 -512 582 0
-513 582 0
8 -513 583 0
-514 583 0
8 -514 584 0
-515 584 0
8 -515 585 0
-516 585 0
8 -516 586 0
-517 586 0
8 -517 587 0
-518 587 0
8 -518 588 0
-519 588 0
8 -519 589 0
-520 589 0
8 -520 590 0
-521 590 0
8 -521 591 0
-522 591 0
8 -522 592 0
-523 592 0
8 -523 593 0
-524 593 0
8 -524 594 0
-525 594 0
8 -525 595 0
-526 595 0
8 -526 596 0
-527 596 0
8 -527 597 0
-528 597 0
8 -528 598 0
-529 598 0
8 -529 599 0
-530 599 0
8 -530 600 0
-531 600 0
8 -531 601 0
-532 601 0
8 -532 602 0
-533 602 0
8 -533 603 0
-534 603 0
8 -534 604 0
-535 604 0
8 -535 605 0
-536 605 0
8 -536 606 0
-537 606 0
8 -537 607 0
-538 607 0
8 -538 608 0
-539 608 0
8 -539 609 0
-540 609 0
8 -540 610 0
-541 610 0
8 -541 611 0
-542 611 0
8 -542 612 0
-543 612 0
8 -543 613 0
-544 613 0
8 -544 614 0
-545 614 0
8 -545 615 0
-546 615 0
8 -546 616 0
-547 616 0
8 -547 617 0
-548 617 0
8 -548 618 0
-549 618 0
8 -549 619 0
-550 619 0
8 -550 620 0
-551 620 0
8 -551 621 0
-552 621 0
8 -552 622 0
-553 622 0
8 -553 623 0
-554 623 0
8 -554 624 0
-555 624 0
8 -555 625 0
-556 625 0
8 -556 626 0
-557 626 0
8 -557 627 0
-558 627 0
8 -558 628 0
-559 628 0
8 -559 629 0
-560 629 0
8 -560 630 0
-561 630 0
8 -561 631 0
-562 631 0
8 -562 632 0
-563 632 0
8 -563 633 0
-564 633 0
8 -564 634 0
-565 634 0
8 -565 0
9 635 0
-566 635 0
9 -566 636 0
-567 636 0
9 -567 637 0
-568 637 0
9 -568 638 0
-569 638 0
9 -569 639 0
-570 639 0
9 -570 640 0
-571 640 0
9 -571 641 0
-572 641 0
9 -572 642 0
-573 642 0
9 -573 643 0
-574 643 0
9 -574 644 0
-575 644 0
9 -575 645 0
-576 645 0
9 -576 646 0
-577 646 0
9 -577 647 0
-578 647 0
9 -578 648 0
-579 648 0
9 -579 649 0
-580 649 0
9 -580 650 0
-581 650 0
9 -581 651 0
-582 651 0
9 -582 652 0
-583 652 0
9 -583 653 0
-584 653 0
9 -584 654 0
-585 654 0
9 -585 655 0
-586 655 0
9 -586 656 0
-587 656 0
9 -587 657 0
-588 657 0
9 -588 658 0
-589 658 0
9 -589 659 0
-590 659 0
9 -590 660 0
-591 660 0
9 -591 661 0
-592 661 0
9 -592 662 0
-593 662 0
9 -593 663 0
-594 663 0
9 -594 664 0
-595 664 0
9 -595 665 0
-596 665 0
9 -596 666 0
-597 666 0
9 -597 667 0
-598 667 0
9 -598 668 0
-599 668 0
9 -599 669 0
-600 669 0
9 -600 670 0
-601 670 0
9 -601 671 0
-602 671 0
9 -602 672 0
-603 672 0
9 -603 673 0
-604 673 0
9 -604 674 0
-605 674 0
9 -605 675 0
-606 675 0
9 -606 676 0
-607 676 0
9 -607 677 0
-608 677 0
9 -608 678 0
-609 678 0
9 -609 679 0
-610 679 0
9 -610 680 0
-611 680 0
9 -611 681 0
-612 681 0
9 -612 682 0
-613 682 0
9 -613 683 0
-614 683 0
9 -614 684 0
-615 684 0
9 -615 685 0
-616 685 0
9 -616 686 0
-617 686 0
9 -617 687 0
-618 687 0
9 -618 688 0
-619 688 0
9 -619 689 0
-620 689 0
9 -620 690 0
-621 690 0
9 -621 691 0
-622 691 0
9 -622 692 0
-623 692 0
9 -623 693 0
-624 693 0
9 -624 694 0
-625 694 0
9 -625 695 0
-626 695 0
9 -626 696 0
-627 696 0
9 -627 697 0
-628 697 0
9 -628 698 0
-629 698 0
9 -629 699 0
-630 699 0
9 -630 700 0
-631 700 0
9 -631 701 0
-632 701 0
9 -632 702 0
-633 702 0
9 -633 703 0
-634 703 0
9 -634 0
10 704 0
-635 704 0
10 -635 705 0
-636 705 0
10 -636 706 0
-637 706 0
10 -637 707 0
-638 707 0
10 -638 708 0
-639 708 0
10 -639 709 0
-640 709 0
10 -640 710 0
-641 710 0
10 -641 711 0
-642 711 0
10 -642 712 0
-643 712 0
10 -643 713 0
-644 713 0
10 -644 714 0
-645 714 0
10 -645 715 0
-646 715 0
10 -646 716 0
-647 716 0
10 -647 717 0
-648 717 0
10 -648 718 0
-649 718 0
10 -649 719 0
-650 719 0
10 -650 720 0
-651 720 0
10 -651 721 0
-652 721 0
10 -652 722 0
-653 722 0
10 -653 723 0
-654 723 0
10 -654 724 0
-655 724 0
10 -655 725 0
-656 725 0
10 -656 726 0
-657 726 0
10 -657 727 0
-658 727 0
10 -658 728 0
-659 728 0
10 -659 729 0
-660 729 0
10 -660 730 0
-661 730 0
10 -661 731 0
-662 731 0
10 -662 732 0
-663 732 0
10 -663 733 0
-664 733 0
10 -664 734 0
-665 734 0
10 -665 735 0
-666 735 0
10 -666 736 0
-667 736 0
10 -667 737 0
-668 737 0
10 -668 738 0
-669 738 0
10 -669 739 0
-670 739 0
10 -670 740 0
-671 740 0
10 -671 741 0
-672 741 0
10 -672 742 0
-673 742 0
10 -673 743 0
-674 743 0
10 -674 744 0
-675 744 0
10 -675 745 0
-676 745 0
10 -676 746 0
-677 746 0
10 -677 747 0
-678 747 0
10 -678 748 0
-679 748 0
10 -679 749 0
-680 749 0
10 -680 750 0
-681 750 0
10 -681 751 0
-682 751 0
10 -682 752 0
-683 752 0
10 -683 753 0
-684 753 0
10 -684 754 0
-685 754 0
10 -685 755 0
-686 755 0
10 -686 756 0
-687 756 0
10 -687 757 0
-688 757 0
10 -688 758 0
-689 758 0
10 -689 759 0
-690 759 0
10 -690 760 0
-691 760 0
10 -691 761 0
-692 761 0
10 -692 762 0
-693 762 0
10 -693 763 0
-694 763 0
10 -694 764 0
-695 764 0
10 -695 765 0
-696 765 0
10 -696 766 0
-697 766 0
10 -697 767 0
-698 767 0
10 -698 768 0
-699 768 0
10 -699 769 0
-700 769 0
10 -700 770 0
-701 770 0
10 -701 771 0
-702 771 0
10 -702 772 0
-703 772 0
10 -703 0
11 773 0
-704 773 0
11 -704 774 0
-705 774 0
11 -705 775 0
-706 775 0
11 -706 776 0
-707 776 0
11 -707 777 0
-708 777 0
11 -708 778 0
-709 778 0
11 -709 779 0
-710 779 0
11 -710 780 0
-711 780 0
11 -711 781 0
-712 781 0
11 -712 782 0
-713 782 0
11 -713 783 0
-714 783 0
11 -714 784 0
-715 784 0
11 -715 785 0
-716 785 0
11 -716 786 0
-717 786 0
11 -717 787 0
-718 787 0
11 -718 788 0
-719 788 0
11 -719 789 0
-720 789 0
11 -720 790 0
-721 790 0
11 -721 791 0
-722 791 0
11 -722 792 0
-723 792 0
11 -723 793 0
-724 793 0
11 -724 794 0
-725 794 0
11 -725 795 0
-726 795 0
11 -726 796 0
-727 796 0
11 -727 797 0
-728 797 0
11 -728 798 0
-729 798 0
11 -729 799 0
-730 799 0
11 -730 800 0
-731 800 0
11 -731 801 0
-732 801 0
11 -732 802 0
-733 802 0
11 -733 803 0
-734 803 0
11 -734 804 0
-735 804 0
11 -735 805 0
-736 805 0
11 -736 806 0
-737 806 0
11 -737 807 0
-738 807 0
11 -738 808 0
-739 808 0
11 -739 809 0
-740 809 0
11 -740 810 0
-741 810 0
11 -741 811 0
-742 811 0
11 -742 812 0
-743 812 0
11 -743 813 0
-744 813 0
11 -744 814 0
-745 814 0
11 -745 815 0
-746 815 0
11 -746 816 0
-747 816 0
11 -747 817 0
-748 817 0
11 -748 818 0
-749 818 0
11 -749 819 0
-750 819 0
11 -750 820 0
-751 820 0
11 -751 821 0
-752 821 0
11 -752 822 0
-753 822 0
11 -753 823 0
-754 823 0
11 -754 824 0
-755 824 0
11 -755 825 0
-756 825 0
11 -756 826 0
-757 826 0
11 -757 827 0
-758 827 0
11 -758 828 0
-759 828 0
11 -759 829 0
-760 829 0
11 -760 830 0
-761 830 0
11 -761 831 0
-762 831 0
11 -762 832 0
-763 832 0
11 -763 833 0
-764 833 0
11 -764 834 0
-765 834 0
11 -765 835 0
-766 835 0
11 -766 836 0
-767 836 0
11 -767 837 0
-768 837 0
11 -768 838 0
-769 838 0
11 -769 839 0
-770 839 0
11 -770 840 0
-771 840 0
11 -771 841 0
-772 841 0
11 -772 0
12 842 0
-773 842 0
12 -773 843 0
-774 843 0
12 -774 844 0
-775 844 0
12 -775 845 0
-776 845 0
12 -776 846 0
-777 846 0
12 -777 847 0
-778 847 0
12 -778 848 0
-779 848 0
12 -779 849 0
-780 849 0
12 -780 850 0
-781 850 0
12 -781 851 0
-782 851 0
12 -782 852 0
-783 852 0
12 -783 853 0
-784 853 0
12 -784 854 0
-785 854 0
12 -785 855 0
-786 855 0
12 -786 856 0
-787 856 0
12 -787 857 0
-788 857 0
12 -788 858 0
-789 858 0
12 -789 859 0
-790 859 0
12 -790 860 0
-791 860 0
12 -791 861 0
-792 861 0
12 -792 862 0
-793 862 0
12 -793 863 0
-794 863 0
12 -794 864 0
-795 864 0
12 -795 865 0
-796 865 0
12 -796 866 0
-797 866 0
12 -797 867 0
-798 867 0
12 -798 868 0
-799 868 0
12 -799 869 0
-800 869 0
12 -800 870 0
-801 870 0
12 -801 871 0
-802 871 0
12 -802 872 0
-803 872 0
12 -803 873 0
-804 873 0
12 -804 874 0
-805 874 0
12 -805 875 0
-806 875 0
12 -806 876 0
-807 876 0
12 -807 877 0
-808 877 0
12 -808 878 0
-809 878 0
12 -809 879 0
-810 879 0
12 -810 880 0
-811 880 0
12 -811 881 0
-812 881 0
12 -812 882 0
-813 882 0
12 -813 883 0
-814 883 0
12 -814 884 0
-815 884 0
12 -815 885 0
-816 885 0
12 -816 886 0
-817 886 0
12 -817 887 0
-818 887 0
12 -818 888 0
-819 888 0
12 -819 889 0
-820 889 0
12 -820 890 0
-821 890 0
12 -821 891 0
-822 891 0
12 -822 892 0
-823 892 0
12 -823 893 0
-824 893 0
12 -824 894 0
-825 894 0
12 -825 895 0
-826 895 0
12 -826 896 0
-827 896 0
12 -827 897 0
-828 897 0
12 -828 898 0
-829 898 0
12 -829 899 0
-830 899 0
12 -830 900 0
-831 900 0
12 -831 901 0
-832 901 0
12 -832 902 0
-833 902 0
12 -833 903 0
-834 903 0
12 -834 904 0
-835 904 0
12 -835 905 0
-836 905 0
12 -836 906 0
-837 906 0
12 -837 907 0
-838 907 0
12 -838 908 0
-839 908 0
12 -839 909 0
-840 909 0
12 -840 910 0
-841 910 0
12 -841 0
13 911 0
-842 911 0
13 -842 912 0
-843 912 0
13 -843 913 0
-844 913 0
13 -844 914 0
-845 914 0
13 -845 915 0
-846 915 0
13 -846 916 0
-847 916 0
13 -847 917 0
-848 917 0
13 -848 918 0
-849 918 0
13 -849 919 0
-850 919 0
13 -850 920 0
-851 920 0
13 -851 921 0
-852 921 0
13 -852 922 0
-853 922 0
13 -853 923 0
-854 923 0
13 -854 924 0
-855 924 0
13 -855 925 0
-856 925 0
13 -856 926 0
-857 926 0
13 -857 927 0
-858 927 0
13 -858 928 0
-859 928 0
13 -859 929 0
-860 929 0
13 -860 930 0
-861 930 0
13 -861 931 0
-862 931 0
13 -862 932 0
-863 932 0
13 -863 933 0
-864 933 0
13 -864 934 0
-865 934 0
13 -865 935 0
-866 935 0
13 -866 936 0
-867 936 0
13 -867 937 0
-868 937 0
13 -868 938 0
-869 938 0
13 -869 939 0
-870 939 0
13 -870 940 0
-871 940 0
13 -871 941 0
-872 941 0
13 -872 942 0
-873 942 0
13 -873 943 0
-874 943 0
13 -874 944 0
-875 944 0
13 -875 945 0
-876 945 0
13 -876 946 0
-877 946 0
13 -877 947 0
-878 947 0
13 -878 948 0
-879 948 0
13 -879 949 0
-880 949 0
13 -880 950 0
-881 950 0
13 -881 951 0
-882 951 0
13 -882 952 0
-883 952 0
13 -883 953 0
-884 953 0
13 -884 954 0
-885 954 0
13 -885 955 0
-886 955 0
13 -886 956 0
-887 956 0
13 -887 957 0
-888 957 0
13 -888 958 0
-889 958 0
13 -889 959 0
-890 959 0
13 -890 960 0
-891 960 0
13 -891 961 0
-892 961 0
13 -892 962 0
-893 962 0
13 -893 963 0
-894 963 0
13 -894 964 0
-895 964 0
13 -895 965 0
-896 965 0
13 -896 966 0
-897 966 0
13 -897 967 0
-898 967 0
13 -898 968 0
-899 968 0
13 -899 969 0
-900 969 0
13 -900 970 0
-901 970 0
13 -901 971 0
-902 971 0
13 -902 972 0
-903 972 0
13 -903 973 0
-904 973 0
13 -904 974 0
-905 974 0
13 -905 975 0
-906 975 0
13 -906 976 0
-907 976 0
13 -907 977 0
-908 977 0
13 -908 978 0
-909 978 0
13 -909 979 0
-910 979 0
13 -910 0
14 980 0
-911 980 0
14 -911 981 0
-912 981 0
14 -912 982 0
-913 982 0
14 -913 983 0
-914 983 0
14 -914 984 0
-915 984 0
14 -915 985 0
-916 985 0
14 -916 986 0
-917 986 0
14 -917 987 0
-918 987 0
14 -918 988 0
-919 988 0
14 -919 989 0
-920 989 0
14 -920 990 0
-921 990 0
14 -921 991 0
-922 991 0
14 -922 992 0
-923 992 0
14 -923 993 0
-924 993 0
14 -924 994 0
-925 994 0
14 -925 995 0
-926 995 0
14 -926 996 0
-927 996 0
14 -927 997 0
-928 997 0
14 -928 998 0
-929 998 0
14 -929 999 0
-930 999 0
14 -930 1000 0
-931 1000 0
14 -931 1001 0
-932 1001 0
14 -932 1002 0
-933 1002 0
14 -933 1003 0
-934 1003 0
14 -934 1004 0
-935 1004 0
14 -935 1005 0
-936 1005 0
14 -936 1006 0
-937 1006 0
14 -937 1007 0
-938 1007 0
14 -938 1008 0
-939 1008 0
14 -939 1009 0
-940 1009 0
14 -940 1010 0
-941 1010 0
14 -941 1011 0
-942 1011 0
14 -942 1012 0
-943 1012 0
14 -943 1013 0
-944 1013 0
14 -944 1014 0
-945 1014 0
14 -945 1015 0
-946 1015 0
14 -946 1016 0
-947 1016 0
14 -947 1017 0
-948 1017 0
14 -948 1018 0
-949 1018 0
14 -949 1019 0
-950 1019 0
14 -950 1020 0
-951 1020 0
14 -951 1021 0
-952 1021 0
14 -952 1022 0
-953 1022 0
14 -953 1023 0
-954 1023 0
14 -954 1024 0
-955 1024 0
14 -955 1025 0
-956 1025 0
14 -956 1026 0
-957 1026 0
14 -957 1027 0
-958 1027 0
14 -958 1028 0
-959 1028 0
14 -959 1029 0
-960 1029 0
14 -960 1030 0
-961 1030 0
14 -961 1031 0
-962 1031 0
14 -962 1032 0
-963 1032 0
14 -963 1033 0
-964 1033 0
14 -964 1034 0
-965 1034 0
14 -965 1035 0
-966 1035 0
14 -966 1036 0
-967 1036 0
14 -967 1037 0
-968 1037 0
14 -968 1038 0
-969 1038 0
14 -969 1039 0
-970 1039 0
14 -970 1040 0
-971 1040 0
14 -971 1041 0
-972 1041 0
14 -972 1042 0
-973 1042 0
14 -973 1043 0
-974 1043 0
14 -974 1044 0
-975 1044 0
14 -975 1045 0
-976 1045 0
14 -976 1046 0
-977 1046 0
14 -977 1047 0
-978 1047 0
14 -978 1048 0
-979 1048 0
14 -979 0
15 1049 0
-980 1049 0
15 -980 1050 0
-981 1050 0
15 -981 1051 0
-982 1051 0
15 -982 1052 0
-983 1052 0
15 -983 1053 0
-984 1053 0
15 -984 1054 0
-985 1054 0
15 -985 1055 0
-986 1055 0
15 -986 1056 0
-987 1056 0
15 -987 1057 0
-988 1057 0
15 -988 1058 0
-989 1058 0
15 -989 1059 0
-990 1059 0
15 -990 1060 0
-991 1060 0
15 -991 1061 0
-992 1061 0
15 -992 1062 0
-993 1062 0
15 -993 1063 0
-994 1063 0
15 -994 1064 0
-995 1064 0
15 -995 1065 0
-996 1065 0
15 -996 1066 0
-997 1066 0
15 -997 1067 0
-998 1067 0
15 -998 1068 0
-999 1068 0
15 -999 1069 0
-1000 1069 0
15 -1000 1070 0
-1001 1070 0
15 -1001 1071 0
-1002 1071 0
15 -1002 1072 0
-1003 1072 0
15 -1003 1073 0
-1004 1073 0
15 -1004 1074 0
-1005 1074 0
15 -1005 1075 0
-1006 1075 0
15 -1006 1076 0
-1007 1076 0
15 -1007 1077 0
-1008 1077 0
15 -1008 1078 0
-1009 1078 0
15 -1009 1079 0
-1010 1079 0
15 -1010 1080 0
-1011 1080 0
15 -1011 1081 0
-1012 1081 0
15 -1012 1082 0
-1013 1082 0
15 -1013 1083 0
-1014 1083 0
15 -1014 1084 0
-1015 1084 0
15 -1015 1085 0
-1016 1085 0
15 -1016 1086 0
-1017 1086 0
15 -1017 1087 0
-1018 1087 0
15 -1018 1088 0
-1019 1088 0
15 -1019 1089 0
-1020 1089 0
15 -1020 1090 0
-1021 1090 0
15 -1021 1091 0
-1022 1091 0
15 -1022 1092 0
-1023 1092 0
15 -1023 1093 0
-1024 1093 0
15 -1024 1094 0
-1025 1094 0
15 -1025 1095 0
-1026 1095 0
15 -1026 1096 0
-1027 1096 0
15 -1027 1097 0
-1028 1097 0
15 -1028 1098 0
-1029 1098 0
15 -1029 1099 0
-1030 1099 0
15 -1030 1100 0
-1031 1100 0
15 -1031 1101 0
-1032 1101 0
15 -1032 1102 0
-1033 1102 0
15 -1033 1103 0
-1034 1103 0
15 -1034 1104 0
-1035 1104 0
15 -1035 1105 0
-1036 1105 0
15 -1036 1106 0
-1037 1106 0
15 -1037 1107 0
-1038 1107 0
15 -1038 1108 0
-1039 1108 0
15 -1039 1109 0
-1040 1109 0
15 -1040 1110 0
-1041 1110 0
15 -1041 1111 0
-1042 1111 0
15 -1042 1112 0
-1043 1112 0
15 -1043 1113 0
-1044 1113 0
15 -1044 1114 0
-1045 1114 0
15 -1045 1115 0
-1046 1115 0
15 -1046 1116 0
-1047 1116 0
15 -1047 1117 0
-1048 1117 0
15 -1048 0
16 1118 0
-1049 1118 0
16 -1049 1119 0
-1050 1119 0
16 -1050 1120 0
-1051 1120 0
16 -1051 1121 0
-1052 1121 0
16 -1052 1122 0
-1053 1122 0
16 -1053 1123 0
-1054 1123 0
16 -1054 1124 0
-1055 1124 0
16 -1055 1125 0
-1056 1125 0
16 -1056 1126 0
-1057 1126 0
16 -1057 1127 0
-1058 1127 0
16 -1058 1128 0
-1059 1128 0
16 -1059 1129 0
-1060 1129 0
16 -1060 1130 0
-1061 1130 0
16 -1061 1131 0
-1062 1131 0
16 -1062 1132 0
-1063 1132 0
16 -1063 1133 0
-1064 1133 0
16 -1064 1134 0
-1065 1134 0
16 -1065 1135 0
-1066 1135 0
16 -1066 1136 0
-1067 1136 0
16 -1067 1137 0
-1068 1137 0
16 -1068 1138 0
-1069 1138 0
16 -1069 1139 0
-1070 1139 0
16 -1070 1140 0
-1071 1140 0
16 -1071 1141 0
-1072 1141 0
16 -1072 1142 0
-1073 1142 0
16 -1073 1143 0
-1074 1143 0
16 -1074 1144 0
-1075 1144 0
16 -1075 1145 0
-1076 1145 0
16 -1076 1146 0
-1077 1146 0
16 -1077 1147 0
-1078 1147 0
16 -1078 1148 0
-1079 1148 0
16 -1079 1149 0
-1080 1149 0
16 -1080 1150 0
-1081 1150 0
16 -1081 1151 0
-1082 1151 0
16 -1082 1152 0
-1083 1152 0
16 -1083 1153 0
-1084 1153 0
16 -1084 1154 0
-1085 1154 0
16 -1085 1155 0
-1086 1155 0
16 -1086 1156 0
-1087 1156 0
16 -1087 1157 0
-1088 1157 0
16 -1088 1158 0
-1089 1158 0
16 -1089 1159 0
-1090 1159 0
16 -1090 1160 0
-1091 1160 0
16 -1091 1161 0
-1092 1161 0
16 -1092 1162 0
-1093 1162 0
16 -1093 1163 0
-1094 1163 0
16 -1094 1164 0
-1095 1164 0
16 -1095 1165 0
-1096 1165 0
16 -1096 1166 0
-1097 1166 0
16 -1097 1167 0
-1098 1167 0
16 -1098 1168 0
-1099 1168 0
16 -1099 1169 0
-1100 1169 0
16 -1100 1170 0
-1101 1170 0
16 -1101 1171 0
-1102 1171 0
16 -1102 1172 0
-1103 1172 0
16 -1103 1173 0
-1104 1173 0
16 -1104 1174 0
-1105 1174 0
16 -1105 1175 0
-1106 1175 0
16 -1106 1176 0
-1107 1176 0
16 -1107 1177 0
-1108 1177 0
16 -1108 1178 0
-1109 1178 0
16 -1109 1179 0
-1110 1179 0
16 -1110 1180 0
-1111 1180 0
16 -1111 1181 0
-1112 1181 0
16 -1112 1182 0
-1113 1182 0
16 -1113 1183 0
-1114 1183 0
16 -1114 1184 0
-1115 1184 0
16 -1115 1185 0
-1116 1185 0
16 -1116 1186 0
-1117 1186 0
16 -1117 0
17 1187 0
-1118 1187 0
17 -1118 1188 0
-1119 1188 0
17 -1119 1189 0
-1120 1189 0
17 -1120 1190 0
-1121 1190 0
17 -1121 1191 0
-1122 1191 0
17 -1122 1192 0
-1123 1192 0
17 -1123 1193 0
-1124 1193 0
17 -1124 1194 0
-1125 1194 0
17 -1125 1195 0
-1126 1195 0
17 -1126 1196 0
-1127 1196 0
17 -1127 1197 0
-1128 1197 0
17 -1128 1198 0
-1129 1198 0
17 -1129 1199 0
-1130 1199 0
17 -1130 1200 0
-1131 1200 0
17 -1131 1201 0
-1132 1201 0
17 -1132 1202 0
-1133 1202 0
17 -1133 1203 0
-1134 1203 0
17 -1134 1204 0
-1135 1204 0
17 -1135 1205 0
-1136 1205 0
17 -1136 1206 0
-1137 1206 0
17 -1137 1207 0
-1138 1207 0
17 -1138 1208 0
-1139 1208 0
17 -1139 1209 0
-1140 1209 0
17 -1140 1210 0
-1141 1210 0
17 -1141 1211 0
-1142 1211 0
17 -1142 1212 0
-1143 1212 0
17 -1143 1213 0
-1144 1213 0
17 -1144 1214 0
-1145 1214 0
17 -1145 1215 0
-1146 1215 0
17 -1146 1216 0
-1147 1216 0
17 -1147 1217 0
-1148 1217 0
17 -1148 1218 0
-1149 1218 0
17 -1149 1219 0
-1150 1219 0
17 -1150 1220 0
-1151 1220 0
17 -1151 1221 0
-1152 1221 0
17 -1152 1222 0
-1153 1222 0
17 -1153 1223 0
-1154 1223 0
17 -1154 1224 0
-1155 1224 0
17 -1155 1225 0
-1156 1225 0
17 -1156 1226 0
-1157 1226 0
17 -1157 1227 0
-1158 1227 0
17 -1158 1228 0
-1159 1228 0
17 -1159 1229 0
-1160 1229 0
17 -1160 1230 0
-1161 1230 0
17 -1161 1231 0
-1162 1231 0
17 -1162 1232 0
-1163 1232 0
17 -1163 1233 0
-1164 1233 0
17 -1164 1234 0
-1165 1234 0
17 -1165 1235 0
-1166 1235 0
17 -1166 1236 0
-1167 1236 0
17 -1167 1237 0
-1168 1237 0
17 -1168 1238 0
-1169 1238 0
17 -1169 1239 0
-1170 1239 0
17 -1170 1240 0
-1171 1240 0
17 -1171 1241 0
-1172 1241 0
17 -1172 1242 0
-1173 1242 0
17 -1173 1243 0
-1174 1243 0
17 -1174 1244 0
-1175 1244 0
17 -1175 1245 0
-1176 1245 0
17 -1176 1246 0
-1177 1246 0
17 -1177 1247 0
-1178 1247 0
17 -1178 1248 0
-1179 1248 0
17 -1179 1249 0
-1180 1249 0
17 -1180 1250 0
-1181 1250 0
17 -1181 1251 0
-1182 1251 0
17 -1182 1252 0
-1183 1252 0
17 -1183 1253 0
-1184 1253 0
17 -1184 1254 0
-1185 1254 0
17 -1185 1255 0
-1186 1255 0
17 -1186 0
18 1256 0
-1187 1256 0
18 -1187 1257 0
-1188 1257 0
18 -1188 1258 0
-1189 1258 0
18 -1189 1259 0
-1190 1259 0
18 -1190 1260 0
-1191 1260 0
18 -1191 1261 0
-1192 1261 0
18 -1192 1262 0
-1193 1262 0
18 -1193 1263 0
-1194 1263 0
18 -1194 1264 0
-1195 1264 0
18 -1195 1265 0
-1196 1265 0
18 -1196 1266 0
-1197 1266 0
18 -1197 1267 0
-1198 1267 0
18 -1198 1268 0
-1199 1268 0
18 -1199 1269 0
-1200 1269 0
18 -1200 1270 0
-1201 1270 0
18 -1201 1271 0
-1202 1271 0
18 -1202 1272 0
-1203 1272 0
18 -1203 1273 0
-1204 1273 0
18 -1204 1274 0
-1205 1274 0
18 -1205 1275 0
-1206 1275 0
18 -1206 1276 0
-1207 1276 0
18 -1207 1277 0
-1208 1277 0
18 -1208 1278 0
-1209 1278 0
18 -1209 1279 0
-1210 1279 0
18 -1210 1280 0
-1211 1280 0
18 -1211 1281 0
-1212 1281 0
18 -1212 1282 0
-1213 1282 0
18 -1213 1283 0
-1214 1283 0
18 -1214 1284 0
-1215 1284 0
18 -1215 1285 0
-1216 1285 0
18 -1216 1286 0
-1217 1286 0
18 -1217 1287 0
-1218 1287 0
18 -1218 1288 0
-1219 1288 0
18 -1219 1289 0
-1220 1289 0
18 -1220 1290 0
-1221 1290 0
18 -1221 1291 0
-1222 1291 0
18 -1222 1292 0
-1223 1292 0
18 -1223 1293 0
-1224 1293 0
18 -1224 1294 0
-1225 1294 0
18 -1225 1295 0
-1226 1295 0
18 -1226 1296 0
-1227 1296 0
18 -1227 1297 0
-1228 1297 0
18 -1228 1298 0
-1229 1298 0
18 -1229 1299 0
-1230 1299 0
18 -1230 1300 0
-1231 1300 0
18 -1231 1301 0
-1232 1301 0
18 -1232 1302 0
-1233 1302 0
18 -1233 1303 0
-1234 1303 0
18 -1234 1304 0
-1235 1304 0
18 -1235 1305 0
-1236 1305 0
18 -1236 1306 0
-1237 1306 0
18 -1237 1307 0
-1238 1307 0
18 -1238 1308 0
-1239 1308 0
18 -1239 1309 0
-1240 1309 0
18 -1240 1310 0
-1241 1310 0
18 -1241 1311 0
-1242 1311 0
18 -1242 1312 0
-1243 1312 0
18 -1243 1313 0
-1244 1313 0
18 -1244 1314 0
-1245 1314 0
18 -1245 1315 0
-1246 1315 0
18 -1246 1316 0
-1247 1316 0
18 -1247 1317 0
-1248 1317 0
18 -1248 1318 0
-1249 1318 0
18 -1249 1319 0
-1250 1319 0
18 -1250 1320 0
-1251 1320 0
18 -1251 1321 0
-1252 1321 0
18 -1252 1322 0
-1253 1322 0
18 -1253 1323 0
-1254 1323 0
18 -1254 1324 0
-1255 1324 0
18 -1255 0
19 1325 0
-1256 1325 0
19 -1256 1326 0
-1257 1326 0
19 -1257 1327 0
-1258 1327 0
19 -1258 1328 0
-1259 1328 0
19 -1259 1329 0
-1260 1329 0
19 -1260 1330 0
-1261 1330 0
19 -1261 1331 0
-1262 1331 0
19 -1262 1332 0
-1263 1332 0
19 -1263 1333 0
-1264 1333 0
19 -1264 1334 0
-1265 1334 0
19 -1265 1335 0
-1266 1335 0
19 -1266 1336 0
-1267 1336 0
19 -1267 1337 0
-1268 1337 0
19 -1268 1338 0
-1269 1338 0
19 -1269 1339 0
-1270 1339 0
19 -1270 1340 0
-1271 1340 0
19 -1271 1341 0
-1272 1341 0
19 -1272 1342 0
-1273 1342 0
19 -1273 1343 0
-1274 1343 0
19 -1274 1344 0
-1275 1344 0
19 -1275 1345 0
-1276 1345 0
19 -1276 1346 0
-1277 1346 0
19 -1277 1347 0
-1278 1347 0
19 -1278 1348 0
-1279 1348 0
19 -1279 1349 0
-1280 1349 0
19 -1280 1350 0
-1281 1350 0
19 -1281 1351 0
-1282 1351 0
19 -1282 1352 0
-1283 1352 0
19 -1283 1353 0
-1284 1353 0
19 -1284 1354 0
-1285 1354 0
19 -1285 1355 0
-1286 1355 0
19 -1286 1356 0
-1287 1356 0
19 -1287 1357 0
-1288 1357 0
19 -1288 1358 0
-1289 1358 0
19 -1289 1359 0
-1290 1359 0
19 -1290 1360 0
-1291 1360 0
19 -1291 1361 0
-1292 1361 0
19 -1292 1362 0
-1293 1362 0
19 -1293 1363 0
-1294 1363 0
19 -1294 1364 0
-1295 1364 0
19 -1295 1365 0
-1296 1365 0
19 -1296 1366 0
-1297 1366 0
19 -1297 1367 0
-1298 1367 0
19 -1298 1368 0
-1299 1368 0
19 -1299 1369 0
-1300 1369 0
19 -1300 1370 0
-1301 1370 0
19 -1301 1371 0
-1302 1371 0
19 -1302 1372 0
-1303 1372 0
19 -1303 1373 0
-1304 1373 0
19 -1304 1374 0
-1305 1374 0
19 -1305 1375 0
-1306 1375 0
19 -1306 1376 0
-1307 1376 0
19 -1307 1377 0
-1308 1377 0
19 -1308 1378 0
-1309 1378 0
19 -1309 1379 0
-1310 1379 0
19 -1310 1380 0
-1311 1380 0
19 -1311 1381 0
-1312 1381 0
19 -1312 1382 0
-1313 1382 0
19 -1313 1383 0
-1314 1383 0
19 -1314 1384 0
-1315 1384 0
19 -1315 1385 0
-1316 1385 0
19 -1316 1386 0
-1317 1386 0
19 -1317 1387 0
-1318 1387 0
19 -1318 1388 0
-1319 1388 0
19 -1319 1389 0
-1320 1389 0
19 -1320 1390 0
-1321 1390 0
19 -1321 1391 0
-1322 1391 0
19 -1322 1392 0
-1323 1392 0
19 -1323 1393 0
-1324 1393 0
19 -1324 0
20 1394 0
-1325 1394 0
20 -1325 1395 0
-1326 1395 0
20 -1326 1396 0
-1327 1396 0
20 -1327 1397 0
-1328 1397 0
20 -1328 1398 0
-1329 1398 0
20 -1329 1399 0
-1330 1399 0
20 -1330 1400 0
-1331 1400 0
20 -1331 1401 0
-1332 1401 0
20 -1332 1402 0
-1333 1402 0
20 -1333 1403 0
-1334 1403 0
20 -1334 1404 0
-1335 1404 0
20 -1335 1405 0
-1336 1405 0
20 -1336 1406 0
-1337 1406 0
20 -1337 1407 0
-1338 1407 0
20 -1338 1408 0
-1339 1408 0
20 -1339 1409 0
-1340 1409 0
20 -1340 1410 0
-1341 1410 0
20 -1341 1411 0
-1342 1411 0
20 -1342 1412 0
-1343 1412 0
20 -1343 1413 0
-1344 1413 0
20 -1344 1414 0
-1345 1414 0
20 -1345 1415 0
-1346 1415 0
20 -1346 1416 0
-1347 1416 0
20 -1347 1417 0
-1348 1417 0
20 -1348 1418 0
-1349 1418 0
20 -1349 1419 0
-1350 1419 0
20 -1350 1420 0
-1351 1420 0
20 -1351 1421 0
-1352 1421 0
20 -1352 1422 0
-1353 1422 0
20 -1353 1423 0
-1354 1423 0
20 -1354 1424 0
-1355 1424 0
20 -1355 1425 0
-1356 1425 0
20 -1356 1426 0
-1357 1426 0
20 -1357 1427 0
-1358 1427 0
20 -1358 1428 0
-1359 1428 0
20 -1359 1429 0
-1360 1429 0
20 -1360 1430 0
-1361 1430 0
20 -1361 1431 0
-1362 1431 0
20 -1362 1432 0
-1363 1432 0
20 -1363 1433 0
-1364 1433 0
20 -1364 1434 0
-1365 1434 0
20 -1365 1435 0
-1366 1435 0
20 -1366 1436 0
-1367 1436 0
20 -1367 1437 0
-1368 1437 0
20 -1368 1438 0
-1369 1438 0
20 -1369 1439 0
-1370 1439 0
20 -1370 1440 0
-1371 1440 0
20 -1371 1441 0
-1372 1441 0
20 -1372 1442 0
-1373 1442 0
20 -1373 1443 0
-1374 1443 0
20 -1374 1444 0
-1375 1444 0
20 -1375 1445 0
-1376 1445 0
20 -1376 1446 0
-1377 1446 0
20 -1377 1447 0
-1378 1447 0
20 -1378 1448 0
-1379 1448 0
20 -1379 1449 0
-1380 1449 0
20 -1380 1450 0
-1381 1450 0
20 -1381 1451 0
-1382 1451 0
20 -1382 1452 0
-1383 1452 0
20 -1383 1453 0
-1384 1453 0
20 -1384 1454 0
-1385 1454 0
20 -1385 1455 0
-1386 1455 0
20 -1386 1456 0
-1387 1456 0
20 -1387 1457 0
-1388 1457 0
20 -1388 1458 0
-1389 1458 0
20 -1389 1459 0
-1390 1459 0
20 -1390 1460 0
-1391 1460 0
20 -1391 1461 0
-1392 1461 0
20 -1392 1462 0
-1393 1462 0
20 -1393 0
21 1463 0
-1394 1463 0
21 -1394 1464 0
-1395 1464 0
21 -1395 1465 0
-1396 1465 0
21 -1396 1466 0
-1397 1466 0
21 -1397 1467 0
-1398 1467 0
21 -1398 1468 0
-1399 1468 0
21 -1399 1469 0
-1400 1469 0
21 -1400 1470 0
-1401 1470 0
21 -1401 1471 0
-1402 1471 0
21 -1402 1472 0
-1403 1472 0
21 -1403 1473 0
-1404 1473 0
21 -1404 1474 0
-1405 1474 0
21 -1405 1475 0
-1406 1475 0
21 -1406 1476 0
-1407 1476 0
21 -1407 1477 0
-1408 1477 0
21 -1408 1478 0
-1409 1478 0
21 -1409 1479 0
-1410 1479 0
21 -1410 1480 0
-1411 1480 0
21 -1411 1481 0
-1412 1481 0
21 -1412 1482 0
-1413 1482 0
21 -1413 1483 0
-1414 1483 0
21 -1414 1484 0
-1415 1484 0
21 -1415 1485 0
-1416 1485 0
21 -1416 1486 0
-1417 1486 0
21 -1417 1487 0
-1418 1487 0
21 -1418 1488 0
-1419 1488 0
21 -1419 1489 0
-1420 1489 0
21 -1420 1490 0
-1421 1490 0
21 -1421 1491 0
-1422 1491 0
21 -1422 1492 0
-1423 1492 0
21 -1423 1493 0
-1424 1493 0
21 -1424 1494 0
-1425 1494 0
21 -1425 1495 0
-1426 1495 0
21 -1426 1496 0
-1427 1496 0
21 -1427 1497 0
-1428 1497 0
21 -1428 1498 0
-1429 1498 0
21 -1429 1499 0
-1430 1499 0
21 -1430 1500 0
-1431 1500 0
21 -1431 1501 0
-1432 1501 0
21 -1432 1502 0
-1433 1502 0
21 -1433 1503 0
-1434 1503 0
21 -1434 1504 0
-1435 1504 0
21 -1435 1505 0
-1436 1505 0
21 -1436 1506 0
-1437 1506 0
21 -1437 1507 0
-1438 1507 0
21 -1438 1508 0
-1439 1508 0
21 -1439 1509 0
-1440 1509 0
21 -1440 1510 0
-1441 1510 0
21 -1441 1511 0
-1442 1511 0
21 -1442 1512 0
-1443 1512 0
21 -1443 1513 0
-1444 1513 0
21 -1444 1514 0
-1445 1514 0
21 -1445 1515 0
-1446 1515 0
21 -1446 1516 0
-1447 1516 0
21 -1447 1517 0
-1448 1517 0
21 -1448 1518 0
-1449 1518 0
21 -1449 1519 0
-1450 1519 0
21 -1450 1520 0
-1451 1520 0
21 -1451 1521 0
-1452 1521 0
21 -1452 1522 0
-1453 1522 0
21 -1453 1523 0
-1454 1523 0
21 -1454 1524 0
-1455 1524 0
21 -1455 1525 0
-1456 1525 0
21 -1456 1526 0
-1457 1526 0
21 -1457 1527 0
-1458 1527 0
21 -1458 1528 0
-1459 1528 0
21 -1459 1529 0
-1460 1529 0
21 -1460 1530 0
-1461 1530 0
21 -1461 1531 0
-1462 1531 0
21 -1462 0
22 1532 0
-1463 1532 0
22 -1463 1533 0
-1464 1533 0
22 -1464 1534 0
-1465 1534 0
22 -1465 1535 0
-1466 1535 0
22 -1466 1536 0
-1467 1536 0
22 -1467 1537 0
-1468 1537 0
22 -1468 1538 0
-1469 1538 0
22 -1469 1539 0
-1470 1539 0
22 -1470 1540 0
-1471 1540 0
22 -1471 1541 0
-1472 1541 0
22 -1472 1542 0
-1473 1542 0
22 -1473 1543 0
-1474 1543 0
22 -1474 1544 0
-1475 1544 0
22 -1475 1545 0
-1476 1545 0
22 -1476 1546 0
-1477 1546 0
22 -1477 1547 0
-1478 1547 0
22 -1478 1548 0
-1479 1548 0
22 -1479 1549 0
-1480 1549 0
22 -1480 1550 0
-1481 1550 0
22 -1481 1551 0
-1482 1551 0
22 -1482 1552 0
-1483 1552 0
22 -1483 1553 0
-1484 1553 0
22 -1484 1554 0
-1485 1554 0
22 -1485 1555 0
-1486 1555 0
22 -1486 1556 0
-1487 1556 0
22 -1487 1557 0
-1488 1557 0
22 -1488 1558 0
-1489 1558 0
22 -1489 1559 0
-1490 1559 0
22 -1490 1560 0
-1491 1560 0
22 -1491 1561 0
-1492 1561 0
22 -1492 1562 0
-1493 1562 0
22 -1493 1563 0
-1494 1563 0
22 -1494 1564 0
-1495 1564 0
22 -1495 1565 0
-1496 1565 0
22 -1496 1566 0
-1497 1566 0
22 -1497 1567 0
-1498 1567 0
22 -1498 1568 0
-1499 1568 0
22 -1499 1569 0
-1500 1569 0
22 -1500 1570 0
-1501 1570 0
22 -1501 1571 0
-1502 1571 0
22 -1502 1572 0
-1503 1572 0
22 -1503 1573 0
-1504 1573 0
22 -1504 1574 0
-1505 1574 0
22 -1505 1575 0
-1506 1575 0
22 -1506 1576 0
-1507 1576 0
22 -1507 1577 0
-1508 1577 0
22 -1508 1578 0
-1509 1578 0
22 -1509 1579 0
-1510 1579 0
22 -1510 1580 0
-1511 1580 0
22 -1511 1581 0
-1512 1581 0
22 -1512 1582 0
-1513 1582 0
22 -1513 1583 0
-1514 1583 0
22 -1514 1584 0
-1515 1584 0
22 -1515 1585 0
-1516 1585 0
22 -1516 1586 0
-1517 1586 0
22 -1517 1587 0
-1518 1587 0
22 -1518 1588 0
-1519 1588 0
22 -1519 1589 0
-1520 1589 0
22 -1520 1590 0
-1521 1590 0
22 -1521 1591 0
-1522 1591 0
22 -1522 1592 0
-1523 1592 0
22 -1523 1593 0
-1524 1593 0
22 -1524 1594 0
-1525 1594 0
22 -1525 1595 0
-1526 1595 0
22 -1526 1596 0
-1527 1596 0
22 -1527 1597 0
-1528 1597 0
22 -1528 1598 0
-1529 1598 0
22 -1529 1599 0
-1530 1599 0
22 -1530 1600 0
-1531 1600 0
22 -1531 0
23 1601 0
-1532 1601 0
23 -1532 1602 0
-1533 1602 0
23 -1533 1603 0
-1534 1603 0
23 -1534 1604 0
-1535 1604 0
23 -1535 1605 0
-1536 1605 0
23 -1536 1606 0
-1537 1606 0
23 -1537 1607 0
-1538 1607 0
23 -1538 1608 0
-1539 1608 0
23 -1539 1609 0
-1540 1609 0
23 -1540 1610 0
-1541 1610 0
23 -1541 1611 0
-1542 1611 0
23 -1542 1612 0
-1543 1612 0
23 -1543 1613 0
-1544 1613 0
23 -1544 1614 0
-1545 1614 0
23 -1545 1615 0
-1546 1615 0
23 -1546 1616 0
-1547 1616 0
23 -1547 1617 0
-1548 1617 0
23 -1548 1618 0
-1549 1618 0
23 -1549 1619 0
-1550 1619 0
23 -1550 1620 0
-1551 1620 0
23 -1551 1621 0
-1552 1621 0
23 -1552 1622 0
-1553 1622 0
23 -1553 1623 0
-1554 1623 0
23 -1554 1624 0
-1555 1624 0
23 -1555 1625 0
-1556 1625 0
23 -1556 1626 0
-1557 1626 0
23 -1557 1627 0
-1558 1627 0
23 -1558 1628 0
-1559 1628 0
23 -1559 1629 0
-1560 1629 0
23 -1560 1630 0
-1561 1630 0
23 -1561 1631 0
-1562 1631 0
23 -1562 1632 0
-1563 1632 0
23 -1563 1633 0
-1564 1633 0
23 -1564 1634 0
-1565 1634 0
23 -1565 1635 0
-1566 1635 0
23 -1566 1636 0
-1567 1636 0
23 -1567 1637 0
-1568 1637 0
23 -1568 1638 0
-1569 1638 0
23 -1569 1639 0
-1570 1639 0
23 -1570 1640 0
-1571 1640 0
23 -1571 1641 0
-1572 1641 0
23 -1572 1642 0
-1573 1642 0
23 -1573 1643 0
-1574 1643 0
23 -1574 1644 0
-1575 1644 0
23 -1575 1645 0
-1576 1645 0
23 -1576 1646 0
-1577 1646 0
23 -1577 1647 0
-1578 1647 0
23 -1578 1648 0
-1579 1648 0
23 -1579 1649 0
-1580 1649 0
23 -1580 1650 0
-1581 1650 0
23 -1581 1651 0
-1582 1651 0
23 -1582 1652 0
-1583 1652 0
23 -1583 1653 0
-1584 1653 0
23 -1584 1654 0
-1585 1654 0
23 -1585 1655 0
-1586 1655 0
23 -1586 1656 0
-1587 1656 0
23 -1587 1657 0
-1588 1657 0
23 -1588 1658 0
-1589 1658 0
23 -1589 1659 0
-1590 1659 0
23 -1590 1660 0
-1591 1660 0
23 -1591 1661 0
-1592 1661 0
23 -1592 1662 0
-1593 1662 0
23 -1593 1663 0
-1594 1663 0
23 -1594 1664 0
-1595 1664 0
23 -1595 1665 0
-1596 1665 0
23 -1596 1666 0
-1597 1666 0
23 -1597 1667 0
-1598 1667 0
23 -1598 1668 0
-1599 1668 0
23 -1599 1669 0
-1600 1669 0
23 -1600 0
24 1670 0
-1601 1670 0
24 -1601 1671 0
-1602 1671 0
24 -1602 1672 0
-1603 1672 0
24 -1603 1673 0
-1604 1673 0
24 -1604 1674 0
-1605 1674 0
24 -1605 1675 0
-1606 1675 0
24 -1606 1676 0
-1607 1676 0
24 -1607 1677 0
-1608 1677 0
24 -1608 1678 0
-1609 1678 0
24 -1609 1679 0
-1610 1679 0
24 -1610 1680 0
-1611 1680 0
24 -1611 1681 0
-1612 1681 0
24 -1612 1682 0
-1613 1682 0
24 -1613 1683 0
-1614 1683 0
24 -1614 1684 0
-1615 1684 0
24 -1615 1685 0
-1616 1685 0
24 -1616 1686 0
-1617 1686 0
24 -1617 1687 0
-1618 1687 0
24 -1618 1688 0
-1619 1688 0
24 -1619 1689 0
-1620 1689 0
24 -1620 1690 0
-1621 1690 0
24 -1621 1691 0
-1622 1691 0
24 -1622 1692 0
-1623 1692 0
24 -1623 1693 0
-1624 1693 0
24 -1624 1694 0
-1625 1694 0
24 -1625 1695 0
-1626 1695 0
24 -1626 1696 0
-1627 1696 0
24 -1627 1697 0
-1628 1697 0
24 -1628 1698 0
-1629 1698 0
24 -1629 1699 0
-1630 1699 0
24 -1630 1700 0
-1631 1700 0
24 -1631 1701 0
-1632 1701 0
24 -1632 1702 0
-1633 1702 0
24 -1633 1703 0
-1634 1703 0
24 -1634 1704 0
-1635 1704 0
24 -1635 1705 0
-1636 1705 0
24 -1636 1706 0
-1637 1706 0
24 -1637 1707 0
-1638 1707 0
24 -1638 1708 0
-1639 1708 0
24 -1639 1709 0
-1640 1709 0
24 -1640 1710 0
-1641 1710 0
24 -1641 1711 0
-1642 1711 0
24 -1642 1712 0
-1643 1712 0
24 -1643 1713 0
-1644 1713 0
24 -1644 1714 0
-1645 1714 0
24 -1645 1715 0
-1646 1715 0
24 -1646 1716 0
-1647 1716 0
24 -1647 1717 0
-1648 1717 0
24 -1648 1718 0
-1649 1718 0
24 -1649 1719 0
-1650 1719 0
24 -1650 1720 0
-1651 1720 0
24 -1651 1721 0
-1652 1721 0
24 -1652 1722 0
-1653 1722 0
24 -1653 1723 0
-1654 1723 0
24 -1654 1724 0
-1655 1724 0
24 -1655 1725 0
-1656 1725 0
24 -1656 1726 0
-1657 1726 0
24 -1657 1727 0
-1658 1727 0
24 -1658 1728 0
-1659 1728 0
24 -1659 1729 0
-1660 1729 0
24 -1660 1730 0
-1661 1730 0
24 -1661 1731 0
-1662 1731 0
24 -1662 1732 0
-1663 1732 0
24 -1663 1733 0
-1664 1733 0
24 -1664 1734 0
-1665 1734 0
24 -1665 1735 0
-1666 1735 0
24 -1666 1736 0
-1667 1736 0
24 -1667 1737 0
-1668 1737 0
24 -1668 1738 0
-1669 1738 0
24 -1669 0
25 1739 0
-1670 1739 0
25 -1670 1740 0
-1671 1740 0
25 -1671 1741 0
-1672 1741 0
25 -1672 1742 0
-1673 1742 0
25 -1673 1743 0
-1674 1743 0
25 -1674 1744 0
-1675 1744 0
25 -1675 1745 0
-1676 1745 0
25 -1676 1746 0
-1677 1746 0
25 -1677 1747 0
-1678 1747 0
25 -1678 1748 0
-1679 1748 0
25 -1679 1749 0
-1680 1749 0
25 -1680 1750 0
-1681 1750 0
25 -1681 1751 0
-1682 1751 0
25 -1682 1752 0
-1683 1752 0
25 -1683 1753 0
-1684 1753 0
25 -1684 1754 0
-1685 1754 0
25 -1685 1755 0
-1686 1755 0
25 -1686 1756 0
-1687 1756 0
25 -1687 1757 0
-1688 1757 0
25 -1688 1758 0
-1689 1758 0
25 -1689 1759 0
-1690 1759 0
25 -1690 1760 0
-1691 1760 0
25 -1691 1761 0
-1692 1761 0
25 -1692 1762 0
-1693 1762 0
25 -1693 1763 0
-1694 1763 0
25 -1694 1764 0
-1695 1764 0
25 -1695 1765 0
-1696 1765 0
25 -1696 1766 0
-1697 1766 0
25 -1697 1767 0
-1698 1767 0
25 -1698 1768 0
-1699 1768 0
25 -1699 1769 0
-1700 1769 0
25 -1700 1770 0
-1701 1770 0
25 -1701 1771 0
-1702 1771 0
25 -1702 1772 0
-1703 1772 0
25 -1703 1773 0
-1704 1773 0
25 -1704 1774 0
-1705 1774 0
25 -1705 1775 0
-1706 1775 0
25 -1706 1776 0
-1707 1776 0
25 -1707 1777 0
-1708 1777 0
25 -1708 1778 0
-1709 1778 0
25 -1709 1779 0
-1710 1779 0
25 -1710 1780 0
-1711 1780 0
25 -1711 1781 0
-1712 1781 0
25 -1712 1782 0
-1713 1782 0
25 -1713 1783 0
-1714 1783 0
25 -1714 1784 0
-1715 1784 0
25 -1715 1785 0
-1716 1785 0
25 -1716 1786 0
-1717 1786 0
25 -1717 1787 0
-1718 1787 0
25 -1718 1788 0
-1719 1788 0
25 -1719 1789 0
-1720 1789 0
25 -1720 1790 0
-1721 1790 0
25 -1721 1791 0
-1722 1791 0
25 -1722 1792 0
-1723 1792 0
25 -1723 1793 0
-1724 1793 0
25 -1724 1794 0
-1725 1794 0
25 -1725 1795 0
-1726 1795 0
25 -1726 1796 0
-1727 1796 0
25 -1727 1797 0
-1728 1797 0
25 -1728 1798 0
-1729 1798 0
25 -1729 1799 0
-1730 1799 0
25 -1730 1800 0
-1731 1800 0
25 -1731 1801 0
-1732 1801 0
25 -1732 1802 0
-1733 1802 0
25 -1733 1803 0
-1734 1803 0
25 -1734 1804 0
-1735 1804 0
25 -1735 1805 0
-1736 1805 0
25 -1736 1806 0
-1737 1806 0
25 -1737 1807 0
-1738 1807 0
25 -1738 0
26 1808 0
-1739 1808 0
26 -1739 1809 0
-1740 1809 0
26 -1740 1810 0
-1741 1810 0
26 -1741 1811 0
-1742 1811 0
26 -1742 1812 0
-1743 1812 0
26 -1743 1813 0
-1744 1813 0
26 -1744 1814 0
-1745 1814 0
26 -1745 1815 0
-1746 1815 0
26 -1746 1816 0
-1747 1816 0
26 -1747 1817 0
-1748 1817 0
26 -1748 1818 0
-1749 1818 0
26 -1749 1819 0
-1750 1819 0
26 -1750 1820 0
-1751 1820 0
26 -1751 1821 0
-1752 1821 0
26 -1752 1822 0
-1753 1822 0
26 -1753 1823 0
-1754 1823 0
26 -1754 1824 0
-1755 1824 0
26 -1755 1825 0
-1756 1825 0
26 -1756 1826 0
-1757 1826 0
26 -1757 1827 0
-1758 1827 0
26 -1758 1828 0
-1759 1828 0
26 -1759 1829 0
-1760 1829 0
26 -1760 1830 0
-1761 1830 0
26 -1761 1831 0
-1762 1831 0
26 -1762 1832 0
-1763 1832 0
26 -1763 1833 0
-1764 1833 0
26 -1764 1834 0
-1765 1834 0
26 -1765 1835 0
-1766 1835 0
26 -1766 1836 0
-1767 1836 0
26 -1767 1837 0
-1768 1837 0
26 -1768 1838 0
-1769 1838 0
26 -1769 1839 0
-1770 1839 0
26 -1770 1840 0
-1771 1840 0
26 -1771 1841 0
-1772 1841 0
26 -1772 1842 0
-1773 1842 0
26 -1773 1843 0
-1774 1843 0
26 -1774 1844 0
-1775 1844 0
26 -1775 1845 0
-1776 1845 0
26 -1776 1846 0
-1777 1846 0
26 -1777 1847 0
-1778 1847 0
26 -1778 1848 0
-1779 1848 0
26 -1779 1849 0
-1780 1849 0
26 -1780 1850 0
-1781 1850 0
26 -1781 1851 0
-1782 1851 0
26 -1782 1852 0
-1783 1852 0
26 -1783 1853 0
-1784 1853 0
26 -1784 1854 0
-1785 1854 0
26 -1785 1855 0
-1786 1855 0
26 -1786 1856 0
-1787 1856 0
26 -1787 1857 0
-1788 1857 0
26 -1788 1858 0
-1789 1858 0
26 -1789 1859 0
-1790 1859 0
26 -1790 1860 0
-1791 1860 0
26 -1791 1861 0
-1792 1861 0
26 -1792 1862 0
-1793 1862 0
26 -1793 1863 0
-1794 1863 0
26 -1794 1864 0
-1795 1864 0
26 -1795 1865 0
-1796 1865 0
26 -1796 1866 0
-1797 1866 0
26 -1797 1867 0
-1798 1867 0
26 -1798 1868 0
-1799 1868 0
26 -1799 1869 0
-1800 1869 0
26 -1800 1870 0
-1801 1870 0
26 -1801 1871 0
-1802 1871 0
26 -1802 1872 0
-1803 1872 0
26 -1803 1873 0
-1804 1873 0
26 -1804 1874 0
-1805 1874 0
26 -1805 1875 0
-1806 1875 0
26 -1806 1876 0
-1807 1876 0
26 -1807 0
27 1877 0
-1808 1877 0
27 -1808 1878 0
-1809 1878 0
27 -1809 1879 0
-1810 1879 0
27 -1810 1880 0
-1811 1880 0
27 -1811 1881 0
-1812 1881 0
27 -1812 1882 0
-1813 1882 0
27 -1813 1883 0
-1814 1883 0
27 -1814 1884 0
-1815 1884 0
27 -1815 1885 0
-1816 1885 0
27 -1816 1886 0
-1817 1886 0
27 -1817 1887 0
-1818 1887 0
27 -1818 1888 0
-1819 1888 0
27 -1819 1889 0
-1820 1889 0
27 -1820 1890 0
-1821 1890 0
27 -1821 1891 0
-1822 1891 0
27 -1822 1892 0
-1823 1892 0
27 -1823 1893 0
-1824 1893 0
27 -1824 1894 0
-1825 1894 0
27 -1825 1895 0
-1826 1895 0
27 -1826 1896 0
-1827 1896 0
27 -1827 1897 0
-1828 1897 0
27 -1828 1898 0
-1829 1898 0
27 -1829 1899 0
-1830 1899 0
27 -1830 1900 0
-1831 1900 0
27 -1831 1901 0
-1832 1901 0
27 -1832 1902 0
-1833 1902 0
27 -1833 1903 0
-1834 1903 0
27 -1834 1904 0
-1835 1904 0
27 -1835 1905 0
-1836 1905 0
27 -1836 1906 0
-1837 1906 0
27 -1837 1907 0
-1838 1907 0
27 -1838 1908 0
-1839 1908 0
27 -1839 1909 0
-1840 1909 0
27 -1840 1910 0
-1841 1910 0
27 -1841 1911 0
-1842 1911 0
27 -1842 1912 0
-1843 1912 0
27 -1843 1913 0
-1844 1913 0
27 -1844 1914 0
-1845 1914 0
27 -1845 1915 0
-1846 1915 0
27 -1846 1916 0
-1847 1916 0
27 -1847 1917 0
-1848 1917 0
27 -1848 1918 0
-1849 1918 0
27 -1849 1919 0
-1850 1919 0
27 -1850 1920 0
-1851 1920 0
27 -1851 1921 0
-1852 1921 0
27 -1852 1922 0
-1853 1922 0
27 -1853 1923 0
-1854 1923 0
27 -1854 1924 0
-1855 1924 0
27 -1855 1925 0
-1856 1925 0
27 -1856 1926 0
-1857 1926 0
27 -1857 1927 0
-1858 1927 0
27 -1858 1928 0
-1859 1928 0
27 -1859 1929 0
-1860 1929 0
27 -1860 1930 0
-1861 1930 0
27 -1861 1931 0
-1862 1931 0
27 -1862 1932 0
-1863 1932 0
27 -1863 1933 0
-1864 1933 0
27 -1864 1934 0
-1865 1934 0
27 -1865 1935 0
-1866 1935 0
27 -1866 1936 0
-1867 1936 0
27 -1867 1937 0
-1868 1937 0
27 -1868 1938 0
-1869 1938 0
27 -1869 1939 0
-1870 1939 0
27 -1870 1940 0
-1871 1940 0
27 -1871 1941 0
-1872 1941 0
27 -1872 1942 0
-1873 1942 0
27 -1873 1943 0
-1874 1943 0
27 -1874 1944 0
-1875 1944 0
27 -1875 1945 0
-1876 1945 0
27 -1876 0
28 1946 0
-1877 1946 0
28 -1877 1947 0
-1878 1947 0
28 -1878 1948 0
-1879 1948 0
28 -1879 1949 0
-1880 1949 0
28 -1880 1950 0
-1881 1950 0
28 -1881 1951 0
-1882 1951 0
28 -1882 1952 0
-1883 1952 0
28 -1883 1953 0
-1884 1953 0
28 -1884 1954 0
-1885 1954 0
28 -1885 1955 0
-1886 1955 0
28 -1886 1956 0
-1887 1956 0
28 -1887 1957 0
-1888 1957 0
28 -1888 1958 0
-1889 1958 0
28 -1889 1959 0
-1890 1959 0
28 -1890 1960 0
-1891 1960 0
28 -1891 1961 0
-1892 1961 0
28 -1892 1962 0
-1893 1962 0
28 -1893 1963 0
-1894 1963 0
28 -1894 1964 0
-1895 1964 0
28 -1895 1965 0
-1896 1965 0
28 -1896 1966 0
-1897 1966 0
28 -1897 1967 0
-1898 1967 0
28 -1898 1968 0
-1899 1968 0
28 -1899 1969 0
-1900 1969 0
28 -1900 1970 0
-1901 1970 0
28 -1901 1971 0
-1902 1971 0
28 -1902 1972 0
-1903 1972 0
28 -1903 1973 0
-1904 1973 0
28 -1904 1974 0
-1905 1974 0
28 -1905 1975 0
-1906 1975 0
28 -1906 1976 0
-1907 1976 0
28 -1907 1977 0
-1908 1977 0
28 -1908 1978 0
-1909 1978 0
28 -1909 1979 0
-1910 1979 0
28 -1910 1980 0
-1911 1980 0
28 -1911 1981 0
-1912 1981 0
28 -1912 1982 0
-1913 1982 0
28 -1913 1983 0
-1914 1983 0
28 -1914 1984 0
-1915 1984 0
28 -1915 1985 0
-1916 1985 0
28 -1916 1986 0
-1917 1986 0
28 -1917 1987 0
-1918 1987 0
28 -1918 1988 0
-1919 1988 0
28 -1919 1989 0
-1920 1989 0
28 -1920 1990 0
-1921 1990 0
28 -1921 1991 0
-1922 1991 0
28 -1922 1992 0
-1923 1992 0
28 -1923 1993 0
-1924 1993 0
28 -1924 1994 0
-1925 1994 0
28 -1925 1995 0
-1926 1995 0
28 -1926 1996 0
-1927 1996 0
28 -1927 1997 0
-1928 1997 0
28 -1928 1998 0
-1929 1998 0
28 -1929 1999 0
-1930 1999 0
28 -1930 2000 0
-1931 2000 0
28 -1931 2001 0
-1932 2001 0
28 -1932 2002 0
-1933 2002 0
28 -1933 2003 0
-1934 2003 0
28 -1934 2004 0
-1935 2004 0
28 -1935 2005 0
-1936 2005 0
28 -1936 2006 0
-1937 2006 0
28 -1937 2007 0
-1938 2007 0
28 -1938 2008 0
-1939 2008 0
28 -1939 2009 0
-1940 2009 0
28 -1940 2010 0
-1941 2010 0
28 -1941 2011 0
-1942 2011 0
28 -1942 2012 0
-1943 2012 0
28 -1943 2013 0
-1944 2013 0
28 -1944 2014 0
-1945 2014 0
28 -1945 0
29 2015 0
-1946 2015 0
29 -1946 2016 0
-1947 2016 0
29 -1947 2017 0
-1948 2017 0
29 -1948 2018 0
-1949 2018 0
29 -1949 2019 0
-1950 2019 0
29 -1950 2020 0
-1951 2020 0
29 -1951 2021 0
-1952 2021 0
29 -1952 2022 0
-1953 2022 0
29 -1953 2023 0
-1954 2023 0
29 -1954 2024 0
-1955 2024 0
29 -1955 2025 0
-1956 2025 0
29 -1956 2026 0
-1957 2026 0
29 -1957 2027 0
-1958 2027 0
29 -1958 2028 0
-1959 2028 0
29 -1959 2029 0
-1960 2029 0
29 -1960 2030 0
-1961 2030 0
29 -1961 2031 0
-1962 2031 0
29 -1962 2032 0
-1963 2032 0
29 -1963 2033 0
-1964 2033 0
29 -1964 2034 0
-1965 2034 0
29 -1965 2035 0
-1966 2035 0
29 -1966 2036 0
-1967 2036 0
29 -1967 2037 0
-1968 2037 0
29 -1968 2038 0
-1969 2038 0
29 -1969 2039 0
-1970 2039 0
29 -1970 2040 0
-1971 2040 0
29 -1971 2041 0
-1972 2041 0
29 -1972 2042 0
-1973 2042 0
29 -1973 2043 0
-1974 2043 0
29 -1974 2044 0
-1975 2044 0
29 -1975 2045 0
-1976 2045 0
29 -1976 2046 0
-1977 2046 0
29 -1977 2047 0
-1978 2047 0
29 -1978 2048 0
-1979 2048 0
29 -1979 2049 0
-1980 2049 0
29 -1980 2050 0
-1981 2050 0
29 -1981 2051 0
-1982 2051 0
29 -1982 2052 0
-1983 2052 0
29 -1983 2053 0
-1984 2053 0
29 -1984 2054 0
-1985 2054 0
29 -1985 2055 0
-1986 2055 0
29 -1986 2056 0
-1987 2056 0
29 -1987 2057 0
-1988 2057 0
29 -1988 2058 0
-1989 2058 0
29 -1989 2059 0
-1990 2059 0
29 -1990 2060 0
-1991 2060 0
29 -1991 2061 0
-1992 2061 0
29 -1992 2062 0
-1993 2062 0
29 -1993 2063 0
-1994 2063 0
29 -1994 2064 0
-1995 2064 0
29 -1995 2065 0
-1996 2065 0
29 -1996 2066 0
-1997 2066 0
29 -1997 2067 0
-1998 2067 0
29 -1998 2068 0
-1999 2068 0
29 -1999 2069 0
-2000 2069 0
29 -2000 2070 0
-2001 2070 0
29 -2001 2071 0
-2002 2071 0
29 -2002 2072 0
-2003 2072 0
29 -2003 2073 0
-2004 2073 0
29 -2004 2074 0
-2005 2074 0
29 -2005 2075 0
-2006 2075 0
29 -2006 2076 0
-2007 2076 0
29 -2007 2077 0
-2008 2077 0
29 -2008 2078 0
-2009 2078 0
29 -2009 2079 0
-2010 2079 0
29 -2010 2080 0
-2011 2080 0
29 -2011 2081 0
-2012 2081 0
29 -2012 2082 0
-2013 2082 0
29 -2013 2083 0
-2014 2083 0
29 -2014 0
30 2084 0
-2015 2084 0
30 -2015 2085 0
-2016 2085 0
30 -2016 2086 0
-2017 2086 0
30 -2017 2087 0
-2018 2087 0
30 -2018 2088 0
-2019 2088 0
30 -2019 2089 0
-2020 2089 0
30 -2020 2090 0
-2021 2090 0
30 -2021 2091 0
-2022 2091 0
30 -2022 2092 0
-2023 2092 0
30 -2023 2093 0
-2024 2093 0
30 -2024 2094 0
-2025 2094 0
30 -2025 2095 0
-2026 2095 0
30 -2026 2096 0
-2027 2096 0
30 -2027 2097 0
-2028 2097 0
30 -2028 2098 0
-2029 2098 0
30 -2029 2099 0
-2030 2099 0
30 -2030 2100 0
-2031 2100 0
30 -2031 2101 0
-2032 2101 0
30 -2032 2102 0
-2033 2102 0
30 -2033 2103 0
-2034 2103 0
30 -2034 2104 0
-2035 2104 0
30 -2035 2105 0
-2036 2105 0
30 -2036 2106 0
-2037 2106 0
30 -2037 2107 0
-2038 2107 0
30 -2038 2108 0
-2039 2108 0
30 -2039 2109 0
-2040 2109 0
30 -2040 2110 0
-2041 2110 0
30 -2041 2111 0
-2042 2111 0
30 -2042 2112 0
-2043 2112 0
30 -2043 2113 0
-2044 2113 0
30 -2044 2114 0
-2045 2114 0
30 -2045 2115 0
-2046 2115 0
30 -2046 2116 0
-2047 2116 0
30 -2047 2117 0
-2048 2117 0
30 -2048 2118 0
-2049 2118 0
30 -2049 2119 0
-2050 2119 0
30 -2050 2120 0
-2051 2120 0
30 -2051 2121 0
-2052 2121 0
30 -2052 2122 0
-2053 2122 0
30 -2053 2123 0
-2054 2123 0
30 -2054 2124 0
-2055 2124 0
30 -2055 2125 0
-2056 2125 0
30 -2056 2126 0
-2057 2126 0
30 -2057 2127 0
-2058 2127 0
30 -2058 2128 0
-2059 2128 0
30 -2059 2129 0
-2060 2129 0
30 -2060 2130 0
-2061 2130 0
30 -2061 2131 0
-2062 2131 0
30 -2062 2132 0
-2063 2132 0
30 -2063 2133 0
-2064 2133 0
30 -2064 2134 0
-2065 2134 0
30 -2065 2135 0
-2066 2135 0
30 -2066 2136 0
-2067 2136 0
30 -2067 2137 0
-2068 2137 0
30 -2068 2138 0
-2069 2138 0
30 -2069 2139 0
-2070 2139 0
30 -2070 2140 0
-2071 2140 0
30 -2071 2141 0
-2072 2141 0
30 -2072 2142 0
-2073 2142 0
30 -2073 2143 0
-2074 2143 0
30 -2074 2144 0
-2075 2144 0
30 -2075 2145 0
-2076 2145 0
30 -2076 2146 0
-2077 2146 0
30 -2077 2147 0
-2078 2147 0
30 -2078 2148 0
-2079 2148 0
30 -2079 2149 0
-2080 2149 0
30 -2080 2150 0
-2081 2150 0
30 -2081 2151 0
-2082 2151 0
30 -2082 2152 0
-2083 2152 0
30 -2083 0
31 2153 0
-2084 2153 0
31 -2084 2154 0
-2085 2154 0
31 -2085 2155 0
-2086 2155 0
31 -2086 2156 0
-2087 2156 0
31 -2087 2157 0
-2088 2157 0
31 -2088 2158 0
-2089 2158 0
31 -2089 2159 0
-2090 2159 0
31 -2090 2160 0
-2091 2160 0
31 -2091 2161 0
-2092 2161 0
31 -2092 2162 0
-2093 2162 0
31 -2093 2163 0
-2094 2163 0
31 -2094 2164 0
-2095 2164 0
31 -2095 2165 0
-2096 2165 0
31 -2096 2166 0
-2097 2166 0
31 -2097 2167 0
-2098 2167 0
31 -2098 2168 0
-2099 2168 0
31 -2099 2169 0
-2100 2169 0
31 -2100 2170 0
-2101 2170 0
31 -2101 2171 0
-2102 2171 0
31 -2102 2172 0
-2103 2172 0
31 -2103 2173 0
-2104 2173 0
31 -2104 2174 0
-2105 2174 0
31 -2105 2175 0
-2106 2175 0
31 -2106 2176 0
-2107 2176 0
31 -2107 2177 0
-2108 2177 0
31 -2108 2178 0
-2109 2178 0
31 -2109 2179 0
-2110 2179 0
31 -2110 2180 0
-2111 2180 0
31 -2111 2181 0
-2112 2181 0
31 -2112 2182 0
-2113 2182 0
31 -2113 2183 0
-2114 2183 0
31 -2114 2184 0
-2115 2184 0
31 -2115 2185 0
-2116 2185 0
31 -2116 2186 0
-2117 2186 0
31 -2117 2187 0
-2118 2187 0
31 -2118 2188 0
-2119 2188 0
31 -2119 2189 0
-2120 2189 0
31 -2120 2190 0
-2121 2190 0
31 -2121 2191 0
-2122 2191 0
31 -2122 2192 0
-2123 2192 0
31 -2123 2193 0
-2124 2193 0
31 -2124 2194 0
-2125 2194 0
31 -2125 2195 0
-2126 2195 0
31 -2126 2196 0
-2127 2196 0
31 -2127 2197 0
-2128 2197 0
31 -2128 2198 0
-2129 2198 0
31 -2129 2199 0
-2130 2199 0
31 -2130 2200 0
-2131 2200 0
31 -2131 2201 0
-2132 2201 0
31 -2132 2202 0
-2133 2202 0
31 -2133 2203 0
-2134 2203 0
31 -2134 2204 0
-2135 2204 0
31 -2135 2205 0
-2136 2205 0
31 -2136 2206 0
-2137 2206 0
31 -2137 2207 0
-2138 2207 0
31 -2138 2208 0
-2139 2208 0
31 -2139 2209 0
-2140 2209 0
31 -2140 2210 0
-2141 2210 0
31 -2141 2211 0
-2142 2211 0
31 -2142 2212 0
-2143 2212 0
31 -2143 2213 0
-2144 2213 0
31 -2144 2214 0
-2145 2214 0
31 -2145 2215 0
-2146 2215 0
31 -2146 2216 0
-2147 2216 0
31 -2147 2217 0
-2148 2217 0
31 -2148 2218 0
-2149 2218 0
31 -2149 2219 0
-2150 2219 0
31 -2150 2220 0
-2151 2220 0
31 -2151 2221 0
-2152 2221 0
31 -2152 0
32 2222 0
-2153 2222 0
32 -2153 2223 0
-2154 2223 0
32 -2154 2224 0
-2155 2224 0
32 -2155 2225 0
-2156 2225 0
32 -2156 2226 0
-2157 2226 0
32 -2157 2227 0
-2158 2227 0
32 -2158 2228 0
-2159 2228 0
32 -2159 2229 0
-2160 2229 0
32 -2160 2230 0
-2161 2230 0
32 -2161 2231 0
-2162 2231 0
32 -2162 2232 0
-2163 2232 0
32 -2163 2233 0
-2164 2233 0
32 -2164 2234 0
-2165 2234 0
32 -2165 2235 0
-2166 2235 0
32 -2166 2236 0
-2167 2236 0
32 -2167 2237 0
-2168 2237 0
32 -2168 2238 0
-2169 2238 0
32 -2169 2239 0
-2170 2239 0
32 -2170 2240 0
-2171 2240 0
32 -2171 2241 0
-2172 2241 0
32 -2172 2242 0
-2173 2242 0
32 -2173 2243 0
-2174 2243 0
32 -2174 2244 0
-2175 2244 0
32 -2175 2245 0
-2176 2245 0
32 -2176 2246 0
-2177 2246 0
32 -2177 2247 0
-2178 2247 0
32 -2178 2248 0
-2179 2248 0
32 -2179 2249 0
-2180 2249 0
32 -2180 2250 0
-2181 2250 0
32 -2181 2251 0
-2182 2251 0
32 -2182 2252 0
-2183 2252 0
32 -2183 2253 0
-2184 2253 0
32 -2184 2254 0
-2185 2254 0
32 -2185 2255 0
-2186 2255 0
32 -2186 2256 0
-2187 2256 0
32 -2187 2257 0
-2188 2257 0
32 -2188 2258 0
-2189 2258 0
32 -2189 2259 0
-2190 2259 0
32 -2190 2260 0
-2191 2260 0
32 -2191 2261 0
-2192 2261 0
32 -2192 2262 0
-2193 2262 0
32 -2193 2263 0
-2194 2263 0
32 -2194 2264 0
-2195 2264 0
32 -2195 2265 0
-2196 2265 0
32 -2196 2266 0
-2197 2266 0
32 -2197 2267 0
-2198 2267 0
32 -2198 2268 0
-2199 2268 0
32 -2199 2269 0
-2200 2269 0
32 -2200 2270 0
-2201 2270 0
32 -2201 2271 0
-2202 2271 0
32 -2202 2272 0
-2203 2272 0
32 -2203 2273 0
-2204 2273 0
32 -2204 2274 0
-2205 2274 0
32 -2205 2275 0
-2206 2275 0
32 -2206 2276 0
-2207 2276 0
32 -2207 2277 0
-2208 2277 0
32 -2208 2278 0
-2209 2278 0
32 -2209 2279 0
-2210 2279 0
32 -2210 2280 0
-2211 2280 0
32 -2211 2281 0
-2212 2281 0
32 -2212 2282 0
-2213 2282 0
32 -2213 2283 0
-2214 2283 0
32 -2214 2284 0
-2215 2284 0
32 -2215 2285 0
-2216 2285 0
32 -2216 2286 0
-2217 2286 0
32 -2217 2287 0
-2218 2287 0
32 -2218 2288 0
-2219 2288 0
32 -2219 2289 0
-2220 2289 0
32 -2220 2290 0
-2221 2290 0
32 -2221 0
33 2291 0
-2222 2291 0
33 -2222 2292 0
-2223 2292 0
33 -2223 2293 0
-2224 2293 0
33 -2224 2294 0
-2225 2294 0
33 -2225 2295 0
-2226 2295 0
33 -2226 2296 0
-2227 2296 0
33 -2227 2297 0
-2228 2297 0
33 -2228 2298 0
-2229 2298 0
33 -2229 2299 0
-2230 2299 0
33 -2230 2300 0
-2231 2300 0
33 -2231 2301 0
-2232 2301 0
33 -2232 2302 0
-2233 2302 0
33 -2233 2303 0
-2234 2303 0
33 -2234 2304 0
-2235 2304 0
33 -2235 2305 0
-2236 2305 0
33 -2236 2306 0
-2237 2306 0
33 -2237 2307 0
-2238 2307 0
33 -2238 2308 0
-2239 2308 0
33 -2239 2309 0
-2240 2309 0
33 -2240 2310 0
-2241 2310 0
33 -2241 2311 0
-2242 2311 0
33 -2242 2312 0
-2243 2312 0
33 -2243 2313 0
-2244 2313 0
33 -2244 2314 0
-2245 2314 0
33 -2245 2315 0
-2246 2315 0
33 -2246 2316 0
-2247 2316 0
33 -2247 2317 0
-2248 2317 0
33 -2248 2318 0
-2249 2318 0
33 -2249 2319 0
-2250 2319 0
33 -2250 2320 0
-2251 2320 0
33 -2251 2321 0
-2252 2321 0
33 -2252 2322 0
-2253 2322 0
33 -2253 2323 0
-2254 2323 0
33 -2254 2324 0
-2255 2324 0
33 -2255 2325 0
-2256 2325 0
33 -2256 2326 0
-2257 2326 0
33 -2257 2327 0
-2258 2327 0
33 -2258 2328 0
-2259 2328 0
33 -2259 2329 0
-2260 2329 0
33 -2260 2330 0
-2261 2330 0
33 -2261 2331 0
-2262 2331 0
33 -2262 2332 0
-2263 2332 0
33 -2263 2333 0
-2264 2333 0
33 -2264 2334 0
-2265 2334 0
33 -2265 2335 0
-2266 2335 0
33 -2266 2336 0
-2267 2336 0
33 -2267 2337 0
-2268 2337 0
33 -2268 2338 0
-2269 2338 0
33 -2269 2339 0
-2270 2339 0
33 -2270 2340 0
-2271 2340 0
33 -2271 2341 0
-2272 2341 0
33 -2272 2342 0
-2273 2342 0
33 -2273 2343 0
-2274 2343 0
33 -2274 2344 0
-2275 2344 0
33 -2275 2345 0
-2276 2345 0
33 -2276 2346 0
-2277 2346 0
33 -2277 2347 0
-2278 2347 0
33 -2278 2348 0
-2279 2348 0
33 -2279 2349 0
-2280 2349 0
33 -2280 2350 0
-2281 2350 0
33 -2281 2351 0
-2282 2351 0
33 -2282 2352 0
-2283 2352 0
33 -2283 2353 0
-2284 2353 0
33 -2284 2354 0
-2285 2354 0
33 -2285 2355 0
-2286 2355 0
33 -2286 2356 0
-2287 2356 0
33 -2287 2357 0
-2288 2357 0
33 -2288 2358 0
-2289 2358 0
33 -2289 2359 0
-2290 2359 0
33 -2290 0
34 2360 0
-2291 2360 0
34 -2291 2361 0
-2292 2361 0
34 -2292 2362 0
-2293 2362 0
34 -2293 2363 0
-2294 2363 0
34 -2294 2364 0
-2295 2364 0
34 -2295 2365 0
-2296 2365 0
34 -2296 2366 0
-2297 2366 0
34 -2297 2367 0
-2298 2367 0
34 -2298 2368 0
-2299 2368 0
34 -2299 2369 0
-2300 2369 0
34 -2300 2370 0
-2301 2370 0
34 -2301 2371 0
-2302 2371 0
34 -2302 2372 0
-2303 2372 0
34 -2303 2373 0
-2304 2373 0
34 -2304 2374 0
-2305 2374 0
34 -2305 2375 0
-2306 2375 0
34 -2306 2376 0
-2307 2376 0
34 -2307 2377 0
-2308 2377 0
34 -2308 2378 0
-2309 2378 0
34 -2309 2379 0
-2310 2379 0
34 -2310 2380 0
-2311 2380 0
34 -2311 2381 0
-2312 2381 0
34 -2312 2382 0
-2313 2382 0
34 -2313 2383 0
-2314 2383 0
34 -2314 2384 0
-2315 2384 0
34 -2315 2385 0
-2316 2385 0
34 -2316 2386 0
-2317 2386 0
34 -2317 2387 0
-2318 2387 0
34 -2318 2388 0
-2319 2388 0
34 -2319 2389 0
-2320 2389 0
34 -2320 2390 0
-2321 2390 0
34 -2321 2391 0
-2322 2391 0
34 -2322 2392 0
-2323 2392 0
34 -2323 2393 0
-2324 2393 0
34 -2324 2394 0
-2325 2394 0
34 -2325 2395 0
-2326 2395 0
34 -2326 2396 0
-2327 2396 0
34 -2327 2397 0
-2328 2397 0
34 -2328 2398 0
-2329 2398 0
34 -2329 2399 0
-2330 2399 0
34 -2330 2400 0
-2331 2400 0
34 -2331 2401 0
-2332 2401 0
34 -2332 2402 0
-2333 2402 0
34 -2333 2403 0
-2334 2403 0
34 -2334 2404 0
-2335 2404 0
34 -2335 2405 0
-2336 2405 0
34 -2336 2406 0
-2337 2406 0
34 -2337 2407 0
-2338 2407 0
34 -2338 2408 0
-2339 2408 0
34 -2339 2409 0
-2340 2409 0
34 -2340 2410 0
-2341 2410 0
34 -2341 2411 0
-2342 2411 0
34 -2342 2412 0
-2343 2412 0
34 -2343 2413 0
-2344 2413 0
34 -2344 2414 0
-2345 2414 0
34 -2345 2415 0
-2346 2415 0
34 -2346 2416 0
-2347 2416 0
34 -2347 2417 0
-2348 2417 0
34 -2348 2418 0
-2349 2418 0
34 -2349 2419 0
-2350 2419 0
34 -2350 2420 0
-2351 2420 0
34 -2351 2421 0
-2352 2421 0
34 -2352 2422 0
-2353 2422 0
34 -2353 2423 0
-2354 2423 0
34 -2354 2424 0
-2355 2424 0
34 -2355 2425 0
-2356 2425 0
34 -2356 2426 0
-2357 2426 0
34 -2357 2427 0
-2358 2427 0
34 -2358 2428 0
-2359 2428 0
34 -2359 0
35 2429 0
-2360 2429 0
35 -2360 2430 0
-2361 2430 0
35 -2361 2431 0
-2362 2431 0
35 -2362 2432 0
-2363 2432 0
35 -2363 2433 0
-2364 2433 0
35 -2364 2434 0
-2365 2434 0
35 -2365 2435 0
-2366 2435 0
35 -2366 2436 0
-2367 2436 0
35 -2367 2437 0
-2368 2437 0
35 -2368 2438 0
-2369 2438 0
35 -2369 2439 0
-2370 2439 0
35 -2370 2440 0
-2371 2440 0
35 -2371 2441 0
-2372 2441 0
35 -2372 2442 0
-2373 2442 0
35 -2373 2443 0
-2374 2443 0
35 -2374 2444 0
-2375 2444 0
35 -2375 2445 0
-2376 2445 0
35 -2376 2446 0
-2377 2446 0
35 -2377 2447 0
-2378 2447 0
35 -2378 2448 0
-2379 2448 0
35 -2379 2449 0
-2380 2449 0
35 -2380 2450 0
-2381 2450 0
35 -2381 2451 0
-2382 2451 0
35 -2382 2452 0
-2383 2452 0
35 -2383 2453 0
-2384 2453 0
35 -2384 2454 0
-2385 2454 0
35 -2385 2455 0
-2386 2455 0
35 -2386 2456 0
-2387 2456 0
35 -2387 2457 0
-2388 2457 0
35 -2388 2458 0
-2389 2458 0
35 -2389 2459 0
-2390 2459 0
35 -2390 2460 0
-2391 2460 0
35 -2391 2461 0
-2392 2461 0
35 -2392 2462 0
-2393 2462 0
35 -2393 2463 0
-2394 2463 0
35 -2394 2464 0
-2395 2464 0
35 -2395 2465 0
-2396 2465 0
35 -2396 2466 0
-2397 2466 0
35 -2397 2467 0
-2398 2467 0
35 -2398 2468 0
-2399 2468 0
35 -2399 2469 0
-2400 2469 0
35 -2400 2470 0
-2401 2470 0
35 -2401 2471 0
-2402 2471 0
35 -2402 2472 0
-2403 2472 0
35 -2403 2473 0
-2404 2473 0
35 -2404 2474 0
-2405 2474 0
35 -2405 2475 0
-2406 2475 0
35 -2406 2476 0
-2407 2476 0
35 -2407 2477 0
-2408 2477 0
35 -2408 2478 0
-2409 2478 0
35 -2409 2479 0
-2410 2479 0
35 -2410 2480 0
-2411 2480 0
35 -2411 2481 0
-2412 2481 0
35 -2412 2482 0
-2413 2482 0
35 -2413 2483 0
-2414 2483 0
35 -2414 2484 0
-2415 2484 0
35 -2415 2485 0
-2416 2485 0
35 -2416 2486 0
-2417 2486 0
35 -2417 2487 0
-2418 2487 0
35 -2418 2488 0
-2419 2488 0
35 -2419 2489 0
-2420 2489 0
35 -2420 2490 0
-2421 2490 0
35 -2421 2491 0
-2422 2491 0
35 -2422 2492 0
-2423 2492 0
35 -2423 2493 0
-2424 2493 0
35 -2424 2494 0
-2425 2494 0
35 -2425 2495 0
-2426 2495 0
35 -2426 2496 0
-2427 2496 0
35 -2427 2497 0
-2428 2497 0
35 -2428 0
36 2498 0
-2429 2498 0
36 -2429 2499 0
-2430 2499 0
36 -2430 2500 0
-2431 2500 0
36 -2431 2501 0
-2432 2501 0
36 -2432 2502 0
-2433 2502 0
36 -2433 2503 0
-2434 2503 0
36 -2434 2504 0
-2435 2504 0
36 -2435 2505 0
-2436 2505 0
36 -2436 2506 0
-2437 2506 0
36 -2437 2507 0
-2438 2507 0
36 -2438 2508 0
-2439 2508 0
36 -2439 2509 0
-2440 2509 0
36 -2440 2510 0
-2441 2510 0
36 -2441 2511 0
-2442 2511 0
36 -2442 2512 0
-2443 2512 0
36 -2443 2513 0
-2444 2513 0
36 -2444 2514 0
-2445 2514 0
36 -2445 2515 0
-2446 2515 0
36 -2446 2516 0
-2447 2516 0
36 -2447 2517 0
-2448 2517 0
36 -2448 2518 0
-2449 2518 0
36 -2449 2519 0
-2450 2519 0
36 -2450 2520 0
-2451 2520 0
36 -2451 2521 0
-2452 2521 0
36 -2452 2522 0
-2453 2522 0
36 -2453 2523 0
-2454 2523 0
36 -2454 2524 0
-2455 2524 0
36 -2455 2525 0
-2456 2525 0
36 -2456 2526 0
-2457 2526 0
36 -2457 2527 0
-2458 2527 0
36 -2458 2528 0
-2459 2528 0
36 -2459 2529 0
-2460 2529 0
36 -2460 2530 0
-2461 2530 0
36 -2461 2531 0
-2462 2531 0
36 -2462 2532 0
-2463 2532 0
36 -2463 2533 0
-2464 2533 0
36 -2464 2534 0
-2465 2534 0
36 -2465 2535 0
-2466 2535 0
36 -2466 2536 0
-2467 2536 0
36 -2467 2537 0
-2468 2537 0
36 -2468 2538 0
-2469 2538 0
36 -2469 2539 0
-2470 2539 0
36 -2470 2540 0
-2471 2540 0
36 -2471 2541 0
-2472 2541 0
36 -2472 2542 0
-2473 2542 0
36 -2473 2543 0
-2474 2543 0
36 -2474 2544 0
-2475 2544 0
36 -2475 2545 0
-2476 2545 0
36 -2476 2546 0
-2477 2546 0
36 -2477 2547 0
-2478 2547 0
36 -2478 2548 0
-2479 2548 0
36 -2479 2549 0
-2480 2549 0
36 -2480 2550 0
-2481 2550 0
36 -2481 2551 0
-2482 2551 0
36 -2482 2552 0
-2483 2552 0
36 -2483 2553 0
-2484 2553 0
36 -2484 2554 0
-2485 2554 0
36 -2485 2555 0
-2486 2555 0
36 -2486 2556 0
-2487 2556 0
36 -2487 2557 0
-2488 2557 0
36 -2488 2558 0
-2489 2558 0
36 -2489 2559 0
-2490 2559 0
36 -2490 2560 0
-2491 2560 0
36 -2491 2561 0
-2492 2561 0
36 -2492 2562 0
-2493 2562 0
36 -2493 2563 0
-2494 2563 0
36 -2494 2564 0
-2495 2564 0
36 -2495 2565 0
-2496 2565 0
36 -2496 2566 0
-2497 2566 0
36 -2497 0
37 2567 0
-2498 2567 0
37 -2498 2568 0
-2499 2568 0
37 -2499 2569 0
-2500 2569 0
37 -2500 2570 0
-2501 2570 0
37 -2501 2571 0
-2502 2571 0
37 -2502 2572 0
-2503 2572 0
37 -2503 2573 0
-2504 2573 0
37 -2504 2574 0
-2505 2574 0
37 -2505 2575 0
-2506 2575 0
37 -2506 2576 0
-2507 2576 0
37 -2507 2577 0
-2508 2577 0
37 -2508 2578 0
-2509 2578 0
37 -2509 2579 0
-2510 2579 0
37 -2510 2580 0
-2511 2580 0
37 -2511 2581 0
-2512 2581 0
37 -2512 2582 0
-2513 2582 0
37 -2513 2583 0
-2514 2583 0
37 -2514 2584 0
-2515 2584 0
37 -2515 2585 0
-2516 2585 0
37 -2516 2586 0
-2517 2586 0
37 -2517 2587 0
-2518 2587 0
37 -2518 2588 0
-2519 2588 0
37 -2519 2589 0
-2520 2589 0
37 -2520 2590 0
-2521 2590 0
37 -2521 2591 0
-2522 2591 0
37 -2522 2592 0
-2523 2592 0
37 -2523 2593 0
-2524 2593 0
37 -2524 2594 0
-2525 2594 0
37 -2525 2595 0
-2526 2595 0
37 -2526 2596 0
-2527 2596 0
37 -2527 2597 0
-2528 2597 0
37 -2528 2598 0
-2529 2598 0
37 -2529 2599 0
-2530 2599 0
37 -2530 2600 0
-2531 2600 0
37 -2531 2601 0
-2532 2601 0
37 -2532 2602 0
-2533 2602 0
37 -2533 2603 0
-2534 2603 0
37 -2534 2604 0
-2535 2604 0
37 -2535 2605 0
-2536 2605 0
37 -2536 2606 0
-2537 2606 0
37 -2537 2607 0
-2538 2607 0
37 -2538 2608 0
-2539 2608 0
37 -2539 2609 0
-2540 2609 0
37 -2540 2610 0
-2541 2610 0
37 -2541 2611 0
-2542 2611 0
37 -2542 2612 0
-2543 2612 0
37 -2543 2613 0
-2544 2613 0
37 -2544 2614 0
-2545 2614 0
37 -2545 2615 0
-2546 2615 0
37 -2546 2616 0
-2547 2616 0
37 -2547 2617 0
-2548 2617 0
37 -2548 2618 0
-2549 2618 0
37 -2549 2619 0
-2550 2619 0
37 -2550 2620 0
-2551 2620 0
37 -2551 2621 0
-2552 2621 0
37 -2552 2622 0
-2553 2622 0
37 -2553 2623 0
-2554 2623 0
37 -2554 2624 0
-2555 2624 0
37 -2555 2625 0
-2556 2625 0
37 -2556 2626 0
-2557 2626 0
37 -2557 2627 0
-2558 2627 0
37 -2558 2628 0
-2559 2628 0
37 -2559 2629 0
-2560 2629 0
37 -2560 2630 0
-2561 2630 0
37 -2561 2631 0
-2562 2631 0
37 -2562 2632 0
-2563 2632 0
37 -2563 2633 0
-2564 2633 0
37 -2564 2634 0
-2565 2634 0
37 -2565 2635 0
-2566 2635 0
37 -2566 0
38 2636 0
-2567 2636 0
38 -2567 2637 0
-2568 2637 0
38 -2568 2638 0
-2569 2638 0
38 -2569 2639 0
-2570 2639 0
38 -2570 2640 0
-2571 2640 0
38 -2571 2641 0
-2572 2641 0
38 -2572 2642 0
-2573 2642 0
38 -2573 2643 0
-2574 2643 0
38 -2574 2644 0
-2575 2644 0
38 -2575 2645 0
-2576 2645 0
38 -2576 2646 0
-2577 2646 0
38 -2577 2647 0
-2578 2647 0
38 -2578 2648 0
-2579 2648 0
38 -2579 2649 0
-2580 2649 0
38 -2580 2650 0
-2581 2650 0
38 -2581 2651 0
-2582 2651 0
38 -2582 2652 0
-2583 2652 0
38 -2583 2653 0
-2584 2653 0
38 -2584 2654 0
-2585 2654 0
38 -2585 2655 0
-2586 2655 0
38 -2586 2656 0
-2587 2656 0
38 -2587 2657 0
-2588 2657 0
38 -2588 2658 0
-2589 2658 0
38 -2589 2659 0
-2590 2659 0
38 -2590 2660 0
-2591 2660 0
38 -2591 2661 0
-2592 2661 0
38 -2592 2662 0
-2593 2662 0
38 -2593 2663 0
-2594 2663 0
38 -2594 2664 0
-2595 2664 0
38 -2595 2665 0
-2596 2665 0
38 -2596 2666 0
-2597 2666 0
38 -2597 2667 0
-2598 2667 0
38 -2598 2668 0
-2599 2668 0
38 -2599 2669 0
-2600 2669 0
38 -2600 2670 0
-2601 2670 0
38 -2601 2671 0
-2602 2671 0
38 -2602 2672 0
-2603 2672 0
38 -2603 2673 0
-2604 2673 0
38 -2604 2674 0
-2605 2674 0
38 -2605 2675 0
-2606 2675 0
38 -2606 2676 0
-2607 2676 0
38 -2607 2677 0
-2608 2677 0
38 -2608 2678 0
-2609 2678 0
38 -2609 2679 0
-2610 2679 0
38 -2610 2680 0
-2611 2680 0
38 -2611 2681 0
-2612 2681 0
38 -2612 2682 0
-2613 2682 0
38 -2613 2683 0
-2614 2683 0
38 -2614 2684 0
-2615 2684 0
38 -2615 2685 0
-2616 2685 0
38 -2616 2686 0
-2617 2686 0
38 -2617 2687 0
-2618 2687 0
38 -2618 2688 0
-2619 2688 0
38 -2619 2689 0
-2620 2689 0
38 -2620 2690 0
-2621 2690 0
38 -2621 2691 0
-2622 2691 0
38 -2622 2692 0
-2623 2692 0
38 -2623 2693 0
-2624 2693 0
38 -2624 2694 0
-2625 2694 0
38 -2625 2695 0
-2626 2695 0
38 -2626 2696 0
-2627 2696 0
38 -2627 2697 0
-2628 2697 0
38 -2628 2698 0
-2629 2698 0
38 -2629 2699 0
-2630 2699 0
38 -2630 2700 0
-2631 2700 0
38 -2631 2701 0
-2632 2701 0
38 -2632 2702 0
-2633 2702 0
38 -2633 2703 0
-2634 2703 0
38 -2634 2704 0
-2635 2704 0
38 -2635 0
39 2705 0
-2636 2705 0
39 -2636 2706 0
-2637 2706 0
39 -2637 2707 0
-2638 2707 0
39 -2638 2708 0
-2639 2708 0
39 -2639 2709 0
-2640 2709 0
39 -2640 2710 0
-2641 2710 0
39 -2641 2711 0
-2642 2711 0
39 -2642 2712 0
-2643 2712 0
39 -2643 2713 0
-2644 2713 0
39 -2644 2714 0
-2645 2714 0
39 -2645 2715 0
-2646 2715 0
39 -2646 2716 0
-2647 2716 0
39 -2647 2717 0
-2648 2717 0
39 -2648 2718 0
-2649 2718 0
39 -2649 2719 0
-2650 2719 0
39 -2650 2720 0
-2651 2720 0
39 -2651 2721 0
-2652 2721 0
39 -2652 2722 0
-2653 2722 0
39 -2653 2723 0
-2654 2723 0
39 -2654 2724 0
-2655 2724 0
39 -2655 2725 0
-2656 2725 0
39 -2656 2726 0
-2657 2726 0
39 -2657 2727 0
-2658 2727 0
39 -2658 2728 0
-2659 2728 0
39 -2659 2729 0
-2660 2729 0
39 -2660 2730 0
-2661 2730 0
39 -2661 2731 0
-2662 2731 0
39 -2662 2732 0
-2663 2732 0
39 -2663 2733 0
-2664 2733 0
39 -2664 2734 0
-2665 2734 0
39 -2665 2735 0
-2666 2735 0
39 -2666 2736 0
-2667 2736 0
39 -2667 2737 0
-2668 2737 0
39 -2668 2738 0
-2669 2738 0
39 -2669 2739 0
-2670 2739 0
39 -2670 2740 0
-2671 2740 0
39 -2671 2741 0
-2672 2741 0
39 -2672 2742 0
-2673 2742 0
39 -2673 2743 0
-2674 2743 0
39 -2674 2744 0
-2675 2744 0
39 -2675 2745 0
-2676 2745 0
39 -2676 2746 0
-2677 2746 0
39 -2677 2747 0
-2678 2747 0
39 -2678 2748 0
-2679 2748 0
39 -2679 2749 0
-2680 2749 0
39 -2680 2750 0
-2681 2750 0
39 -2681 2751 0
-2682 2751 0
39 -2682 2752 0
-2683 2752 0
39 -2683 2753 0
-2684 2753 0
39 -2684 2754 0
-2685 2754 0
39 -2685 2755 0
-2686 2755 0
39 -2686 2756 0
-2687 2756 0
39 -2687 2757 0
-2688 2757 0
39 -2688 2758 0
-2689 2758 0
39 -2689 2759 0
-2690 2759 0
39 -2690 2760 0
-2691 2760 0
39 -2691 2761 0
-2692 2761 0
39 -2692 2762 0
-2693 2762 0
39 -2693 2763 0
-2694 2763 0
39 -2694 2764 0
-2695 2764 0
39 -2695 2765 0
-2696 2765 0
39 -2696 2766 0
-2697 2766 0
39 -2697 2767 0
-2698 2767 0
39 -2698 2768 0
-2699 2768 0
39 -2699 2769 0
-2700 2769 0
39 -2700 2770 0
-2701 2770 0
39 -2701 2771 0
-2702 2771 0
39 -2702 2772 0
-2703 2772 0
39 -2703 2773 0
-2704 2773 0
39 -2704 0
40 2774 0
-2705 2774 0
40 -2705 2775 0
-2706 2775 0
40 -2706 2776 0
-2707 2776 0
40 -2707 2777 0
-2708 2777 0
40 -2708 2778 0
-2709 2778 0
40 -2709 2779 0
-2710 2779 0
40 -2710 2780 0
-2711 2780 0
40 -2711 2781 0
-2712 2781 0
40 -2712 2782 0
-2713 2782 0
40 -2713 2783 0
-2714 2783 0
40 -2714 2784 0
-2715 2784 0
40 -2715 2785 0
-2716 2785 0
40 -2716 2786 0
-2717 2786 0
40 -2717 2787 0
-2718 2787 0
40 -2718 2788 0
-2719 2788 0
40 -2719 2789 0
-2720 2789 0
40 -2720 2790 0
-2721 2790 0
40 -2721 2791 0
-2722 2791 0
40 -2722 2792 0
-2723 2792 0
40 -2723 2793 0
-2724 2793 0
40 -2724 2794 0
-2725 2794 0
40 -2725 2795 0
-2726 2795 0
40 -2726 2796 0
-2727 2796 0
40 -2727 2797 0
-2728 2797 0
40 -2728 2798 0
-2729 2798 0
40 -2729 2799 0
-2730 2799 0
40 -2730 2800 0
-2731 2800 0
40 -2731 2801 0
-2732 2801 0
40 -2732 2802 0
-2733 2802 0
40 -2733 2803 0
-2734 2803 0
40 -2734 2804 0
-2735 2804 0
40 -2735 2805 0
-2736 2805 0
40 -2736 2806 0
-2737 2806 0
40 -2737 2807 0
-2738 2807 0
40 -2738 2808 0
-2739 2808 0
40 -2739 2809 0
-2740 2809 0
40 -2740 2810 0
-2741 2810 0
40 -2741 2811 0
-2742 2811 0
40 -2742 2812 0
-2743 2812 0
40 -2743 2813 0
-2744 2813 0
40 -2744 2814 0
-2745 2814 0
40 -2745 2815 0
-2746 2815 0
40 -2746 2816 0
-2747 2816 0
40 -2747 2817 0
-2748 2817 0
40 -2748 2818 0
-2749 2818 0
40 -2749 2819 0
-2750 2819 0
40 -2750 2820 0
-2751 2820 0
40 -2751 2821 0
-2752 2821 0
40 -2752 2822 0
-2753 2822 0
40 -2753 2823 0
-2754 2823 0
40 -2754 2824 0
-2755 2824 0
40 -2755 2825 0
-2756 2825 0
40 -2756 2826 0
-2757 2826 0
40 -2757 2827 0
-2758 2827 0
40 -2758 2828 0
-2759 2828 0
40 -2759 2829 0
-2760 2829 0
40 -2760 2830 0
-2761 2830 0
40 -2761 2831 0
-2762 2831 0
40 -2762 2832 0
-2763 2832 0
40 -2763 2833 0
-2764 2833 0
40 -2764 2834 0
-2765 2834 0
40 -2765 2835 0
-2766 2835 0
40 -2766 2836 0
-2767 2836 0
40 -2767 2837 0
-2768 2837 0
40 -2768 2838 0
-2769 2838 0
40 -2769 2839 0
-2770 2839 0
40 -2770 2840 0
-2771 2840 0
40 -2771 2841 0
-2772 2841 0
40 -2772 2842 0
-2773 2842 0
40 -2773 0
41 2843 0
-2774 2843 0
41 -2774 2844 0
-2775 2844 0
41 -2775 2845 0
-2776 2845 0
41 -2776 2846 0
-2777 2846 0
41 -2777 2847 0
-2778 2847 0
41 -2778 2848 0
-2779 2848 0
41 -2779 2849 0
-2780 2849 0
41 -2780 2850 0
-2781 2850 0
41 -2781 2851 0
-2782 2851 0
41 -2782 2852 0
-2783 2852 0
41 -2783 2853 0
-2784 2853 0
41 -2784 2854 0
-2785 2854 0
41 -2785 2855 0
-2786 2855 0
41 -2786 2856 0
-2787 2856 0
41 -2787 2857 0
-2788 2857 0
41 -2788 2858 0
-2789 2858 0
41 -2789 2859 0
-2790 2859 0
41 -2790 2860 0
-2791 2860 0
41 -2791 2861 0
-2792 2861 0
41 -2792 2862 0
-2793 2862 0
41 -2793 2863 0
-2794 2863 0
41 -2794 2864 0
-2795 2864 0
41 -2795 2865 0
-2796 2865 0
41 -2796 2866 0
-2797 2866 0
41 -2797 2867 0
-2798 2867 0
41 -2798 2868 0
-2799 2868 0
41 -2799 2869 0
-2800 2869 0
41 -2800 2870 0
-2801 2870 0
41 -2801 2871 0
-2802 2871 0
41 -2802 2872 0
-2803 2872 0
41 -2803 2873 0
-2804 2873 0
41 -2804 2874 0
-2805 2874 0
41 -2805 2875 0
-2806 2875 0
41 -2806 2876 0
-2807 2876 0
41 -2807 2877 0
-2808 2877 0
41 -2808 2878 0
-2809 2878 0
41 -2809 2879 0
-2810 2879 0
41 -2810 2880 0
-2811 2880 0
41 -2811 2881 0
-2812 2881 0
41 -2812 2882 0
-2813 2882 0
41 -2813 2883 0
-2814 2883 0
41 -2814 2884 0
-2815 2884 0
41 -2815 2885 0
-2816 2885 0
41 -2816 2886 0
-2817 2886 0
41 -2817 2887 0
-2818 2887 0
41 -2818 2888 0
-2819 2888 0
41 -2819 2889 0
-2820 2889 0
41 -2820 2890 0
-2821 2890 0
41 -2821 2891 0
-2822 2891 0
41 -2822 2892 0
-2823 2892 0
41 -2823 2893 0
-2824 2893 0
41 -2824 2894 0
-2825 2894 0
41 -2825 2895 0
-2826 2895 0
41 -2826 2896 0
-2827 2896 0
41 -2827 2897 0
-2828 2897 0
41 -2828 2898 0
-2829 2898 0
41 -2829 2899 0
-2830 2899 0
41 -2830 2900 0
-2831 2900 0
41 -2831 2901 0
-2832 2901 0
41 -2832 2902 0
-2833 2902 0
41 -2833 2903 0
-2834 2903 0
41 -2834 2904 0
-2835 2904 0
41 -2835 2905 0
-2836 2905 0
41 -2836 2906 0
-2837 2906 0
41 -2837 2907 0
-2838 2907 0
41 -2838 2908 0
-2839 2908 0
41 -2839 2909 0
-2840 2909 0
41 -2840 2910 0
-2841 2910 0
41 -2841 2911 0
-2842 2911 0
41 -2842 0
42 2912 0
-2843 2912 0
42 -2843 2913 0
-2844 2913 0
42 -2844 2914 0
-2845 2914 0
42 -2845 2915 0
-2846 2915 0
42 -2846 2916 0
-2847 2916 0
42 -2847 2917 0
-2848 2917 0
42 -2848 2918 0
-2849 2918 0
42 -2849 2919 0
-2850 2919 0
42 -2850 2920 0
-2851 2920 0
42 -2851 2921 0
-2852 2921 0
42 -2852 2922 0
-2853 2922 0
42 -2853 2923 0
-2854 2923 0
42 -2854 2924 0
-2855 2924 0
42 -2855 2925 0
-2856 2925 0
42 -2856 2926 0
-2857 2926 0
42 -2857 2927 0
-2858 2927 0
42 -2858 2928 0
-2859 2928 0
42 -2859 2929 0
-2860 2929 0
42 -2860 2930 0
-2861 2930 0
42 -2861 2931 0
-2862 2931 0
42 -2862 2932 0
-2863 2932 0
42 -2863 2933 0
-2864 2933 0
42 -2864 2934 0
-2865 2934 0
42 -2865 2935 0
-2866 2935 0
42 -2866 2936 0
-2867 2936 0
42 -2867 2937 0
-2868 2937 0
42 -2868 2938 0
-2869 2938 0
42 -2869 2939 0
-2870 2939 0
42 -2870 2940 0
-2871 2940 0
42 -2871 2941 0
-2872 2941 0
42 -2872 2942 0
-2873 2942 0
42 -2873 2943 0
-2874 2943 0
42 -2874 2944 0
-2875 2944 0
42 -2875 2945 0
-2876 2945 0
42 -2876 2946 0
-2877 2946 0
42 -2877 2947 0
-2878 2947 0
42 -2878 2948 0
-2879 2948 0
42 -2879 2949 0
-2880 2949 0
42 -2880 2950 0
-2881 2950 0
42 -2881 2951 0
-2882 2951 0
42 -2882 2952 0
-2883 2952 0
42 -2883 2953 0
-2884 2953 0
42 -2884 2954 0
-2885 2954 0
42 -2885 2955 0
-2886 2955 0
42 -2886 2956 0
-2887 2956 0
42 -2887 2957 0
-2888 2957 0
42 -2888 2958 0
-2889 2958 0
42 -2889 2959 0
-2890 2959 0
42 -2890 2960 0
-2891 2960 0
42 -2891 2961 0
-2892 2961 0
42 -2892 2962 0
-2893 2962 0
42 -2893 2963 0
-2894 2963 0
42 -2894 2964 0
-2895 2964 0
42 -2895 2965 0
-2896 2965 0
42 -2896 2966 0
-2897 2966 0
42 -2897 2967 0
-2898 2967 0
42 -2898 2968 0
-2899 2968 0
42 -2899 2969 0
-2900 2969 0
42 -2900 2970 0
-2901 2970 0
42 -2901 2971 0
-2902 2971 0
42 -2902 2972 0
-2903 2972 0
42 -2903 2973 0
-2904 2973 0
42 -2904 2974 0
-2905 2974 0
42 -2905 2975 0
-2906 2975 0
42 -2906 2976 0
-2907 2976 0
42 -2907 2977 0
-2908 2977 0
42 -2908 2978 0
-2909 2978 0
42 -2909 2979 0
-2910 2979 0
42 -2910 2980 0
-2911 2980 0
42 -2911 0
43 2981 0
-2912 2981 0
43 -2912 2982 0
-2913 2982 0
43 -2913 2983 0
-2914 2983 0
43 -2914 2984 0
-2915 2984 0
43 -2915 2985 0
-2916 2985 0
43 -2916 2986 0
-2917 2986 0
43 -2917 2987 0
-2918 2987 0
43 -2918 2988 0
-2919 2988 0
43 -2919 2989 0
-2920 2989 0
43 -2920 2990 0
-2921 2990 0
43 -2921 2991 0
-2922 2991 0
43 -2922 2992 0
-2923 2992 0
43 -2923 2993 0
-2924 2993 0
43 -2924 2994 0
-2925 2994 0
43 -2925 2995 0
-2926 2995 0
43 -2926 2996 0
-2927 2996 0
43 -2927 2997 0
-2928 2997 0
43 -2928 2998 0
-2929 2998 0
43 -2929 2999 0
-2930 2999 0
43 -2930 3000 0
-2931 3000 0
43 -2931 3001 0
-2932 3001 0
43 -2932 3002 0
-2933 3002 0
43 -2933 3003 0
-2934 3003 0
43 -2934 3004 0
-2935 3004 0
43 -2935 3005 0
-2936 3005 0
43 -2936 3006 0
-2937 3006 0
43 -2937 3007 0
-2938 3007 0
43 -2938 3008 0
-2939 3008 0
43 -2939 3009 0
-2940 3009 0
43 -2940 3010 0
-2941 3010 0
43 -2941 3011 0
-2942 3011 0
43 -2942 3012 0
-2943 3012 0
43 -2943 3013 0
-2944 3013 0
43 -2944 3014 0
-2945 3014 0
43 -2945 3015 0
-2946 3015 0
43 -2946 3016 0
-2947 3016 0
43 -2947 3017 0
-2948 3017 0
43 -2948 3018 0
-2949 3018 0
43 -2949 3019 0
-2950 3019 0
43 -2950 3020 0
-2951 3020 0
43 -2951 3021 0
-2952 3021 0
43 -2952 3022 0
-2953 3022 0
43 -2953 3023 0
-2954 3023 0
43 -2954 3024 0
-2955 3024 0
43 -2955 3025 0
-2956 3025 0
43 -2956 3026 0
-2957 3026 0
43 -2957 3027 0
-2958 3027 0
43 -2958 3028 0
-2959 3028 0
43 -2959 3029 0
-2960 3029 0
43 -2960 3030 0
-2961 3030 0
43 -2961 3031 0
-2962 3031 0
43 -2962 3032 0
-2963 3032 0
43 -2963 3033 0
-2964 3033 0
43 -2964 3034 0
-2965 3034 0
43 -2965 3035 0
-2966 3035 0
43 -2966 3036 0
-2967 3036 0
43 -2967 3037 0
-2968 3037 0
43 -2968 3038 0
-2969 3038 0
43 -2969 3039 0
-2970 3039 0
43 -2970 3040 0
-2971 3040 0
43 -2971 3041 0
-2972 3041 0
43 -2972 3042 0
-2973 3042 0
43 -2973 3043 0
-2974 3043 0
43 -2974 3044 0
-2975 3044 0
43 -2975 3045 0
-2976 3045 0
43 -2976 3046 0
-2977 3046 0
43 -2977 3047 0
-2978 3047 0
43 -2978 3048 0
-2979 3048 0
43 -2979 3049 0
-2980 3049 0
43 -2980 0
44 3050 0
-2981 3050 0
44 -2981 3051 0
-2982 3051 0
44 -2982 3052 0
-2983 3052 0
44 -2983 3053 0
-2984 3053 0
44 -2984 3054 0
-2985 3054 0
44 -2985 3055 0
-2986 3055 0
44 -2986 3056 0
-2987 3056 0
44 -2987 3057 0
-2988 3057 0
44 -2988 3058 0
-2989 3058 0
44 -2989 3059 0
-2990 3059 0
44 -2990 3060 0
-2991 3060 0
44 -2991 3061 0
-2992 3061 0
44 -2992 3062 0
-2993 3062 0
44 -2993 3063 0
-2994 3063 0
44 -2994 3064 0
-2995 3064 0
44 -2995 3065 0
-2996 3065 0
44 -2996 3066 0
-2997 3066 0
44 -2997 3067 0
-2998 3067 0
44 -2998 3068 0
-2999 3068 0
44 -2999 3069 0
-3000 3069 0
44 -3000 3070 0
-3001 3070 0
44 -3001 3071 0
-3002 3071 0
44 -3002 3072 0
-3003 3072 0
44 -3003 3073 0
-3004 3073 0
44 -3004 3074 0
-3005 3074 0
44 -3005 3075 0
-3006 3075 0
44 -3006 3076 0
-3007 3076 0
44 -3007 3077 0
-3008 3077 0
44 -3008 3078 0
-3009 3078 0
44 -3009 3079 0
-3010 3079 0
44 -3010 3080 0
-3011 3080 0
44 -3011 3081 0
-3012 3081 0
44 -3012 3082 0
-3013 3082 0
44 -3013 3083 0
-3014 3083 0
44 -3014 3084 0
-3015 3084 0
44 -3015 3085 0
-3016 3085 0
44 -3016 3086 0
-3017 3086 0
44 -3017 3087 0
-3018 3087 0
44 -3018 3088 0
-3019 3088 0
44 -3019 3089 0
-3020 3089 0
44 -3020 3090 0
-3021 3090 0
44 -3021 3091 0
-3022 3091 0
44 -3022 3092 0
-3023 3092 0
44 -3023 3093 0
-3024 3093 0
44 -3024 3094 0
-3025 3094 0
44 -3025 3095 0
-3026 3095 0
44 -3026 3096 0
-3027 3096 0
44 -3027 3097 0
-3028 3097 0
44 -3028 3098 0
-3029 3098 0
44 -3029 3099 0
-3030 3099 0
44 -3030 3100 0
-3031 3100 0
44 -3031 3101 0
-3032 3101 0
44 -3032 3102 0
-3033 3102 0
44 -3033 3103 0
-3034 3103 0
44 -3034 3104 0
-3035 3104 0
44 -3035 3105 0
-3036 3105 0
44 -3036 3106 0
-3037 3106 0
44 -3037 3107 0
-3038 3107 0
44 -3038 3108 0
-3039 3108 0
44 -3039 3109 0
-3040 3109 0
44 -3040 3110 0
-3041 3110 0
44 -3041 3111 0
-3042 3111 0
44 -3042 3112 0
-3043 3112 0
44 -3043 3113 0
-3044 3113 0
44 -3044 3114 0
-3045 3114 0
44 -3045 3115 0
-3046 3115 0
44 -3046 3116 0
-3047 3116 0
44 -3047 3117 0
-3048 3117 0
44 -3048 3118 0
-3049 3118 0
44 -3049 0
45 3119 0
-3050 3119 0
45 -3050 3120 0
-3051 3120 0
45 -3051 3121 0
-3052 3121 0
45 -3052 3122 0
-3053 3122 0
45 -3053 3123 0
-3054 3123 0
45 -3054 3124 0
-3055 3124 0
45 -3055 3125 0
-3056 3125 0
45 -3056 3126 0
-3057 3126 0
45 -3057 3127 0
-3058 3127 0
45 -3058 3128 0
-3059 3128 0
45 -3059 3129 0
-3060 3129 0
45 -3060 3130 0
-3061 3130 0
45 -3061 3131 0
-3062 3131 0
45 -3062 3132 0
-3063 3132 0
45 -3063 3133 0
-3064 3133 0
45 -3064 3134 0
-3065 3134 0
45 -3065 3135 0
-3066 3135 0
45 -3066 3136 0
-3067 3136 0
45 -3067 3137 0
-3068 3137 0
45 -3068 3138 0
-3069 3138 0
45 -3069 3139 0
-3070 3139 0
45 -3070 3140 0
-3071 3140 0
45 -3071 3141 0
-3072 3141 0
45 -3072 3142 0
-3073 3142 0
45 -3073 3143 0
-3074 3143 0
45 -3074 3144 0
-3075 3144 0
45 -3075 3145 0
-3076 3145 0
45 -3076 3146 0
-3077 3146 0
45 -3077 3147 0
-3078 3147 0
45 -3078 3148 0
-3079 3148 0
45 -3079 3149 0
-3080 3149 0
45 -3080 3150 0
-3081 3150 0
45 -3081 3151 0
-3082 3151 0
45 -3082 3152 0
-3083 3152 0
45 -3083 3153 0
-3084 3153 0
45 -3084 3154 0
-3085 3154 0
45 -3085 3155 0
-3086 3155 0
45 -3086 3156 0
-3087 3156 0
45 -3087 3157 0
-3088 3157 0
45 -3088 3158 0
-3089 3158 0
45 -3089 3159 0
-3090 3159 0
45 -3090 3160 0
-3091 3160 0
45 -3091 3161 0
-3092 3161 0
45 -3092 3162 0
-3093 3162 0
45 -3093 3163 0
-3094 3163 0
45 -3094 3164 0
-3095 3164 0
45 -3095 3165 0
-3096 3165 0
45 -3096 3166 0
-3097 3166 0
45 -3097 3167 0
-3098 3167 0
45 -3098 3168 0
-3099 3168 0
45 -3099 3169 0
-3100 3169 0
45 -3100 3170 0
-3101 3170 0
45 -3101 3171 0
-3102 3171 0
45 -3102 3172 0
-3103 3172 0
45 -3103 3173 0
-3104 3173 0
45 -3104 3174 0
-3105 3174 0
45 -3105 3175 0
-3106 3175 0
45 -3106 3176 0
-3107 3176 0
45 -3107 3177 0
-3108 3177 0
45 -3108 3178 0
-3109 3178 0
45 -3109 3179 0
-3110 3179 0
45 -3110 3180 0
-3111 3180 0
45 -3111 3181 0
-3112 3181 0
45 -3112 3182 0
-3113 3182 0
45 -3113 3183 0
-3114 3183 0
45 -3114 3184 0
-3115 3184 0
45 -3115 3185 0
-3116 3185 0
45 -3116 3186 0
-3117 3186 0
45 -3117 3187 0
-3118 3187 0
45 -3118 0
46 3188 0
-3119 3188 0
46 -3119 3189 0
-3120 3189 0
46 -3120 3190 0
-3121 3190 0
46 -3121 3191 0
-3122 3191 0
46 -3122 3192 0
-3123 3192 0
46 -3123 3193 0
-3124 3193 0
46 -3124 3194 0
-3125 3194 0
46 -3125 3195 0
-3126 3195 0
46 -3126 3196 0
-3127 3196 0
46 -3127 3197 0
-3128 3197 0
46 -3128 3198 0
-3129 3198 0
46 -3129 3199 0
-3130 3199 0
46 -3130 3200 0
-3131 3200 0
46 -3131 3201 0
-3132 3201 0
46 -3132 3202 0
-3133 3202 0
46 -3133 3203 0
-3134 3203 0
46 -3134 3204 0
-3135 3204 0
46 -3135 3205 0
-3136 3205 0
46 -3136 3206 0
-3137 3206 0
46 -3137 3207 0
-3138 3207 0
46 -3138 3208 0
-3139 3208 0
46 -3139 3209 0
-3140 3209 0
46 -3140 3210 0
-3141 3210 0
46 -3141 3211 0
-3142 3211 0
46 -3142 3212 0
-3143 3212 0
46 -3143 3213 0
-3144 3213 0
46 -3144 3214 0
-3145 3214 0
46 -3145 3215 0
-3146 3215 0
46 -3146 3216 0
-3147 3216 0
46 -3147 3217 0
-3148 3217 0
46 -3148 3218 0
-3149 3218 0
46 -3149 3219 0
-3150 3219 0
46 -3150 3220 0
-3151 3220 0
46 -3151 3221 0
-3152 3221 0
46 -3152 3222 0
-3153 3222 0
46 -3153 3223 0
-3154 3223 0
46 -3154 3224 0
-3155 3224 0
46 -3155 3225 0
-3156 3225 0
46 -3156 3226 0
-3157 3226 0
46 -3157 3227 0
-3158 3227 0
46 -3158 3228 0
-3159 3228 0
46 -3159 3229 0
-3160 3229 0
46 -3160 3230 0
-3161 3230 0
46 -3161 3231 0
-3162 3231 0
46 -3162 3232 0
-3163 3232 0
46 -3163 3233 0
-3164 3233 0
46 -3164 3234 0
-3165 3234 0
46 -3165 3235 0
-3166 3235 0
46 -3166 3236 0
-3167 3236 0
46 -3167 3237 0
-3168 3237 0
46 -3168 3238 0
-3169 3238 0
46 -3169 3239 0
-3170 3239 0
46 -3170 3240 0
-3171 3240 0
46 -3171 3241 0
-3172 3241 0
46 -3172 3242 0
-3173 3242 0
46 -3173 3243 0
-3174 3243 0
46 -3174 3244 0
-3175 3244 0
46 -3175 3245 0
-3176 3245 0
46 -3176 3246 0
-3177 3246 0
46 -3177 3247 0
-3178 3247 0
46 -3178 3248 0
-3179 3248 0
46 -3179 3249 0
-3180 3249 0
46 -3180 3250 0
-3181 3250 0
46 -3181 3251 0
-3182 3251 0
46 -3182 3252 0
-3183 3252 0
46 -3183 3253 0
-3184 3253 0
46 -3184 3254 0
-3185 3254 0
46 -3185 3255 0
-3186 3255 0
46 -3186 3256 0
-3187 3256 0
46 -3187 0
47 3257 0
-3188 3257 0
47 -3188 3258 0
-3189 3258 0
47 -3189 3259 0
-3190 3259 0
47 -3190 3260 0
-3191 3260 0
47 -3191 3261 0
-3192 3261 0
47 -3192 3262 0
-3193 3262 0
47 -3193 3263 0
-3194 3263 0
47 -3194 3264 0
-3195 3264 0
47 -3195 3265 0
-3196 3265 0
47 -3196 3266 0
-3197 3266 0
47 -3197 3267 0
-3198 3267 0
47 -3198 3268 0
-3199 3268 0
47 -3199 3269 0
-3200 3269 0
47 -3200 3270 0
-3201 3270 0
47 -3201 3271 0
-3202 3271 0
47 -3202 3272 0
-3203 3272 0
47 -3203 3273 0
-3204 3273 0
47 -3204 3274 0
-3205 3274 0
47 -3205 3275 0
-3206 3275 0
47 -3206 3276 0
-3207 3276 0
47 -3207 3277 0
-3208 3277 0
47 -3208 3278 0
-3209 3278 0
47 -3209 3279 0
-3210 3279 0
47 -3210 3280 0
-3211 3280 0
47 -3211 3281 0
-3212 3281 0
47 -3212 3282 0
-3213 3282 0
47 -3213 3283 0
-3214 3283 0
47 -3214 3284 0
-3215 3284 0
47 -3215 3285 0
-3216 3285 0
47 -3216 3286 0
-3217 3286 0
47 -3217 3287 0
-3218 3287 0
47 -3218 3288 0
-3219 3288 0
47 -3219 3289 0
-3220 3289 0
47 -3220 3290 0
-3221 3290 0
47 -3221 3291 0
-3222 3291 0
47 -3222 3292 0
-3223 3292 0
47 -3223 3293 0
-3224 3293 0
47 -3224 3294 0
-3225 3294 0
47 -3225 3295 0
-3226 3295 0
47 -3226 3296 0
-3227 3296 0
47 -3227 3297 0
-3228 3297 0
47 -3228 3298 0
-3229 3298 0
47 -3229 3299 0
-3230 3299 0
47 -3230 3300 0
-3231 3300 0
47 -3231 3301 0
-3232 3301 0
47 -3232 3302 0
-3233 3302 0
47 -3233 3303 0
-3234 3303 0
47 -3234 3304 0
-3235 3304 0
47 -3235 3305 0
-3236 3305 0
47 -3236 3306 0
-3237 3306 0
47 -3237 3307 0
-3238 3307 0
47 -3238 3308 0
-3239 3308 0
47 -3239 3309 0
-3240 3309 0
47 -3240 3310 0
-3241 3310 0
47 -3241 3311 0
-3242 3311 0
47 -3242 3312 0
-3243 3312 0
47 -3243 3313 0
-3244 3313 0
47 -3244 3314 0
-3245 3314 0
47 -3245 3315 0
-3246 3315 0
47 -3246 3316 0
-3247 3316 0
47 -3247 3317 0
-3248 3317 0
47 -3248 3318 0
-3249 3318 0
47 -3249 3319 0
-3250 3319 0
47 -3250 3320 0
-3251 3320 0
47 -3251 3321 0
-3252 3321 0
47 -3252 3322 0
-3253 3322 0
47 -3253 3323 0
-3254 3323 0
47 -3254 3324 0
-3255 3324 0
47 -3255 3325 0
-3256 3325 0
47 -3256 0
48 3326 0
-3257 3326 0
48 -3257 3327 0
-3258 3327 0
48 -3258 3328 0
-3259 3328 0
48 -3259 3329 0
-3260 3329 0
48 -3260 3330 0
-3261 3330 0
48 -3261 3331 0
-3262 3331 0
48 -3262 3332 0
-3263 3332 0
48 -3263 3333 0
-3264 3333 0
48 -3264 3334 0
-3265 3334 0
48 -3265 3335 0
-3266 3335 0
48 -3266 3336 0
-3267 3336 0
48 -3267 3337 0
-3268 3337 0
48 -3268 3338 0
-3269 3338 0
48 -3269 3339 0
-3270 3339 0
48 -3270 3340 0
-3271 3340 0
48 -3271 3341 0
-3272 3341 0
48 -3272 3342 0
-3273 3342 0
48 -3273 3343 0
-3274 3343 0
48 -3274 3344 0
-3275 3344 0
48 -3275 3345 0
-3276 3345 0
48 -3276 3346 0
-3277 3346 0
48 -3277 3347 0
-3278 3347 0
48 -3278 3348 0
-3279 3348 0
48 -3279 3349 0
-3280 3349 0
48 -3280 3350 0
-3281 3350 0
48 -3281 3351 0
-3282 3351 0
48 -3282 3352 0
-3283 3352 0
48 -3283 3353 0
-3284 3353 0
48 -3284 3354 0
-3285 3354 0
48 -3285 3355 0
-3286 3355 0
48 -3286 3356 0
-3287 3356 0
48 -3287 3357 0
-3288 3357 0
48 -3288 3358 0
-3289 3358 0
48 -3289 3359 0
-3290 3359 0
48 -3290 3360 0
-3291 3360 0
48 -3291 3361 0
-3292 3361 0
48 -3292 3362 0
-3293 3362 0
48 -3293 3363 0
-3294 3363 0
48 -3294 3364 0
-3295 3364 0
48 -3295 3365 0
-3296 3365 0
48 -3296 3366 0
-3297 3366 0
48 -3297 3367 0
-3298 3367 0
48 -3298 3368 0
-3299 3368 0
48 -3299 3369 0
-3300 3369 0
48 -3300 3370 0
-3301 3370 0
48 -3301 3371 0
-3302 3371 0
48 -3302 3372 0
-3303 3372 0
48 -3303 3373 0
-3304 3373 0
48 -3304 3374 0
-3305 3374 0
48 -3305 3375 0
-3306 3375 0
48 -3306 3376 0
-3307 3376 0
48 -3307 3377 0
-3308 3377 0
48 -3308 3378 0
-3309 3378 0
48 -3309 3379 0
-3310 3379 0
48 -3310 3380 0
-3311 3380 0
48 -3311 3381 0
-3312 3381 0
48 -3312 3382 0
-3313 3382 0
48 -3313 3383 0
-3314 3383 0
48 -3314 3384 0
-3315 3384 0
48 -3315 3385 0
-3316 3385 0
48 -3316 3386 0
-3317 3386 0
48 -3317 3387 0
-3318 3387 0
48 -3318 3388 0
-3319 3388 0
48 -3319 3389 0
-3320 3389 0
48 -3320 3390 0
-3321 3390 0
48 -3321 3391 0
-3322 3391 0
48 -3322 3392 0
-3323 3392 0
48 -3323 3393 0
-3324 3393 0
48 -3324 3394 0
-3325 3394 0
48 -3325 0
49 3395 0
-3326 3395 0
49 -3326 3396 0
-3327 3396 0
49 -3327 3397 0
-3328 3397 0
49 -3328 3398 0
-3329 3398 0
49 -3329 3399 0
-3330 3399 0
49 -3330 3400 0
-3331 3400 0
49 -3331 3401 0
-3332 3401 0
49 -3332 3402 0
-3333 3402 0
49 -3333 3403 0
-3334 3403 0
49 -3334 3404 0
-3335 3404 0
49 -3335 3405 0
-3336 3405 0
49 -3336 3406 0
-3337 3406 0
49 -3337 3407 0
-3338 3407 0
49 -3338 3408 0
-3339 3408 0
49 -3339 3409 0
-3340 3409 0
49 -3340 3410 0
-3341 3410 0
49 -3341 3411 0
-3342 3411 0
49 -3342 3412 0
-3343 3412 0
49 -3343 3413 0
-3344 3413 0
49 -3344 3414 0
-3345 3414 0
49 -3345 3415 0
-3346 3415 0
49 -3346 3416 0
-3347 3416 0
49 -3347 3417 0
-3348 3417 0
49 -3348 3418 0
-3349 3418 0
49 -3349 3419 0
-3350 3419 0
49 -3350 3420 0
-3351 3420 0
49 -3351 3421 0
-3352 3421 0
49 -3352 3422 0
-3353 3422 0
49 -3353 3423 0
-3354 3423 0
49 -3354 3424 0
-3355 3424 0
49 -3355 3425 0
-3356 3425 0
49 -3356 3426 0
-3357 3426 0
49 -3357 3427 0
-3358 3427 0
49 -3358 3428 0
-3359 3428 0
49 -3359 3429 0
-3360 3429 0
49 -3360 3430 0
-3361 3430 0
49 -3361 3431 0
-3362 3431 0
49 -3362 3432 0
-3363 3432 0
49 -3363 3433 0
-3364 3433 0
49 -3364 3434 0
-3365 3434 0
49 -3365 3435 0
-3366 3435 0
49 -3366 3436 0
-3367 3436 0
49 -3367 3437 0
-3368 3437 0
49 -3368 3438 0
-3369 3438 0
49 -3369 3439 0
-3370 3439 0
49 -3370 3440 0
-3371 3440 0
49 -3371 3441 0
-3372 3441 0
49 -3372 3442 0
-3373 3442 0
49 -3373 3443 0
-3374 3443 0
49 -3374 3444 0
-3375 3444 0
49 -3375 3445 0
-3376 3445 0
49 -3376 3446 0
-3377 3446 0
49 -3377 3447 0
-3378 3447 0
49 -3378 3448 0
-3379 3448 0
49 -3379 3449 0
-3380 3449 0
49 -3380 3450 0
-3381 3450 0
49 -3381 3451 0
-3382 3451 0
49 -3382 3452 0
-3383 3452 0
49 -3383 3453 0
-3384 3453 0
49 -3384 3454 0
-3385 3454 0
49 -3385 3455 0
-3386 3455 0
49 -3386 3456 0
-3387 3456 0
49 -3387 3457 0
-3388 3457 0
49 -3388 3458 0
-3389 3458 0
49 -3389 3459 0
-3390 3459 0
49 -3390 3460 0
-3391 3460 0
49 -3391 3461 0
-3392 3461 0
49 -3392 3462 0
-3393 3462 0
49 -3393 3463 0
-3394 3463 0
49 -3394 0
50 3464 0
-3395 3464 0
50 -3395 3465 0
-3396 3465 0
50 -3396 3466 0
-3397 3466 0
50 -3397 3467 0
-3398 3467 0
50 -3398 3468 0
-3399 3468 0
50 -3399 3469 0
-3400 3469 0
50 -3400 3470 0
-3401 3470 0
50 -3401 3471 0
-3402 3471 0
50 -3402 3472 0
-3403 3472 0
50 -3403 3473 0
-3404 3473 0
50 -3404 3474 0
-3405 3474 0
50 -3405 3475 0
-3406 3475 0
50 -3406 3476 0
-3407 3476 0
50 -3407 3477 0
-3408 3477 0
50 -3408 3478 0
-3409 3478 0
50 -3409 3479 0
-3410 3479 0
50 -3410 3480 0
-3411 3480 0
50 -3411 3481 0
-3412 3481 0
50 -3412 3482 0
-3413 3482 0
50 -3413 3483 0
-3414 3483 0
50 -3414 3484 0
-3415 3484 0
50 -3415 3485 0
-3416 3485 0
50 -3416 3486 0
-3417 3486 0
50 -3417 3487 0
-3418 3487 0
50 -3418 3488 0
-3419 3488 0
50 -3419 3489 0
-3420 3489 0
50 -3420 3490 0
-3421 3490 0
50 -3421 3491 0
-3422 3491 0
50 -3422 3492 0
-3423 3492 0
50 -3423 3493 0
-3424 3493 0
50 -3424 3494 0
-3425 3494 0
50 -3425 3495 0
-3426 3495 0
50 -3426 3496 0
-3427 3496 0
50 -3427 3497 0
-3428 3497 0
50 -3428 3498 0
-3429 3498 0
50 -3429 3499 0
-3430 3499 0
50 -3430 3500 0
-3431 3500 0
50 -3431 3501 0
-3432 3501 0
50 -3432 3502 0
-3433 3502 0
50 -3433 3503 0
-3434 3503 0
50 -3434 3504 0
-3435 3504 0
50 -3435 3505 0
-3436 3505 0
50 -3436 3506 0
-3437 3506 0
50 -3437 3507 0
-3438 3507 0
50 -3438 3508 0
-3439 3508 0
50 -3439 3509 0
-3440 3509 0
50 -3440 3510 0
-3441 3510 0
50 -3441 3511 0
-3442 3511 0
50 -3442 3512 0
-3443 3512 0
50 -3443 3513 0
-3444 3513 0
50 -3444 3514 0
-3445 3514 0
50 -3445 3515 0
-3446 3515 0
50 -3446 3516 0
-3447 3516 0
50 -3447 3517 0
-3448 3517 0
50 -3448 3518 0
-3449 3518 0
50 -3449 3519 0
-3450 3519 0
50 -3450 3520 0
-3451 3520 0
50 -3451 3521 0
-3452 3521 0
50 -3452 3522 0
-3453 3522 0
50 -3453 3523 0
-3454 3523 0
50 -3454 3524 0
-3455 3524 0
50 -3455 3525 0
-3456 3525 0
50 -3456 3526 0
-3457 3526 0
50 -3457 3527 0
-3458 3527 0
50 -3458 3528 0
-3459 3528 0
50 -3459 3529 0
-3460 3529 0
50 -3460 3530 0
-3461 3530 0
50 -3461 3531 0
-3462 3531 0
50 -3462 3532 0
-3463 3532 0
50 -3463 0
51 3533 0
-3464 3533 0
51 -3464 3534 0
-3465 3534 0
51 -3465 3535 0
-3466 3535 0
51 -3466 3536 0
-3467 3536 0
51 -3467 3537 0
-3468 3537 0
51 -3468 3538 0
-3469 3538 0
51 -3469 3539 0
-3470 3539 0
51 -3470 3540 0
-3471 3540 0
51 -3471 3541 0
-3472 3541 0
51 -3472 3542 0
-3473 3542 0
51 -3473 3543 0
-3474 3543 0
51 -3474 3544 0
-3475 3544 0
51 -3475 3545 0
-3476 3545 0
51 -3476 3546 0
-3477 3546 0
51 -3477 3547 0
-3478 3547 0
51 -3478 3548 0
-3479 3548 0
51 -3479 3549 0
-3480 3549 0
51 -3480 3550 0
-3481 3550 0
51 -3481 3551 0
-3482 3551 0
51 -3482 3552 0
-3483 3552 0
51 -3483 3553 0
-3484 3553 0
51 -3484 3554 0
-3485 3554 0
51 -3485 3555 0
-3486 3555 0
51 -3486 3556 0
-3487 3556 0
51 -3487 3557 0
-3488 3557 0
51 -3488 3558 0
-3489 3558 0
51 -3489 3559 0
-3490 3559 0
51 -3490 3560 0
-3491 3560 0
51 -3491 3561 0
-3492 3561 0
51 -3492 3562 0
-3493 3562 0
51 -3493 3563 0
-3494 3563 0
51 -3494 3564 0
-3495 3564 0
51 -3495 3565 0
-3496 3565 0
51 -3496 3566 0
-3497 3566 0
51 -3497 3567 0
-3498 3567 0
51 -3498 3568 0
-3499 3568 0
51 -3499 3569 0
-3500 3569 0
51 -3500 3570 0
-3501 3570 0
51 -3501 3571 0
-3502 3571 0
51 -3502 3572 0
-3503 3572 0
51 -3503 3573 0
-3504 3573 0
51 -3504 3574 0
-3505 3574 0
51 -3505 3575 0
-3506 3575 0
51 -3506 3576 0
-3507 3576 0
51 -3507 3577 0
-3508 3577 0
51 -3508 3578 0
-3509 3578 0
51 -3509 3579 0
-3510 3579 0
51 -3510 3580 0
-3511 3580 0
51 -3511 3581 0
-3512 3581 0
51 -3512 3582 0
-3513 3582 0
51 -3513 3583 0
-3514 3583 0
51 -3514 3584 0
-3515 3584 0
51 -3515 3585 0
-3516 3585 0
51 -3516 3586 0
-3517 3586 0
51 -3517 3587 0
-3518 3587 0
51 -3518 3588 0
-3519 3588 0
51 -3519 3589 0
-3520 3589 0
51 -3520 3590 0
-3521 3590 0
51 -3521 3591 0
-3522 3591 0
51 -3522 3592 0
-3523 3592 0
51 -3523 3593 0
-3524 3593 0
51 -3524 3594 0
-3525 3594 0
51 -3525 3595 0
-3526 3595 0
51 -3526 3596 0
-3527 3596 0
51 -3527 3597 0
-3528 3597 0
51 -3528 3598 0
-3529 3598 0
51 -3529 3599 0
-3530 3599 0
51 -3530 3600 0
-3531 3600 0
51 -3531 3601 0
-3532 3601 0
51 -3532 0
52 3602 0
-3533 3602 0
52 -3533 3603 0
-3534 3603 0
52 -3534 3604 0
-3535 3604 0
52 -3535 3605 0
-3536 3605 0
52 -3536 3606 0
-3537 3606 0
52 -3537 3607 0
-3538 3607 0
52 -3538 3608 0
-3539 3608 0
52 -3539 3609 0
-3540 3609 0
52 -3540 3610 0
-3541 3610 0
52 -3541 3611 0
-3542 3611 0
52 -3542 3612 0
-3543 3612 0
52 -3543 3613 0
-3544 3613 0
52 -3544 3614 0
-3545 3614 0
52 -3545 3615 0
-3546 3615 0
52 -3546 3616 0
-3547 3616 0
52 -3547 3617 0
-3548 3617 0
52 -3548 3618 0
-3549 3618 0
52 -3549 3619 0
-3550 3619 0
52 -3550 3620 0
-3551 3620 0
52 -3551 3621 0
-3552 3621 0
52 -3552 3622 0
-3553 3622 0
52 -3553 3623 0
-3554 3623 0
52 -3554 3624 0
-3555 3624 0
52 -3555 3625 0
-3556 3625 0
52 -3556 3626 0
-3557 3626 0
52 -3557 3627 0
-3558 3627 0
52 -3558 3628 0
-3559 3628 0
52 -3559 3629 0
-3560 3629 0
52 -3560 3630 0
-3561 3630 0
52 -3561 3631 0
-3562 3631 0
52 -3562 3632 0
-3563 3632 0
52 -3563 3633 0
-3564 3633 0
52 -3564 3634 0
-3565 3634 0
52 -3565 3635 0
-3566 3635 0
52 -3566 3636 0
-3567 3636 0
52 -3567 3637 0
-3568 3637 0
52 -3568 3638 0
-3569 3638 0
52 -3569 3639 0
-3570 3639 0
52 -3570 3640 0
-3571 3640 0
52 -3571 3641 0
-3572 3641 0
52 -3572 3642 0
-3573 3642 0
52 -3573 3643 0
-3574 3643 0
52 -3574 3644 0
-3575 3644 0
52 -3575 3645 0
-3576 3645 0
52 -3576 3646 0
-3577 3646 0
52 -3577 3647 0
-3578 3647 0
52 -3578 3648 0
-3579 3648 0
52 -3579 3649 0
-3580 3649 0
52 -3580 3650 0
-3581 3650 0
52 -3581 3651 0
-3582 3651 0
52 -3582 3652 0
-3583 3652 0
52 -3583 3653 0
-3584 3653 0
52 -3584 3654 0
-3585 3654 0
52 -3585 3655 0
-3586 3655 0
52 -3586 3656 0
-3587 3656 0
52 -3587 3657 0
-3588 3657 0
52 -3588 3658 0
-3589 3658 0
52 -3589 3659 0
-3590 3659 0
52 -3590 3660 0
-3591 3660 0
52 -3591 3661 0
-3592 3661 0
52 -3592 3662 0
-3593 3662 0
52 -3593 3663 0
-3594 3663 0
52 -3594 3664 0
-3595 3664 0
52 -3595 3665 0
-3596 3665 0
52 -3596 3666 0
-3597 3666 0
52 -3597 3667 0
-3598 3667 0
52 -3598 3668 0
-3599 3668 0
52 -3599 3669 0
-3600 3669 0
52 -3600 3670 0
-3601 3670 0
52 -3601 0
53 3671 0
-3602 3671 0
53 -3602 3672 0
-3603 3672 0
53 -3603 3673 0
-3604 3673 0
53 -3604 3674 0
-3605 3674 0
53 -3605 3675 0
-3606 3675 0
53 -3606 3676 0
-3607 3676 0
53 -3607 3677 0
-3608 3677 0
53 -3608 3678 0
-3609 3678 0
53 -3609 3679 0
-3610 3679 0
53 -3610 3680 0
-3611 3680 0
53 -3611 3681 0
-3612 3681 0
53 -3612 3682 0
-3613 3682 0
53 -3613 3683 0
-3614 3683 0
53 -3614 3684 0
-3615 3684 0
53 -3615 3685 0
-3616 3685 0
53 -3616 3686 0
-3617 3686 0
53 -3617 3687 0
-3618 3687 0
53 -3618 3688 0
-3619 3688 0
53 -3619 3689 0
-3620 3689 0
53 -3620 3690 0
-3621 3690 0
53 -3621 3691 0
-3622 3691 0
53 -3622 3692 0
-3623 3692 0
53 -3623 3693 0
-3624 3693 0
53 -3624 3694 0
-3625 3694 0
53 -3625 3695 0
-3626 3695 0
53 -3626 3696 0
-3627 3696 0
53 -3627 3697 0
-3628 3697 0
53 -3628 3698 0
-3629 3698 0
53 -3629 3699 0
-3630 3699 0
53 -3630 3700 0
-3631 3700 0
53 -3631 3701 0
-3632 3701 0
53 -3632 3702 0
-3633 3702 0
53 -3633 3703 0
-3634 3703 0
53 -3634 3704 0
-3635 3704 0
53 -3635 3705 0
-3636 3705 0
53 -3636 3706 0
-3637 3706 0
53 -3637 3707 0
-3638 3707 0
53 -3638 3708 0
-3639 3708 0
53 -3639 3709 0
-3640 3709 0
53 -3640 3710 0
-3641 3710 0
53 -3641 3711 0
-3642 3711 0
53 -3642 3712 0
-3643 3712 0
53 -3643 3713 0
-3644 3713 0
53 -3644 3714 0
-3645 3714 0
53 -3645 3715 0
-3646 3715 0
53 -3646 3716 0
-3647 3716 0
53 -3647 3717 0
-3648 3717 0
53 -3648 3718 0
-3649 3718 0
53 -3649 3719 0
-3650 3719 0
53 -3650 3720 0
-3651 3720 0
53 -3651 3721 0
-3652 3721 0
53 -3652 3722 0
-3653 3722 0
53 -3653 3723 0
-3654 3723 0
53 -3654 3724 0
-3655 3724 0
53 -3655 3725 0
-3656 3725 0
53 -3656 3726 0
-3657 3726 0
53 -3657 3727 0
-3658 3727 0
53 -3658 3728 0
-3659 3728 0
53 -3659 3729 0
-3660 3729 0
53 -3660 3730 0
-3661 3730 0
53 -3661 3731 0
-3662 3731 0
53 -3662 3732 0
-3663 3732 0
53 -3663 3733 0
-3664 3733 0
53 -3664 3734 0
-3665 3734 0
53 -3665 3735 0
-3666 3735 0
53 -3666 3736 0
-3667 3736 0
53 -3667 3737 0
-3668 3737 0
53 -3668 3738 0
-3669 3738 0
53 -3669 3739 0
-3670 3739 0
53 -3670 0
54 3740 0
-3671 3740 0
54 -3671 3741 0
-3672 3741 0
54 -3672 3742 0
-3673 3742 0
54 -3673 3743 0
-3674 3743 0
54 -3674 3744 0
-3675 3744 0
54 -3675 3745 0
-3676 3745 0
54 -3676 3746 0
-3677 3746 0
54 -3677 3747 0
-3678 3747 0
54 -3678 3748 0
-3679 3748 0
54 -3679 3749 0
-3680 3749 0
54 -3680 3750 0
-3681 3750 0
54 -3681 3751 0
-3682 3751 0
54 -3682 3752 0
-3683 3752 0
54 -3683 3753 0
-3684 3753 0
54 -3684 3754 0
-3685 3754 0
54 -3685 3755 0
-3686 3755 0
54 -3686 3756 0
-3687 3756 0
54 -3687 3757 0
-3688 3757 0
54 -3688 3758 0
-3689 3758 0
54 -3689 3759 0
-3690 3759 0
54 -3690 3760 0
-3691 3760 0
54 -3691 3761 0
-3692 3761 0
54 -3692 3762 0
-3693 3762 0
54 -3693 3763 0
-3694 3763 0
54 -3694 3764 0
-3695 3764 0
54 -3695 3765 0
-3696 3765 0
54 -3696 3766 0
-3697 3766 0
54 -3697 3767 0
-3698 3767 0
54 -3698 3768 0
-3699 3768 0
54 -3699 3769 0
-3700 3769 0
54 -3700 3770 0
-3701 3770 0
54 -3701 3771 0
-3702 3771 0
54 -3702 3772 0
-3703 3772 0
54 -3703 3773 0
-3704 3773 0
54 -3704 3774 0
-3705 3774 0
54 -3705 3775 0
-3706 3775 0
54 -3706 3776 0
-3707 3776 0
54 -3707 3777 0
-3708 3777 0
54 -3708 3778 0
-3709 3778 0
54 -3709 3779 0
-3710 3779 0
54 -3710 3780 0
-3711 3780 0
54 -3711 3781 0
-3712 3781 0
54 -3712 3782 0
-3713 3782 0
54 -3713 3783 0
-3714 3783 0
54 -3714 3784 0
-3715 3784 0
54 -3715 3785 0
-3716 3785 0
54 -3716 3786 0
-3717 3786 0
54 -3717 3787 0
-3718 3787 0
54 -3718 3788 0
-3719 3788 0
54 -3719 3789 0
-3720 3789 0
54 -3720 3790 0
-3721 3790 0
54 -3721 3791 0
-3722 3791 0
54 -3722 3792 0
-3723 3792 0
54 -3723 3793 0
-3724 3793 0
54 -3724 3794 0
-3725 3794 0
54 -3725 3795 0
-3726 3795 0
54 -3726 3796 0
-3727 3796 0
54 -3727 3797 0
-3728 3797 0
54 -3728 3798 0
-3729 3798 0
54 -3729 3799 0
-3730 3799 0
54 -3730 3800 0
-3731 3800 0
54 -3731 3801 0
-3732 3801 0
54 -3732 3802 0
-3733 3802 0
54 -3733 3803 0
-3734 3803 0
54 -3734 3804 0
-3735 3804 0
54 -3735 3805 0
-3736 3805 0
54 -3736 3806 0
-3737 3806 0
54 -3737 3807 0
-3738 3807 0
54 -3738 3808 0
-3739 3808 0
54 -3739 0
55 3809 0
-3740 3809 0
55 -3740 3810 0
-3741 3810 0
55 -3741 3811 0
-3742 3811 0
55 -3742 3812 0
-3743 3812 0
55 -3743 3813 0
-3744 3813 0
55 -3744 3814 0
-3745 3814 0
55 -3745 3815 0
-3746 3815 0
55 -3746 3816 0
-3747 3816 0
55 -3747 3817 0
-3748 3817 0
55 -3748 3818 0
-3749 3818 0
55 -3749 3819 0
-3750 3819 0
55 -3750 3820 0
-3751 3820 0
55 -3751 3821 0
-3752 3821 0
55 -3752 3822 0
-3753 3822 0
55 -3753 3823 0
-3754 3823 0
55 -3754 3824 0
-3755 3824 0
55 -3755 3825 0
-3756 3825 0
55 -3756 3826 0
-3757 3826 0
55 -3757 3827 0
-3758 3827 0
55 -3758 3828 0
-3759 3828 0
55 -3759 3829 0
-3760 3829 0
55 -3760 3830 0
-3761 3830 0
55 -3761 3831 0
-3762 3831 0
55 -3762 3832 0
-3763 3832 0
55 -3763 3833 0
-3764 3833 0
55 -3764 3834 0
-3765 3834 0
55 -3765 3835 0
-3766 3835 0
55 -3766 3836 0
-3767 3836 0
55 -3767 3837 0
-3768 3837 0
55 -3768 3838 0
-3769 3838 0
55 -3769 3839 0
-3770 3839 0
55 -3770 3840 0
-3771 3840 0
55 -3771 3841 0
-3772 3841 0
55 -3772 3842 0
-3773 3842 0
55 -3773 3843 0
-3774 3843 0
55 -3774 3844 0
-3775 3844 0
55 -3775 3845 0
-3776 3845 0
55 -3776 3846 0
-3777 3846 0
55 -3777 3847 0
-3778 3847 0
55 -3778 3848 0
-3779 3848 0
55 -3779 3849 0
-3780 3849 0
55 -3780 3850 0
-3781 3850 0
55 -3781 3851 0
-3782 3851 0
55 -3782 3852 0
-3783 3852 0
55 -3783 3853 0
-3784 3853 0
55 -3784 3854 0
-3785 3854 0
55 -3785 3855 0
-3786 3855 0
55 -3786 3856 0
-3787 3856 0
55 -3787 3857 0
-3788 3857 0
55 -3788 3858 0
-3789 3858 0
55 -3789 3859 0
-3790 3859 0
55 -3790 3860 0
-3791 3860 0
55 -3791 3861 0
-3792 3861 0
55 -3792 3862 0
-3793 3862 0
55 -3793 3863 0
-3794 3863 0
55 -3794 3864 0
-3795 3864 0
55 -3795 3865 0
-3796 3865 0
55 -3796 3866 0
-3797 3866 0
55 -3797 3867 0
-3798 3867 0
55 -3798 3868 0
-3799 3868 0
55 -3799 3869 0
-3800 3869 0
55 -3800 3870 0
-3801 3870 0
55 -3801 3871 0
-3802 3871 0
55 -3802 3872 0
-3803 3872 0
55 -3803 3873 0
-3804 3873 0
55 -3804 3874 0
-3805 3874 0
55 -3805 3875 0
-3806 3875 0
55 -3806 3876 0
-3807 3876 0
55 -3807 3877 0
-3808 3877 0
55 -3808 0
56 3878 0
-3809 3878 0
56 -3809 3879 0
-3810 3879 0
56 -3810 3880 0
-3811 3880 0
56 -3811 3881 0
-3812 3881 0
56 -3812 3882 0
-3813 3882 0
56 -3813 3883 0
-3814 3883 0
56 -3814 3884 0
-3815 3884 0
56 -3815 3885 0
-3816 3885 0
56 -3816 3886 0
-3817 3886 0
56 -3817 3887 0
-3818 3887 0
56 -3818 3888 0
-3819 3888 0
56 -3819 3889 0
-3820 3889 0
56 -3820 3890 0
-3821 3890 0
56 -3821 3891 0
-3822 3891 0
56 -3822 3892 0
-3823 3892 0
56 -3823 3893 0
-3824 3893 0
56 -3824 3894 0
-3825 3894 0
56 -3825 3895 0
-3826 3895 0
56 -3826 3896 0
-3827 3896 0
56 -3827 3897 0
-3828 3897 0
56 -3828 3898 0
-3829 3898 0
56 -3829 3899 0
-3830 3899 0
56 -3830 3900 0
-3831 3900 0
56 -3831 3901 0
-3832 3901 0
56 -3832 3902 0
-3833 3902 0
56 -3833 3903 0
-3834 3903 0
56 -3834 3904 0
-3835 3904 0
56 -3835 3905 0
-3836 3905 0
56 -3836 3906 0
-3837 3906 0
56 -3837 3907 0
-3838 3907 0
56 -3838 3908 0
-3839 3908 0
56 -3839 3909 0
-3840 3909 0
56 -3840 3910 0
-3841 3910 0
56 -3841 3911 0
-3842 3911 0
56 -3842 3912 0
-3843 3912 0
56 -3843 3913 0
-3844 3913 0
56 -3844 3914 0
-3845 3914 0
56 -3845 3915 0
-3846 3915 0
56 -3846 3916 0
-3847 3916 0
56 -3847 3917 0
-3848 3917 0
56 -3848 3918 0
-3849 3918 0
56 -3849 3919 0
-3850 3919 0
56 -3850 3920 0
-3851 3920 0
56 -3851 3921 0
-3852 3921 0
56 -3852 3922 0
-3853 3922 0
56 -3853 3923 0
-3854 3923 0
56 -3854 3924 0
-3855 3924 0
56 -3855 3925 0
-3856 3925 0
56 -3856 3926 0
-3857 3926 0
56 -3857 3927 0
-3858 3927 0
56 -3858 3928 0
-3859 3928 0
56 -3859 3929 0
-3860 3929 0
56 -3860 3930 0
-3861 3930 0
56 -3861 3931 0
-3862 3931 0
56 -3862 3932 0
-3863 3932 0
56 -3863 3933 0
-3864 3933 0
56 -3864 3934 0
-3865 3934 0
56 -3865 3935 0
-3866 3935 0
56 -3866 3936 0
-3867 3936 0
56 -3867 3937 0
-3868 3937 0
56 -3868 3938 0
-3869 3938 0
56 -3869 3939 0
-3870 3939 0
56 -3870 3940 0
-3871 3940 0
56 -3871 3941 0
-3872 3941 0
56 -3872 3942 0
-3873 3942 0
56 -3873 3943 0
-3874 3943 0
56 -3874 3944 0
-3875 3944 0
56 -3875 3945 0
-3876 3945 0
56 -3876 3946 0
-3877 3946 0
56 -3877 0
57 3947 0
-3878 3947 0
57 -3878 3948 0
-3879 3948 0
57 -3879 3949 0
-3880 3949 0
57 -3880 3950 0
-3881 3950 0
57 -3881 3951 0
-3882 3951 0
57 -3882 3952 0
-3883 3952 0
57 -3883 3953 0
-3884 3953 0
57 -3884 3954 0
-3885 3954 0
57 -3885 3955 0
-3886 3955 0
57 -3886 3956 0
-3887 3956 0
57 -3887 3957 0
-3888 3957 0
57 -3888 3958 0
-3889 3958 0
57 -3889 3959 0
-3890 3959 0
57 -3890 3960 0
-3891 3960 0
57 -3891 3961 0
-3892 3961 0
57 -3892 3962 0
-3893 3962 0
57 -3893 3963 0
-3894 3963 0
57 -3894 3964 0
-3895 3964 0
57 -3895 3965 0
-3896 3965 0
57 -3896 3966 0
-3897 3966 0
57 -3897 3967 0
-3898 3967 0
57 -3898 3968 0
-3899 3968 0
57 -3899 3969 0
-3900 3969 0
57 -3900 3970 0
-3901 3970 0
57 -3901 3971 0
-3902 3971 0
57 -3902 3972 0
-3903 3972 0
57 -3903 3973 0
-3904 3973 0
57 -3904 3974 0
-3905 3974 0
57 -3905 3975 0
-3906 3975 0
57 -3906 3976 0
-3907 3976 0
57 -3907 3977 0
-3908 3977 0
57 -3908 3978 0
-3909 3978 0
57 -3909 3979 0
-3910 3979 0
57 -3910 3980 0
-3911 3980 0
57 -3911 3981 0
-3912 3981 0
57 -3912 3982 0
-3913 3982 0
57 -3913 3983 0
-3914 3983 0
57 -3914 3984 0
-3915 3984 0
57 -3915 3985 0
-3916 3985 0
57 -3916 3986 0
-3917 3986 0
57 -3917 3987 0
-3918 3987 0
57 -3918 3988 0
-3919 3988 0
57 -3919 3989 0
-3920 3989 0
57 -3920 3990 0
-3921 3990 0
57 -3921 3991 0
-3922 3991 0
57 -3922 3992 0
-3923 3992 0
57 -3923 3993 0
-3924 3993 0
57 -3924 3994 0
-3925 3994 0
57 -3925 3995 0
-3926 3995 0
57 -3926 3996 0
-3927 3996 0
57 -3927 3997 0
-3928 3997 0
57 -3928 3998 0
-3929 3998 0
57 -3929 3999 0
-3930 3999 0
57 -3930 4000 0
-3931 4000 0
57 -3931 4001 0
-3932 4001 0
57 -3932 4002 0
-3933 4002 0
57 -3933 4003 0
-3934 4003 0
57 -3934 4004 0
-3935 4004 0
57 -3935 4005 0
-3936 4005 0
57 -3936 4006 0
-3937 4006 0
57 -3937 4007 0
-3938 4007 0
57 -3938 4008 0
-3939 4008 0
57 -3939 4009 0
-3940 4009 0
57 -3940 4010 0
-3941 4010 0
57 -3941 4011 0
-3942 4011 0
57 -3942 4012 0
-3943 4012 0
57 -3943 4013 0
-3944 4013 0
57 -3944 4014 0
-3945 4014 0
57 -3945 4015 0
-3946 4015 0
57 -3946 0
58 4016 0
-3947 4016 0
58 -3947 4017 0
-3948 4017 0
58 -3948 4018 0
-3949 4018 0
58 -3949 4019 0
-3950 4019 0
58 -3950 4020 0
-3951 4020 0
58 -3951 4021 0
-3952 4021 0
58 -3952 4022 0
-3953 4022 0
58 -3953 4023 0
-3954 4023 0
58 -3954 4024 0
-3955 4024 0
58 -3955 4025 0
-3956 4025 0
58 -3956 4026 0
-3957 4026 0
58 -3957 4027 0
-3958 4027 0
58 -3958 4028 0
-3959 4028 0
58 -3959 4029 0
-3960 4029 0
58 -3960 4030 0
-3961 4030 0
58 -3961 4031 0
-3962 4031 0
58 -3962 4032 0
-3963 4032 0
58 -3963 4033 0
-3964 4033 0
58 -3964 4034 0
-3965 4034 0
58 -3965 4035 0
-3966 4035 0
58 -3966 4036 0
-3967 4036 0
58 -3967 4037 0
-3968 4037 0
58 -3968 4038 0
-3969 4038 0
58 -3969 4039 0
-3970 4039 0
58 -3970 4040 0
-3971 4040 0
58 -3971 4041 0
-3972 4041 0
58 -3972 4042 0
-3973 4042 0
58 -3973 4043 0
-3974 4043 0
58 -3974 4044 0
-3975 4044 0
58 -3975 4045 0
-3976 4045 0
58 -3976 4046 0
-3977 4046 0
58 -3977 4047 0
-3978 4047 0
58 -3978 4048 0
-3979 4048 0
58 -3979 4049 0
-3980 4049 0
58 -3980 4050 0
-3981 4050 0
58 -3981 4051 0
-3982 4051 0
58 -3982 4052 0
-3983 4052 0
58 -3983 4053 0
-3984 4053 0
58 -3984 4054 0
-3985 4054 0
58 -3985 4055 0
-3986 4055 0
58 -3986 4056 0
-3987 4056 0
58 -3987 4057 0
-3988 4057 0
58 -3988 4058 0
-3989 4058 0
58 -3989 4059 0
-3990 4059 0
58 -3990 4060 0
-3991 4060 0
58 -3991 4061 0
-3992 4061 0
58 -3992 4062 0
-3993 4062 0
58 -3993 4063 0
-3994 4063 0
58 -3994 4064 0
-3995 4064 0
58 -3995 4065 0
-3996 4065 0
58 -3996 4066 0
-3997 4066 0
58 -3997 4067 0
-3998 4067 0
58 -3998 4068 0
-3999 4068 0
58 -3999 4069 0
-4000 4069 0
58 -4000 4070 0
-4001 4070 0
58 -4001 4071 0
-4002 4071 0
58 -4002 4072 0
-4003 4072 0
58 -4003 4073 0
-4004 4073 0
58 -4004 4074 0
-4005 4074 0
58 -4005 4075 0
-4006 4075 0
58 -4006 4076 0
-4007 4076 0
58 -4007 4077 0
-4008 4077 0
58 -4008 4078 0
-4009 4078 0
58 -4009 4079 0
-4010 4079 0
58 -4010 4080 0
-4011 4080 0
58 -4011 4081 0
-4012 4081 0
58 -4012 4082 0
-4013 4082 0
58 -4013 4083 0
-4014 4083 0
58 -4014 4084 0
-4015 4084 0
58 -4015 0
59 4085 0
-4016 4085 0
59 -4016 4086 0
-4017 4086 0
59 -4017 4087 0
-4018 4087 0
59 -4018 4088 0
-4019 4088 0
59 -4019 4089 0
-4020 4089 0
59 -4020 4090 0
-4021 4090 0
59 -4021 4091 0
-4022 4091 0
59 -4022 4092 0
-4023 4092 0
59 -4023 4093 0
-4024 4093 0
59 -4024 4094 0
-4025 4094 0
59 -4025 4095 0
-4026 4095 0
59 -4026 4096 0
-4027 4096 0
59 -4027 4097 0
-4028 4097 0
59 -4028 4098 0
-4029 4098 0
59 -4029 4099 0
-4030 4099 0
59 -4030 4100 0
-4031 4100 0
59 -4031 4101 0
-4032 4101 0
59 -4032 4102 0
-4033 4102 0
59 -4033 4103 0
-4034 4103 0
59 -4034 4104 0
-4035 4104 0
59 -4035 4105 0
-4036 4105 0
59 -4036 4106 0
-4037 4106 0
59 -4037 4107 0
-4038 4107 0
59 -4038 4108 0
-4039 4108 0
59 -4039 4109 0
-4040 4109 0
59 -4040 4110 0
-4041 4110 0
59 -4041 4111 0
-4042 4111 0
59 -4042 4112 0
-4043 4112 0
59 -4043 4113 0
-4044 4113 0
59 -4044 4114 0
-4045 4114 0
59 -4045 4115 0
-4046 4115 0
59 -4046 4116 0
-4047 4116 0
59 -4047 4117 0
-4048 4117 0
59 -4048 4118 0
-4049 4118 0
59 -4049 4119 0
-4050 4119 0
59 -4050 4120 0
-4051 4120 0
59 -4051 4121 0
-4052 4121 0
59 -4052 4122 0
-4053 4122 0
59 -4053 4123 0
-4054 4123 0
59 -4054 4124 0
-4055 4124 0
59 -4055 4125 0
-4056 4125 0
59 -4056 4126 0
-4057 4126 0
59 -4057 4127 0
-4058 4127 0
59 -4058 4128 0
-4059 4128 0
59 -4059 4129 0
-4060 4129 0
59 -4060 4130 0
-4061 4130 0
59 -4061 4131 0
-4062 4131 0
59 -4062 4132 0
-4063 4132 0
59 -4063 4133 0
-4064 4133 0
59 -4064 4134 0
-4065 4134 0
59 -4065 4135 0
-4066 4135 0
59 -4066 4136 0
-4067 4136 0
59 -4067 4137 0
-4068 4137 0
59 -4068 4138 0
-4069 4138 0
59 -4069 4139 0
-4070 4139 0
59 -4070 4140 0
-4071 4140 0
59 -4071 4141 0
-4072 4141 0
59 -4072 4142 0
-4073 4142 0
59 -4073 4143 0
-4074 4143 0
59 -4074 4144 0
-4075 4144 0
59 -4075 4145 0
-4076 4145 0
59 -4076 4146 0
-4077 4146 0
59 -4077 4147 0
-4078 4147 0
59 -4078 4148 0
-4079 4148 0
59 -4079 4149 0
-4080 4149 0
59 -4080 4150 0
-4081 4150 0
59 -4081 4151 0
-4082 4151 0
59 -4082 4152 0
-4083 4152 0
59 -4083 4153 0
-4084 4153 0
59 -4084 0
60 4154 0
-4085 4154 0
60 -4085 4155 0
-4086 4155 0
60 -4086 4156 0
-4087 4156 0
60 -4087 4157 0
-4088 4157 0
60 -4088 4158 0
-4089 4158 0
60 -4089 4159 0
-4090 4159 0
60 -4090 4160 0
-4091 4160 0
60 -4091 4161 0
-4092 4161 0
60 -4092 4162 0
-4093 4162 0
60 -4093 4163 0
-4094 4163 0
60 -4094 4164 0
-4095 4164 0
60 -4095 4165 0
-4096 4165 0
60 -4096 4166 0
-4097 4166 0
60 -4097 4167 0
-4098 4167 0
60 -4098 4168 0
-4099 4168 0
60 -4099 4169 0
-4100 4169 0
60 -4100 4170 0
-4101 4170 0
60 -4101 4171 0
-4102 4171 0
60 -4102 4172 0
-4103 4172 0
60 -4103 4173 0
-4104 4173 0
60 -4104 4174 0
-4105 4174 0
60 -4105 4175 0
-4106 4175 0
60 -4106 4176 0
-4107 4176 0
60 -4107 4177 0
-4108 4177 0
60 -4108 4178 0
-4109 4178 0
60 -4109 4179 0
-4110 4179 0
60 -4110 4180 0
-4111 4180 0
60 -4111 4181 0
-4112 4181 0
60 -4112 4182 0
-4113 4182 0
60 -4113 4183 0
-4114 4183 0
60 -4114 4184 0
-4115 4184 0
60 -4115 4185 0
-4116 4185 0
60 -4116 4186 0
-4117 4186 0
60 -4117 4187 0
-4118 4187 0
60 -4118 4188 0
-4119 4188 0
60 -4119 4189 0
-4120 4189 0
60 -4120 4190 0
-4121 4190 0
60 -4121 4191 0
-4122 4191 0
60 -4122 4192 0
-4123 4192 0
60 -4123 4193 0
-4124 4193 0
60 -4124 4194 0
-4125 4194 0
60 -4125 4195 0
-4126 4195 0
60 -4126 4196 0
-4127 4196 0
60 -4127 4197 0
-4128 4197 0
60 -4128 4198 0
-4129 4198 0
60 -4129 4199 0
-4130 4199 0
60 -4130 4200 0
-4131 4200 0
60 -4131 4201 0
-4132 4201 0
60 -4132 4202 0
-4133 4202 0
60 -4133 4203 0
-4134 4203 0
60 -4134 4204 0
-4135 4204 0
60 -4135 4205 0
-4136 4205 0
60 -4136 4206 0
-4137 4206 0
60 -4137 4207 0
-4138 4207 0
60 -4138 4208 0
-4139 4208 0
60 -4139 4209 0
-4140 4209 0
60 -4140 4210 0
-4141 4210 0
60 -4141 4211 0
-4142 4211 0
60 -4142 4212 0
-4143 4212 0
60 -4143 4213 0
-4144 4213 0
60 -4144 4214 0
-4145 4214 0
60 -4145 4215 0
-4146 4215 0
60 -4146 4216 0
-4147 4216 0
60 -4147 4217 0
-4148 4217 0
60 -4148 4218 0
-4149 4218 0
60 -4149 4219 0
-4150 4219 0
60 -4150 4220 0
-4151 4220 0
60 -4151 4221 0
-4152 4221 0
60 -4152 4222 0
-4153 4222 0
60 -4153 0
61 4223 0
-4154 4223 0
61 -4154 4224 0
-4155 4224 0
61 -4155 4225 0
-4156 4225 0
61 -4156 4226 0
-4157 4226 0
61 -4157 4227 0
-4158 4227 0
61 -4158 4228 0
-4159 4228 0
61 -4159 4229 0
-4160 4229 0
61 -4160 4230 0
-4161 4230 0
61 -4161 4231 0
-4162 4231 0
61 -4162 4232 0
-4163 4232 0
61 -4163 4233 0
-4164 4233 0
61 -4164 4234 0
-4165 4234 0
61 -4165 4235 0
-4166 4235 0
61 -4166 4236 0
-4167 4236 0
61 -4167 4237 0
-4168 4237 0
61 -4168 4238 0
-4169 4238 0
61 -4169 4239 0
-4170 4239 0
61 -4170 4240 0
-4171 4240 0
61 -4171 4241 0
-4172 4241 0
61 -4172 4242 0
-4173 4242 0
61 -4173 4243 0
-4174 4243 0
61 -4174 4244 0
-4175 4244 0
61 -4175 4245 0
-4176 4245 0
61 -4176 4246 0
-4177 4246 0
61 -4177 4247 0
-4178 4247 0
61 -4178 4248 0
-4179 4248 0
61 -4179 4249 0
-4180 4249 0
61 -4180 4250 0
-4181 4250 0
61 -4181 4251 0
-4182 4251 0
61 -4182 4252 0
-4183 4252 0
61 -4183 4253 0
-4184 4253 0
61 -4184 4254 0
-4185 4254 0
61 -4185 4255 0
-4186 4255 0
61 -4186 4256 0
-4187 4256 0
61 -4187 4257 0
-4188 4257 0
61 -4188 4258 0
-4189 4258 0
61 -4189 4259 0
-4190 4259 0
61 -4190 4260 0
-4191 4260 0
61 -4191 4261 0
-4192 4261 0
61 -4192 4262 0
-4193 4262 0
61 -4193 4263 0
-4194 4263 0
61 -4194 4264 0
-4195 4264 0
61 -4195 4265 0
-4196 4265 0
61 -4196 4266 0
-4197 4266 0
61 -4197 4267 0
-4198 4267 0
61 -4198 4268 0
-4199 4268 0
61 -4199 4269 0
-4200 4269 0
61 -4200 4270 0
-4201 4270 0
61 -4201 4271 0
-4202 4271 0
61 -4202 4272 0
-4203 4272 0
61 -4203 4273 0
-4204 4273 0
61 -4204 4274 0
-4205 4274 0
61 -4205 4275 0
-4206 4275 0
61 -4206 4276 0
-4207 4276 0
61 -4207 4277 0
-4208 4277 0
61 -4208 4278 0
-4209 4278 0
61 -4209 4279 0
-4210 4279 0
61 -4210 4280 0
-4211 4280 0
61 -4211 4281 0
-4212 4281 0
61 -4212 4282 0
-4213 4282 0
61 -4213 4283 0
-4214 4283 0
61 -4214 4284 0
-4215 4284 0
61 -4215 4285 0
-4216 4285 0
61 -4216 4286 0
-4217 4286 0
61 -4217 4287 0
-4218 4287 0
61 -4218 4288 0
-4219 4288 0
61 -4219 4289 0
-4220 4289 0
61 -4220 4290 0
-4221 4290 0
61 -4221 4291 0
-4222 4291 0
61 -4222 0
62 4292 0
-4223 4292 0
62 -4223 4293 0
-4224 4293 0
62 -4224 4294 0
-4225 4294 0
62 -4225 4295 0
-4226 4295 0
62 -4226 4296 0
-4227 4296 0
62 -4227 4297 0
-4228 4297 0
62 -4228 4298 0
-4229 4298 0
62 -4229 4299 0
-4230 4299 0
62 -4230 4300 0
-4231 4300 0
62 -4231 4301 0
-4232 4301 0
62 -4232 4302 0
-4233 4302 0
62 -4233 4303 0
-4234 4303 0
62 -4234 4304 0
-4235 4304 0
62 -4235 4305 0
-4236 4305 0
62 -4236 4306 0
-4237 4306 0
62 -4237 4307 0
-4238 4307 0
62 -4238 4308 0
-4239 4308 0
62 -4239 4309 0
-4240 4309 0
62 -4240 4310 0
-4241 4310 0
62 -4241 4311 0
-4242 4311 0
62 -4242 4312 0
-4243 4312 0
62 -4243 4313 0
-4244 4313 0
62 -4244 4314 0
-4245 4314 0
62 -4245 4315 0
-4246 4315 0
62 -4246 4316 0
-4247 4316 0
62 -4247 4317 0
-4248 4317 0
62 -4248 4318 0
-4249 4318 0
62 -4249 4319 0
-4250 4319 0
62 -4250 4320 0
-4251 4320 0
62 -4251 4321 0
-4252 4321 0
62 -4252 4322 0
-4253 4322 0
62 -4253 4323 0
-4254 4323 0
62 -4254 4324 0
-4255 4324 0
62 -4255 4325 0
-4256 4325 0
62 -4256 4326 0
-4257 4326 0
62 -4257 4327 0
-4258 4327 0
62 -4258 4328 0
-4259 4328 0
62 -4259 4329 0
-4260 4329 0
62 -4260 4330 0
-4261 4330 0
62 -4261 4331 0
-4262 4331 0
62 -4262 4332 0
-4263 4332 0
62 -4263 4333 0
-4264 4333 0
62 -4264 4334 0
-4265 4334 0
62 -4265 4335 0
-4266 4335 0
62 -4266 4336 0
-4267 4336 0
62 -4267 4337 0
-4268 4337 0
62 -4268 4338 0
-4269 4338 0
62 -4269 4339 0
-4270 4339 0
62 -4270 4340 0
-4271 4340 0
62 -4271 4341 0
-4272 4341 0
62 -4272 4342 0
-4273 4342 0
62 -4273 4343 0
-4274 4343 0
62 -4274 4344 0
-4275 4344 0
62 -4275 4345 0
-4276 4345 0
62 -4276 4346 0
-4277 4346 0
62 -4277 4347 0
-4278 4347 0
62 -4278 4348 0
-4279 4348 0
62 -4279 4349 0
-4280 4349 0
62 -4280 4350 0
-4281 4350 0
62 -4281 4351 0
-4282 4351 0
62 -4282 4352 0
-4283 4352 0
62 -4283 4353 0
-4284 4353 0
62 -4284 4354 0
-4285 4354 0
62 -4285 4355 0
-4286 4355 0
62 -4286 4356 0
-4287 4356 0
62 -4287 4357 0
-4288 4357 0
62 -4288 4358 0
-4289 4358 0
62 -4289 4359 0
-4290 4359 0
62 -4290 4360 0
-4291 4360 0
62 -4291 0
63 4361 0
-4292 4361 0
63 -4292 4362 0
-4293 4362 0
63 -4293 4363 0
-4294 4363 0
63 -4294 4364 0
-4295 4364 0
63 -4295 4365 0
-4296 4365 0
63 -4296 4366 0
-4297 4366 0
63 -4297 4367 0
-4298 4367 0
63 -4298 4368 0
-4299 4368 0
63 -4299 4369 0
-4300 4369 0
63 -4300 4370 0
-4301 4370 0
63 -4301 4371 0
-4302 4371 0
63 -4302 4372 0
-4303 4372 0
63 -4303 4373 0
-4304 4373 0
63 -4304 4374 0
-4305 4374 0
63 -4305 4375 0
-4306 4375 0
63 -4306 4376 0
-4307 4376 0
63 -4307 4377 0
-4308 4377 0
63 -4308 4378 0
-4309 4378 0
63 -4309 4379 0
-4310 4379 0
63 -4310 4380 0
-4311 4380 0
63 -4311 4381 0
-4312 4381 0
63 -4312 4382 0
-4313 4382 0
63 -4313 4383 0
-4314 4383 0
63 -4314 4384 0
-4315 4384 0
63 -4315 4385 0
-4316 4385 0
63 -4316 4386 0
-4317 4386 0
63 -4317 4387 0
-4318 4387 0
63 -4318 4388 0
-4319 4388 0
63 -4319 4389 0
-4320 4389 0
63 -4320 4390 0
-4321 4390 0
63 -4321 4391 0
-4322 4391 0
63 -4322 4392 0
-4323 4392 0
63 -4323 4393 0
-4324 4393 0
63 -4324 4394 0
-4325 4394 0
63 -4325 4395 0
-4326 4395 0
63 -4326 4396 0
-4327 4396 0
63 -4327 4397 0
-4328 4397 0
63 -4328 4398 0
-4329 4398 0
63 -4329 4399 0
-4330 4399 0
63 -4330 4400 0
-4331 4400 0
63 -4331 4401 0
-4332 4401 0
63 -4332 4402 0
-4333 4402 0
63 -4333 4403 0
-4334 4403 0
63 -4334 4404 0
-4335 4404 0
63 -4335 4405 0
-4336 4405 0
63 -4336 4406 0
-4337 4406 0
63 -4337 4407 0
-4338 4407 0
63 -4338 4408 0
-4339 4408 0
63 -4339 4409 0
-4340 4409 0
63 -4340 4410 0
-4341 4410 0
63 -4341 4411 0
-4342 4411 0
63 -4342 4412 0
-4343 4412 0
63 -4343 4413 0
-4344 4413 0
63 -4344 4414 0
-4345 4414 0
63 -4345 4415 0
-4346 4415 0
63 -4346 4416 0
-4347 4416 0
63 -4347 4417 0
-4348 4417 0
63 -4348 4418 0
-4349 4418 0
63 -4349 4419 0
-4350 4419 0
63 -4350 4420 0
-4351 4420 0
63 -4351 4421 0
-4352 4421 0
63 -4352 4422 0
-4353 4422 0
63 -4353 4423 0
-4354 4423 0
63 -4354 4424 0
-4355 4424 0
63 -4355 4425 0
-4356 4425 0
63 -4356 4426 0
-4357 4426 0
63 -4357 4427 0
-4358 4427 0
63 -4358 4428 0
-4359 4428 0
63 -4359 4429 0
-4360 4429 0
63 -4360 0
64 4430 0
-4361 4430 0
64 -4361 4431 0
-4362 4431 0
64 -4362 4432 0
-4363 4432 0
64 -4363 4433 0
-4364 4433 0
64 -4364 4434 0
-4365 4434 0
64 -4365 4435 0
-4366 4435 0
64 -4366 4436 0
-4367 4436 0
64 -4367 4437 0
-4368 4437 0
64 -4368 4438 0
-4369 4438 0
64 -4369 4439 0
-4370 4439 0
64 -4370 4440 0
-4371 4440 0
64 -4371 4441 0
-4372 4441 0
64 -4372 4442 0
-4373 4442 0
64 -4373 4443 0
-4374 4443 0
64 -4374 4444 0
-4375 4444 0
64 -4375 4445 0
-4376 4445 0
64 -4376 4446 0
-4377 4446 0
64 -4377 4447 0
-4378 4447 0
64 -4378 4448 0
-4379 4448 0
64 -4379 4449 0
-4380 4449 0
64 -4380 4450 0
-4381 4450 0
64 -4381 4451 0
-4382 4451 0
64 -4382 4452 0
-4383 4452 0
64 -4383 4453 0
-4384 4453 0
64 -4384 4454 0
-4385 4454 0
64 -4385 4455 0
-4386 4455 0
64 -4386 4456 0
-4387 4456 0
64 -4387 4457 0
-4388 4457 0
64 -4388 4458 0
-4389 4458 0
64 -4389 4459 0
-4390 4459 0
64 -4390 4460 0
-4391 4460 0
64 -4391 4461 0
-4392 4461 0
64 -4392 4462 0
-4393 4462 0
64 -4393 4463 0
-4394 4463 0
64 -4394 4464 0
-4395 4464 0
64 -4395 4465 0
-4396 4465 0
64 -4396 4466 0
-4397 4466 0
64 -4397 4467 0
-4398 4467 0
64 -4398 4468 0
-4399 4468 0
64 -4399 4469 0
-4400 4469 0
64 -4400 4470 0
-4401 4470 0
64 -4401 4471 0
-4402 4471 0
64 -4402 4472 0
-4403 4472 0
64 -4403 4473 0
-4404 4473 0
64 -4404 4474 0
-4405 4474 0
64 -4405 4475 0
-4406 4475 0
64 -4406 4476 0
-4407 4476 0
64 -4407 4477 0
-4408 4477 0
64 -4408 4478 0
-4409 4478 0
64 -4409 4479 0
-4410 4479 0
64 -4410 4480 0
-4411 4480 0
64 -4411 4481 0
-4412 4481 0
64 -4412 4482 0
-4413 4482 0
64 -4413 4483 0
-4414 4483 0
64 -4414 4484 0
-4415 4484 0
64 -4415 4485 0
-4416 4485 0
64 -4416 4486 0
-4417 4486 0
64 -4417 4487 0
-4418 4487 0
64 -4418 4488 0
-4419 4488 0
64 -4419 4489 0
-4420 4489 0
64 -4420 4490 0
-4421 4490 0
64 -4421 4491 0
-4422 4491 0
64 -4422 4492 0
-4423 4492 0
64 -4423 4493 0
-4424 4493 0
64 -4424 4494 0
-4425 4494 0
64 -4425 4495 0
-4426 4495 0
64 -4426 4496 0
-4427 4496 0
64 -4427 4497 0
-4428 4497 0
64 -4428 4498 0
-4429 4498 0
64 -4429 0
65 4499 0
-4430 4499 0
65 -4430 4500 0
-4431 4500 0
65 -4431 4501 0
-4432 4501 0
65 -4432 4502 0
-4433 4502 0
65 -4433 4503 0
-4434 4503 0
65 -4434 4504 0
-4435 4504 0
65 -4435 4505 0
-4436 4505 0
65 -4436 4506 0
-4437 4506 0
65 -4437 4507 0
-4438 4507 0
65 -4438 4508 0
-4439 4508 0
65 -4439 4509 0
-4440 4509 0
65 -4440 4510 0
-4441 4510 0
65 -4441 4511 0
-4442 4511 0
65 -4442 4512 0
-4443 4512 0
65 -4443 4513 0
-4444 4513 0
65 -4444 4514 0
-4445 4514 0
65 -4445 4515 0
-4446 4515 0
65 -4446 4516 0
-4447 4516 0
65 -4447 4517 0
-4448 4517 0
65 -4448 4518 0
-4449 4518 0
65 -4449 4519 0
-4450 4519 0
65 -4450 4520 0
-4451 4520 0
65 -4451 4521 0
-4452 4521 0
65 -4452 4522 0
-4453 4522 0
65 -4453 4523 0
-4454 4523 0
65 -4454 4524 0
-4455 4524 0
65 -4455 4525 0
-4456 4525 0
65 -4456 4526 0
-4457 4526 0
65 -4457 4527 0
-4458 4527 0
65 -4458 4528 0
-4459 4528 0
65 -4459 4529 0
-4460 4529 0
65 -4460 4530 0
-4461 4530 0
65 -4461 4531 0
-4462 4531 0
65 -4462 4532 0
-4463 4532 0
65 -4463 4533 0
-4464 4533 0
65 -4464 4534 0
-4465 4534 0
65 -4465 4535 0
-4466 4535 0
65 -4466 4536 0
-4467 4536 0
65 -4467 4537 0
-4468 4537 0
65 -4468 4538 0
-4469 4538 0
65 -4469 4539 0
-4470 4539 0
65 -4470 4540 0
-4471 4540 0
65 -4471 4541 0
-4472 4541 0
65 -4472 4542 0
-4473 4542 0
65 -4473 4543 0
-4474 4543 0
65 -4474 4544 0
-4475 4544 0
65 -4475 4545 0
-4476 4545 0
65 -4476 4546 0
-4477 4546 0
65 -4477 4547 0
-4478 4547 0
65 -4478 4548 0
-4479 4548 0
65 -4479 4549 0
-4480 4549 0
65 -4480 4550 0
-4481 4550 0
65 -4481 4551 0
-4482 4551 0
65 -4482 4552 0
-4483 4552 0
65 -4483 4553 0
-4484 4553 0
65 -4484 4554 0
-4485 4554 0
65 -4485 4555 0
-4486 4555 0
65 -4486 4556 0
-4487 4556 0
65 -4487 4557 0
-4488 4557 0
65 -4488 4558 0
-4489 4558 0
65 -4489 4559 0
-4490 4559 0
65 -4490 4560 0
-4491 4560 0
65 -4491 4561 0
-4492 4561 0
65 -4492 4562 0
-4493 4562 0
65 -4493 4563 0
-4494 4563 0
65 -4494 4564 0
-4495 4564 0
65 -4495 4565 0
-4496 4565 0
65 -4496 4566 0
-4497 4566 0
65 -4497 4567 0
-4498 4567 0
65 -4498 0
66 4568 0
-4499 4568 0
66 -4499 4569 0
-4500 4569 0
66 -4500 4570 0
-4501 4570 0
66 -4501 4571 0
-4502 4571 0
66 -4502 4572 0
-4503 4572 0
66 -4503 4573 0
-4504 4573 0
66 -4504 4574 0
-4505 4574 0
66 -4505 4575 0
-4506 4575 0
66 -4506 4576 0
-4507 4576 0
66 -4507 4577 0
-4508 4577 0
66 -4508 4578 0
-4509 4578 0
66 -4509 4579 0
-4510 4579 0
66 -4510 4580 0
-4511 4580 0
66 -4511 4581 0
-4512 4581 0
66 -4512 4582 0
-4513 4582 0
66 -4513 4583 0
-4514 4583 0
66 -4514 4584 0
-4515 4584 0
66 -4515 4585 0
-4516 4585 0
66 -4516 4586 0
-4517 4586 0
66 -4517 4587 0
-4518 4587 0
66 -4518 4588 0
-4519 4588 0
66 -4519 4589 0
-4520 4589 0
66 -4520 4590 0
-4521 4590 0
66 -4521 4591 0
-4522 4591 0
66 -4522 4592 0
-4523 4592 0
66 -4523 4593 0
-4524 4593 0
66 -4524 4594 0
-4525 4594 0
66 -4525 4595 0
-4526 4595 0
66 -4526 4596 0
-4527 4596 0
66 -4527 4597 0
-4528 4597 0
66 -4528 4598 0
-4529 4598 0
66 -4529 4599 0
-4530 4599 0
66 -4530 4600 0
-4531 4600 0
66 -4531 4601 0
-4532 4601 0
66 -4532 4602 0
-4533 4602 0
66 -4533 4603 0
-4534 4603 0
66 -4534 4604 0
-4535 4604 0
66 -4535 4605 0
-4536 4605 0
66 -4536 4606 0
-4537 4606 0
66 -4537 4607 0
-4538 4607 0
66 -4538 4608 0
-4539 4608 0
66 -4539 4609 0
-4540 4609 0
66 -4540 4610 0
-4541 4610 0
66 -4541 4611 0
-4542 4611 0
66 -4542 4612 0
-4543 4612 0
66 -4543 4613 0
-4544 4613 0
66 -4544 4614 0
-4545 4614 0
66 -4545 4615 0
-4546 4615 0
66 -4546 4616 0
-4547 4616 0
66 -4547 4617 0
-4548 4617 0
66 -4548 4618 0
-4549 4618 0
66 -4549 4619 0
-4550 4619 0
66 -4550 4620 0
-4551 4620 0
66 -4551 4621 0
-4552 4621 0
66 -4552 4622 0
-4553 4622 0
66 -4553 4623 0
-4554 4623 0
66 -4554 4624 0
-4555 4624 0
66 -4555 4625 0
-4556 4625 0
66 -4556 4626 0
-4557 4626 0
66 -4557 4627 0
-4558 4627 0
66 -4558 4628 0
-4559 4628 0
66 -4559 4629 0
-4560 4629 0
66 -4560 4630 0
-4561 4630 0
66 -4561 4631 0
-4562 4631 0
66 -4562 4632 0
-4563 4632 0
66 -4563 4633 0
-4564 4633 0
66 -4564 4634 0
-4565 4634 0
66 -4565 4635 0
-4566 4635 0
66 -4566 4636 0
-4567 4636 0
66 -4567 0
67 4637 0
-4568 4637 0
67 -4568 4638 0
-4569 4638 0
67 -4569 4639 0
-4570 4639 0
67 -4570 4640 0
-4571 4640 0
67 -4571 4641 0
-4572 4641 0
67 -4572 4642 0
-4573 4642 0
67 -4573 4643 0
-4574 4643 0
67 -4574 4644 0
-4575 4644 0
67 -4575 4645 0
-4576 4645 0
67 -4576 4646 0
-4577 4646 0
67 -4577 4647 0
-4578 4647 0
67 -4578 4648 0
-4579 4648 0
67 -4579 4649 0
-4580 4649 0
67 -4580 4650 0
-4581 4650 0
67 -4581 4651 0
-4582 4651 0
67 -4582 4652 0
-4583 4652 0
67 -4583 4653 0
-4584 4653 0
67 -4584 4654 0
-4585 4654 0
67 -4585 4655 0
-4586 4655 0
67 -4586 4656 0
-4587 4656 0
67 -4587 4657 0
-4588 4657 0
67 -4588 4658 0
-4589 4658 0
67 -4589 4659 0
-4590 4659 0
67 -4590 4660 0
-4591 4660 0
67 -4591 4661 0
-4592 4661 0
67 -4592 4662 0
-4593 4662 0
67 -4593 4663 0
-4594 4663 0
67 -4594 4664 0
-4595 4664 0
67 -4595 4665 0
-4596 4665 0
67 -4596 4666 0
-4597 4666 0
67 -4597 4667 0
-4598 4667 0
67 -4598 4668 0
-4599 4668 0
67 -4599 4669 0
-4600 4669 0
67 -4600 4670 0
-4601 4670 0
67 -4601 4671 0
-4602 4671 0
67 -4602 4672 0
-4603 4672 0
67 -4603 4673 0
-4604 4673 0
67 -4604 4674 0
-4605 4674 0
67 -4605 4675 0
-4606 4675 0
67 -4606 4676 0
-4607 4676 0
67 -4607 4677 0
-4608 4677 0
67 -4608 4678 0
-4609 4678 0
67 -4609 4679 0
-4610 4679 0
67 -4610 4680 0
-4611 4680 0
67 -4611 4681 0
-4612 4681 0
67 -4612 4682 0
-4613 4682 0
67 -4613 4683 0
-4614 4683 0
67 -4614 4684 0
-4615 4684 0
67 -4615 4685 0
-4616 4685 0
67 -4616 4686 0
-4617 4686 0
67 -4617 4687 0
-4618 4687 0
67 -4618 4688 0
-4619 4688 0
67 -4619 4689 0
-4620 4689 0
67 -4620 4690 0
-4621 4690 0
67 -4621 4691 0
-4622 4691 0
67 -4622 4692 0
-4623 4692 0
67 -4623 4693 0
-4624 4693 0
67 -4624 4694 0
-4625 4694 0
67 -4625 4695 0
-4626 4695 0
67 -4626 4696 0
-4627 4696 0
67 -4627 4697 0
-4628 4697 0
67 -4628 4698 0
-4629 4698 0
67 -4629 4699 0
-4630 4699 0
67 -4630 4700 0
-4631 4700 0
67 -4631 4701 0
-4632 4701 0
67 -4632 4702 0
-4633 4702 0
67 -4633 4703 0
-4634 4703 0
67 -4634 4704 0
-4635 4704 0
67 -4635 4705 0
-4636 4705 0
67 -4636 0
68 4706 0
-4637 4706 0
68 -4637 4707 0
-4638 4707 0
68 -4638 4708 0
-4639 4708 0
68 -4639 4709 0
-4640 4709 0
68 -4640 4710 0
-4641 4710 0
68 -4641 4711 0
-4642 4711 0
68 -4642 4712 0
-4643 4712 0
68 -4643 4713 0
-4644 4713 0
68 -4644 4714 0
-4645 4714 0
68 -4645 4715 0
-4646 4715 0
68 -4646 4716 0
-4647 4716 0
68 -4647 4717 0
-4648 4717 0
68 -4648 4718 0
-4649 4718 0
68 -4649 4719 0
-4650 4719 0
68 -4650 4720 0
-4651 4720 0
68 -4651 4721 0
-4652 4721 0
68 -4652 4722 0
-4653 4722 0
68 -4653 4723 0
-4654 4723 0
68 -4654 4724 0
-4655 4724 0
68 -4655 4725 0
-4656 4725 0
68 -4656 4726 0
-4657 4726 0
68 -4657 4727 0
-4658 4727 0
68 -4658 4728 0
-4659 4728 0
68 -4659 4729 0
-4660 4729 0
68 -4660 4730 0
-4661 4730 0
68 -4661 4731 0
-4662 4731 0
68 -4662 4732 0
-4663 4732 0
68 -4663 4733 0
-4664 4733 0
68 -4664 4734 0
-4665 4734 0
68 -4665 4735 0
-4666 4735 0
68 -4666 4736 0
-4667 4736 0
68 -4667 4737 0
-4668 4737 0
68 -4668 4738 0
-4669 4738 0
68 -4669 4739 0
-4670 4739 0
68 -4670 4740 0
-4671 4740 0
68 -4671 4741 0
-4672 4741 0
68 -4672 4742 0
-4673 4742 0
68 -4673 4743 0
-4674 4743 0
68 -4674 4744 0
-4675 4744 0
68 -4675 4745 0
-4676 4745 0
68 -4676 4746 0
-4677 4746 0
68 -4677 4747 0
-4678 4747 0
68 -4678 4748 0
-4679 4748 0
68 -4679 4749 0
-4680 4749 0
68 -4680 4750 0
-4681 4750 0
68 -4681 4751 0
-4682 4751 0
68 -4682 4752 0
-4683 4752 0
68 -4683 4753 0
-4684 4753 0
68 -4684 4754 0
-4685 4754 0
68 -4685 4755 0
-4686 4755 0
68 -4686 4756 0
-4687 4756 0
68 -4687 4757 0
-4688 4757 0
68 -4688 4758 0
-4689 4758 0
68 -4689 4759 0
-4690 4759 0
68 -4690 4760 0
-4691 4760 0
68 -4691 4761 0
-4692 4761 0
68 -4692 4762 0
-4693 4762 0
68 -4693 4763 0
-4694 4763 0
68 -4694 4764 0
-4695 4764 0
68 -4695 4765 0
-4696 4765 0
68 -4696 4766 0
-4697 4766 0
68 -4697 4767 0
-4698 4767 0
68 -4698 4768 0
-4699 4768 0
68 -4699 4769 0
-4700 4769 0
68 -4700 4770 0
-4701 4770 0
68 -4701 4771 0
-4702 4771 0
68 -4702 4772 0
-4703 4772 0
68 -4703 4773 0
-4704 4773 0
68 -4704 4774 0
-4705 4774 0
68 -4705 0
69 4775 0
-4706 4775 0
69 -4706 4776 0
-4707 4776 0
69 -4707 4777 0
-4708 4777 0
69 -4708 4778 0
-4709 4778 0
69 -4709 4779 0
-4710 4779 0
69 -4710 4780 0
-4711 4780 0
69 -4711 4781 0
-4712 4781 0
69 -4712 4782 0
-4713 4782 0
69 -4713 4783 0
-4714 4783 0
69 -4714 4784 0
-4715 4784 0
69 -4715 4785 0
-4716 4785 0
69 -4716 4786 0
-4717 4786 0
69 -4717 4787 0
-4718 4787 0
69 -4718 4788 0
-4719 4788 0
69 -4719 4789 0
-4720 4789 0
69 -4720 4790 0
-4721 4790 0
69 -4721 4791 0
-4722 4791 0
69 -4722 4792 0
-4723 4792 0
69 -4723 4793 0
-4724 4793 0
69 -4724 4794 0
-4725 4794 0
69 -4725 4795 0
-4726 4795 0
69 -4726 4796 0
-4727 4796 0
69 -4727 4797 0
-4728 4797 0
69 -4728 4798 0
-4729 4798 0
69 -4729 4799 0
-4730 4799 0
69 -4730 4800 0
-4731 4800 0
69 -4731 4801 0
-4732 4801 0
69 -4732 4802 0
-4733 4802 0
69 -4733 4803 0
-4734 4803 0
69 -4734 4804 0
-4735 4804 0
69 -4735 4805 0
-4736 4805 0
69 -4736 4806 0
-4737 4806 0
69 -4737 4807 0
-4738 4807 0
69 -4738 4808 0
-4739 4808 0
69 -4739 4809 0
-4740 4809 0
69 -4740 4810 0
-4741 4810 0
69 -4741 4811 0
-4742 4811 0
69 -4742 4812 0
-4743 4812 0
69 -4743 4813 0
-4744 4813 0
69 -4744 4814 0
-4745 4814 0
69 -4745 4815 0
-4746 4815 0
69 -4746 4816 0
-4747 4816 0
69 -4747 4817 0
-4748 4817 0
69 -4748 4818 0
-4749 4818 0
69 -4749 4819 0
-4750 4819 0
69 -4750 4820 0
-4751 4820 0
69 -4751 4821 0
-4752 4821 0
69 -4752 4822 0
-4753 4822 0
69 -4753 4823 0
-4754 4823 0
69 -4754 4824 0
-4755 4824 0
69 -4755 4825 0
-4756 4825 0
69 -4756 4826 0
-4757 4826 0
69 -4757 4827 0
-4758 4827 0
69 -4758 4828 0
-4759 4828 0
69 -4759 4829 0
-4760 4829 0
69 -4760 4830 0
-4761 4830 0
69 -4761 4831 0
-4762 4831 0
69 -4762 4832 0
-4763 4832 0
69 -4763 4833 0
-4764 4833 0
69 -4764 4834 0
-4765 4834 0
69 -4765 4835 0
-4766 4835 0
69 -4766 4836 0
-4767 4836 0
69 -4767 4837 0
-4768 4837 0
69 -4768 4838 0
-4769 4838 0
69 -4769 4839 0
-4770 4839 0
69 -4770 4840 0
-4771 4840 0
69 -4771 4841 0
-4772 4841 0
69 -4772 4842 0
-4773 4842 0
69 -4773 4843 0
-4774 4843 0
69 -4774 0
70 4844 0
-4775 4844 0
70 -4775 4845 0
-4776 4845 0
70 -4776 4846 0
-4777 4846 0
70 -4777 4847 0
-4778 4847 0
70 -4778 4848 0
-4779 4848 0
70 -4779 4849 0
-4780 4849 0
70 -4780 4850 0
-4781 4850 0
70 -4781 4851 0
-4782 4851 0
70 -4782 4852 0
-4783 4852 0
70 -4783 4853 0
-4784 4853 0
70 -4784 4854 0
-4785 4854 0
70 -4785 4855 0
-4786 4855 0
70 -4786 4856 0
-4787 4856 0
70 -4787 4857 0
-4788 4857 0
70 -4788 4858 0
-4789 4858 0
70 -4789 4859 0
-4790 4859 0
70 -4790 4860 0
-4791 4860 0
70 -4791 4861 0
-4792 4861 0
70 -4792 4862 0
-4793 4862 0
70 -4793 4863 0
-4794 4863 0
70 -4794 4864 0
-4795 4864 0
70 -4795 4865 0
-4796 4865 0
70 -4796 4866 0
-4797 4866 0
70 -4797 4867 0
-4798 4867 0
70 -4798 4868 0
-4799 4868 0
70 -4799 4869 0
-4800 4869 0
70 -4800 4870 0
-4801 4870 0
70 -4801 4871 0
-4802 4871 0
70 -4802 4872 0
-4803 4872 0
70 -4803 4873 0
-4804 4873 0
70 -4804 4874 0
-4805 4874 0
70 -4805 4875 0
-4806 4875 0
70 -4806 4876 0
-4807 4876 0
70 -4807 4877 0
-4808 4877 0
70 -4808 4878 0
-4809 4878 0
70 -4809 4879 0
-4810 4879 0
70 -4810 4880 0
-4811 4880 0
70 -4811 4881 0
-4812 4881 0
70 -4812 4882 0
-4813 4882 0
70 -4813 4883 0
-4814 4883 0
70 -4814 4884 0
-4815 4884 0
70 -4815 4885 0
-4816 4885 0
70 -4816 4886 0
-4817 4886 0
70 -4817 4887 0
-4818 4887 0
70 -4818 4888 0
-4819 4888 0
70 -4819 4889 0
-4820 4889 0
70 -4820 4890 0
-4821 4890 0
70 -4821 4891 0
-4822 4891 0
70 -4822 4892 0
-4823 4892 0
70 -4823 4893 0
-4824 4893 0
70 -4824 4894 0
-4825 4894 0
70 -4825 4895 0
-4826 4895 0
70 -4826 4896 0
-4827 4896 0
70 -4827 4897 0
-4828 4897 0
70 -4828 4898 0
-4829 4898 0
70 -4829 4899 0
-4830 4899 0
70 -4830 4900 0
-4831 4900 0
70 -4831 4901 0
-4832 4901 0
70 -4832 4902 0
-4833 4902 0
70 -4833 4903 0
-4834 4903 0
70 -4834 4904 0
-4835 4904 0
70 -4835 4905 0
-4836 4905 0
70 -4836 4906 0
-4837 4906 0
70 -4837 4907 0
-4838 4907 0
70 -4838 4908 0
-4839 4908 0
70 -4839 4909 0
-4840 4909 0
70 -4840 4910 0
-4841 4910 0
70 -4841 4911 0
-4842 4911 0
70 -4842 4912 0
-4843 4912 0
70 -4843 0
71 4913 0
-4844 4913 0
71 -4844 4914 0
-4845 4914 0
71 -4845 4915 0
-4846 4915 0
71 -4846 4916 0
-4847 4916 0
71 -4847 4917 0
-4848 4917 0
71 -4848 4918 0
-4849 4918 0
71 -4849 4919 0
-4850 4919 0
71 -4850 4920 0
-4851 4920 0
71 -4851 4921 0
-4852 4921 0
71 -4852 4922 0
-4853 4922 0
71 -4853 4923 0
-4854 4923 0
71 -4854 4924 0
-4855 4924 0
71 -4855 4925 0
-4856 4925 0
71 -4856 4926 0
-4857 4926 0
71 -4857 4927 0
-4858 4927 0
71 -4858 4928 0
-4859 4928 0
71 -4859 4929 0
-4860 4929 0
71 -4860 4930 0
-4861 4930 0
71 -4861 4931 0
-4862 4931 0
71 -4862 4932 0
-4863 4932 0
71 -4863 4933 0
-4864 4933 0
71 -4864 4934 0
-4865 4934 0
71 -4865 4935 0
-4866 4935 0
71 -4866 4936 0
-4867 4936 0
71 -4867 4937 0
-4868 4937 0
71 -4868 4938 0
-4869 4938 0
71 -4869 4939 0
-4870 4939 0
71 -4870 4940 0
-4871 4940 0
71 -4871 4941 0
-4872 4941 0
71 -4872 4942 0
-4873 4942 0
71 -4873 4943 0
-4874 4943 0
71 -4874 4944 0
-4875 4944 0
71 -4875 4945 0
-4876 4945 0
71 -4876 4946 0
-4877 4946 0
71 -4877 4947 0
-4878 4947 0
71 -4878 4948 0
-4879 4948 0
71 -4879 4949 0
-4880 4949 0
71 -4880 4950 0
-4881 4950 0
71 -4881 4951 0
-4882 4951 0
71 -4882 4952 0
-4883 4952 0
71 -4883 4953 0
-4884 4953 0
71 -4884 4954 0
-4885 4954 0
71 -4885 4955 0
-4886 4955 0
71 -4886 4956 0
-4887 4956 0
71 -4887 4957 0
-4888 4957 0
71 -4888 4958 0
-4889 4958 0
71 -4889 4959 0
-4890 4959 0
71 -4890 4960 0
-4891 4960 0
71 -4891 4961 0
-4892 4961 0
71 -4892 4962 0
-4893 4962 0
71 -4893 4963 0
-4894 4963 0
71 -4894 4964 0
-4895 4964 0
71 -4895 4965 0
-4896 4965 0
71 -4896 4966 0
-4897 4966 0
71 -4897 4967 0
-4898 4967 0
71 -4898 4968 0
-4899 4968 0
71 -4899 4969 0
-4900 4969 0
71 -4900 4970 0
-4901 4970 0
71 -4901 4971 0
-4902 4971 0
71 -4902 4972 0
-4903 4972 0
71 -4903 4973 0
-4904 4973 0
71 -4904 4974 0
-4905 4974 0
71 -4905 4975 0
-4906 4975 0
71 -4906 4976 0
-4907 4976 0
71 -4907 4977 0
-4908 4977 0
71 -4908 4978 0
-4909 4978 0
71 -4909 4979 0
-4910 4979 0
71 -4910 4980 0
-4911 4980 0
71 -4911 4981 0
-4912 4981 0
71 -4912 0
72 4982 0
-4913 4982 0
72 -4913 4983 0
-4914 4983 0
72 -4914 4984 0
-4915 4984 0
72 -4915 4985 0
-4916 4985 0
72 -4916 4986 0
-4917 4986 0
72 -4917 4987 0
-4918 4987 0
72 -4918 4988 0
-4919 4988 0
72 -4919 4989 0
-4920 4989 0
72 -4920 4990 0
-4921 4990 0
72 -4921 4991 0
-4922 4991 0
72 -4922 4992 0
-4923 4992 0
72 -4923 4993 0
-4924 4993 0
72 -4924 4994 0
-4925 4994 0
72 -4925 4995 0
-4926 4995 0
72 -4926 4996 0
-4927 4996 0
72 -4927 4997 0
-4928 4997 0
72 -4928 4998 0
-4929 4998 0
72 -4929 4999 0
-4930 4999 0
72 -4930 5000 0
-4931 5000 0
72 -4931 5001 0
-4932 5001 0
72 -4932 5002 0
-4933 5002 0
72 -4933 5003 0
-4934 5003 0
72 -4934 5004 0
-4935 5004 0
72 -4935 5005 0
-4936 5005 0
72 -4936 5006 0
-4937 5006 0
72 -4937 5007 0
-4938 5007 0
72 -4938 5008 0
-4939 5008 0
72 -4939 5009 0
-4940 5009 0
72 -4940 5010 0
-4941 5010 0
72 -4941 5011 0
-4942 5011 0
72 -4942 5012 0
-4943 5012 0
72 -4943 5013 0
-4944 5013 0
72 -4944 5014 0
-4945 5014 0
72 -4945 5015 0
-4946 5015 0
72 -4946 5016 0
-4947 5016 0
72 -4947 5017 0
-4948 5017 0
72 -4948 5018 0
-4949 5018 0
72 -4949 5019 0
-4950 5019 0
72 -4950 5020 0
-4951 5020 0
72 -4951 5021 0
-4952 5021 0
72 -4952 5022 0
-4953 5022 0
72 -4953 5023 0
-4954 5023 0
72 -4954 5024 0
-4955 5024 0
72 -4955 5025 0
-4956 5025 0
72 -4956 5026 0
-4957 5026 0
72 -4957 5027 0
-4958 5027 0
72 -4958 5028 0
-4959 5028 0
72 -4959 5029 0
-4960 5029 0
72 -4960 5030 0
-4961 5030 0
72 -4961 5031 0
-4962 5031 0
72 -4962 5032 0
-4963 5032 0
72 -4963 5033 0
-4964 5033 0
72 -4964 5034 0
-4965 5034 0
72 -4965 5035 0
-4966 5035 0
72 -4966 5036 0
-4967 5036 0
72 -4967 5037 0
-4968 5037 0
72 -4968 5038 0
-4969 5038 0
72 -4969 5039 0
-4970 5039 0
72 -4970 5040 0
-4971 5040 0
72 -4971 5041 0
-4972 5041 0
72 -4972 5042 0
-4973 5042 0
72 -4973 5043 0
-4974 5043 0
72 -4974 5044 0
-4975 5044 0
72 -4975 5045 0
-4976 5045 0
72 -4976 5046 0
-4977 5046 0
72 -4977 5047 0
-4978 5047 0
72 -4978 5048 0
-4979 5048 0
72 -4979 5049 0
-4980 5049 0
72 -4980 5050 0
-4981 5050 0
72 -4981 0
73 5051 0
-4982 5051 0
73 -4982 5052 0
-4983 5052 0
73 -4983 5053 0
-4984 5053 0
73 -4984 5054 0
-4985 5054 0
73 -4985 5055 0
-4986 5055 0
73 -4986 5056 0
-4987 5056 0
73 -4987 5057 0
-4988 5057 0
73 -4988 5058 0
-4989 5058 0
73 -4989 5059 0
-4990 5059 0
73 -4990 5060 0
-4991 5060 0
73 -4991 5061 0
-4992 5061 0
73 -4992 5062 0
-4993 5062 0
73 -4993 5063 0
-4994 5063 0
73 -4994 5064 0
-4995 5064 0
73 -4995 5065 0
-4996 5065 0
73 -4996 5066 0
-4997 5066 0
73 -4997 5067 0
-4998 5067 0
73 -4998 5068 0
-4999 5068 0
73 -4999 5069 0
-5000 5069 0
73 -5000 5070 0
-5001 5070 0
73 -5001 5071 0
-5002 5071 0
73 -5002 5072 0
-5003 5072 0
73 -5003 5073 0
-5004 5073 0
73 -5004 5074 0
-5005 5074 0
73 -5005 5075 0
-5006 5075 0
73 -5006 5076 0
-5007 5076 0
73 -5007 5077 0
-5008 5077 0
73 -5008 5078 0
-5009 5078 0
73 -5009 5079 0
-5010 5079 0
73 -5010 5080 0
-5011 5080 0
73 -5011 5081 0
-5012 5081 0
73 -5012 5082 0
-5013 5082 0
73 -5013 5083 0
-5014 5083 0
73 -5014 5084 0
-5015 5084 0
73 -5015 5085 0
-5016 5085 0
73 -5016 5086 0
-5017 5086 0
73 -5017 5087 0
-5018 5087 0
73 -5018 5088 0
-5019 5088 0
73 -5019 5089 0
-5020 5089 0
73 -5020 5090 0
-5021 5090 0
73 -5021 5091 0
-5022 5091 0
73 -5022 5092 0
-5023 5092 0
73 -5023 5093 0
-5024 5093 0
73 -5024 5094 0
-5025 5094 0
73 -5025 5095 0
-5026 5095 0
73 -5026 5096 0
-5027 5096 0
73 -5027 5097 0
-5028 5097 0
73 -5028 5098 0
-5029 5098 0
73 -5029 5099 0
-5030 5099 0
73 -5030 5100 0
-5031 5100 0
73 -5031 5101 0
-5032 5101 0
73 -5032 5102 0
-5033 5102 0
73 -5033 5103 0
-5034 5103 0
73 -5034 5104 0
-5035 5104 0
73 -5035 5105 0
-5036 5105 0
73 -5036 5106 0
-5037 5106 0
73 -5037 5107 0
-5038 5107 0
73 -5038 5108 0
-5039 5108 0
73 -5039 5109 0
-5040 5109 0
73 -5040 5110 0
-5041 5110 0
73 -5041 5111 0
-5042 5111 0
73 -5042 5112 0
-5043 5112 0
73 -5043 5113 0
-5044 5113 0
73 -5044 5114 0
-5045 5114 0
73 -5045 5115 0
-5046 5115 0
73 -5046 5116 0
-5047 5116 0
73 -5047 5117 0
-5048 5117 0
73 -5048 5118 0
-5049 5118 0
73 -5049 5119 0
-5050 5119 0
73 -5050 0
74 5120 0
-5051 5120 0
74 -5051 5121 0
-5052 5121 0
74 -5052 5122 0
-5053 5122 0
74 -5053 5123 0
-5054 5123 0
74 -5054 5124 0
-5055 5124 0
74 -5055 5125 0
-5056 5125 0
74 -5056 5126 0
-5057 5126 0
74 -5057 5127 0
-5058 5127 0
74 -5058 5128 0
-5059 5128 0
74 -5059 5129 0
-5060 5129 0
74 -5060 5130 0
-5061 5130 0
74 -5061 5131 0
-5062 5131 0
74 -5062 5132 0
-5063 5132 0
74 -5063 5133 0
-5064 5133 0
74 -5064 5134 0
-5065 5134 0
74 -5065 5135 0
-5066 5135 0
74 -5066 5136 0
-5067 5136 0
74 -5067 5137 0
-5068 5137 0
74 -5068 5138 0
-5069 5138 0
74 -5069 5139 0
-5070 5139 0
74 -5070 5140 0
-5071 5140 0
74 -5071 5141 0
-5072 5141 0
74 -5072 5142 0
-5073 5142 0
74 -5073 5143 0
-5074 5143 0
74 -5074 5144 0
-5075 5144 0
74 -5075 5145 0
-5076 5145 0
74 -5076 5146 0
-5077 5146 0
74 -5077 5147 0
-5078 5147 0
74 -5078 5148 0
-5079 5148 0
74 -5079 5149 0
-5080 5149 0
74 -5080 5150 0
-5081 5150 0
74 -5081 5151 0
-5082 5151 0
74 -5082 5152 0
-5083 5152 0
74 -5083 5153 0
-5084 5153 0
74 -5084 5154 0
-5085 5154 0
74 -5085 5155 0
-5086 5155 0
74 -5086 5156 0
-5087 5156 0
74 -5087 5157 0
-5088 5157 0
74 -5088 5158 0
-5089 5158 0
74 -5089 5159 0
-5090 5159 0
74 -5090 5160 0
-5091 5160 0
74 -5091 5161 0
-5092 5161 0
74 -5092 5162 0
-5093 5162 0
74 -5093 5163 0
-5094 5163 0
74 -5094 5164 0
-5095 5164 0
74 -5095 5165 0
-5096 5165 0
74 -5096 5166 0
-5097 5166 0
74 -5097 5167 0
-5098 5167 0
74 -5098 5168 0
-5099 5168 0
74 -5099 5169 0
-5100 5169 0
74 -5100 5170 0
-5101 5170 0
74 -5101 5171 0
-5102 5171 0
74 -5102 5172 0
-5103 5172 0
74 -5103 5173 0
-5104 5173 0
74 -5104 5174 0
-5105 5174 0
74 -5105 5175 0
-5106 5175 0
74 -5106 5176 0
-5107 5176 0
74 -5107 5177 0
-5108 5177 0
74 -5108 5178 0
-5109 5178 0
74 -5109 5179 0
-5110 5179 0
74 -5110 5180 0
-5111 5180 0
74 -5111 5181 0
-5112 5181 0
74 -5112 5182 0
-5113 5182 0
74 -5113 5183 0
-5114 5183 0
74 -5114 5184 0
-5115 5184 0
74 -5115 5185 0
-5116 5185 0
74 -5116 5186 0
-5117 5186 0
74 -5117 5187 0
-5118 5187 0
74 -5118 5188 0
-5119 5188 0
74 -5119 0
75 5189 0
-5120 5189 0
75 -5120 5190 0
-5121 5190 0
75 -5121 5191 0
-5122 5191 0
75 -5122 5192 0
-5123 5192 0
75 -5123 5193 0
-5124 5193 0
75 -5124 5194 0
-5125 5194 0
75 -5125 5195 0
-5126 5195 0
75 -5126 5196 0
-5127 5196 0
75 -5127 5197 0
-5128 5197 0
75 -5128 5198 0
-5129 5198 0
75 -5129 5199 0
-5130 5199 0
75 -5130 5200 0
-5131 5200 0
75 -5131 5201 0
-5132 5201 0
75 -5132 5202 0
-5133 5202 0
75 -5133 5203 0
-5134 5203 0
75 -5134 5204 0
-5135 5204 0
75 -5135 5205 0
-5136 5205 0
75 -5136 5206 0
-5137 5206 0
75 -5137 5207 0
-5138 5207 0
75 -5138 5208 0
-5139 5208 0
75 -5139 5209 0
-5140 5209 0
75 -5140 5210 0
-5141 5210 0
75 -5141 5211 0
-5142 5211 0
75 -5142 5212 0
-5143 5212 0
75 -5143 5213 0
-5144 5213 0
75 -5144 5214 0
-5145 5214 0
75 -5145 5215 0
-5146 5215 0
75 -5146 5216 0
-5147 5216 0
75 -5147 5217 0
-5148 5217 0
75 -5148 5218 0
-5149 5218 0
75 -5149 5219 0
-5150 5219 0
75 -5150 5220 0
-5151 5220 0
75 -5151 5221 0
-5152 5221 0
75 -5152 5222 0
-5153 5222 0
75 -5153 5223 0
-5154 5223 0
75 -5154 5224 0
-5155 5224 0
75 -5155 5225 0
-5156 5225 0
75 -5156 5226 0
-5157 5226 0
75 -5157 5227 0
-5158 5227 0
75 -5158 5228 0
-5159 5228 0
75 -5159 5229 0
-5160 5229 0
75 -5160 5230 0
-5161 5230 0
75 -5161 5231 0
-5162 5231 0
75 -5162 5232 0
-5163 5232 0
75 -5163 5233 0
-5164 5233 0
75 -5164 5234 0
-5165 5234 0
75 -5165 5235 0
-5166 5235 0
75 -5166 5236 0
-5167 5236 0
75 -5167 5237 0
-5168 5237 0
75 -5168 5238 0
-5169 5238 0
75 -5169 5239 0
-5170 5239 0
75 -5170 5240 0
-5171 5240 0
75 -5171 5241 0
-5172 5241 0
75 -5172 5242 0
-5173 5242 0
75 -5173 5243 0
-5174 5243 0
75 -5174 5244 0
-5175 5244 0
75 -5175 5245 0
-5176 5245 0
75 -5176 5246 0
-5177 5246 0
75 -5177 5247 0
-5178 5247 0
75 -5178 5248 0
-5179 5248 0
75 -5179 5249 0
-5180 5249 0
75 -5180 5250 0
-5181 5250 0
75 -5181 5251 0
-5182 5251 0
75 -5182 5252 0
-5183 5252 0
75 -5183 5253 0
-5184 5253 0
75 -5184 5254 0
-5185 5254 0
75 -5185 5255 0
-5186 5255 0
75 -5186 5256 0
-5187 5256 0
75 -5187 5257 0
-5188 5257 0
75 -5188 0
76 5258 0
-5189 5258 0
76 -5189 5259 0
-5190 5259 0
76 -5190 5260 0
-5191 5260 0
76 -5191 5261 0
-5192 5261 0
76 -5192 5262 0
-5193 5262 0
76 -5193 5263 0
-5194 5263 0
76 -5194 5264 0
-5195 5264 0
76 -5195 5265 0
-5196 5265 0
76 -5196 5266 0
-5197 5266 0
76 -5197 5267 0
-5198 5267 0
76 -5198 5268 0
-5199 5268 0
76 -5199 5269 0
-5200 5269 0
76 -5200 5270 0
-5201 5270 0
76 -5201 5271 0
-5202 5271 0
76 -5202 5272 0
-5203 5272 0
76 -5203 5273 0
-5204 5273 0
76 -5204 5274 0
-5205 5274 0
76 -5205 5275 0
-5206 5275 0
76 -5206 5276 0
-5207 5276 0
76 -5207 5277 0
-5208 5277 0
76 -5208 5278 0
-5209 5278 0
76 -5209 5279 0
-5210 5279 0
76 -5210 5280 0
-5211 5280 0
76 -5211 5281 0
-5212 5281 0
76 -5212 5282 0
-5213 5282 0
76 -5213 5283 0
-5214 5283 0
76 -5214 5284 0
-5215 5284 0
76 -5215 5285 0
-5216 5285 0
76 -5216 5286 0
-5217 5286 0
76 -5217 5287 0
-5218 5287 0
76 -5218 5288 0
-5219 5288 0
76 -5219 5289 0
-5220 5289 0
76 -5220 5290 0
-5221 5290 0
76 -5221 5291 0
-5222 5291 0
76 -5222 5292 0
-5223 5292 0
76 -5223 5293 0
-5224 5293 0
76 -5224 5294 0
-5225 5294 0
76 -5225 5295 0
-5226 5295 0
76 -5226 5296 0
-5227 5296 0
76 -5227 5297 0
-5228 5297 0
76 -5228 5298 0
-5229 5298 0
76 -5229 5299 0
-5230 5299 0
76 -5230 5300 0
-5231 5300 0
76 -5231 5301 0
-5232 5301 0
76 -5232 5302 0
-5233 5302 0
76 -5233 5303 0
-5234 5303 0
76 -5234 5304 0
-5235 5304 0
76 -5235 5305 0
-5236 5305 0
76 -5236 5306 0
-5237 5306 0
76 -5237 5307 0
-5238 5307 0
76 -5238 5308 0
-5239 5308 0
76 -5239 5309 0
-5240 5309 0
76 -5240 5310 0
-5241 5310 0
76 -5241 5311 0
-5242 5311 0
76 -5242 5312 0
-5243 5312 0
76 -5243 5313 0
-5244 5313 0
76 -5244 5314 0
-5245 5314 0
76 -5245 5315 0
-5246 5315 0
76 -5246 5316 0
-5247 5316 0
76 -5247 5317 0
-5248 5317 0
76 -5248 5318 0
-5249 5318 0
76 -5249 5319 0
-5250 5319 0
76 -5250 5320 0
-5251 5320 0
76 -5251 5321 0
-5252 5321 0
76 -5252 5322 0
-5253 5322 0
76 -5253 5323 0
-5254 5323 0
76 -5254 5324 0
-5255 5324 0
76 -5255 5325 0
-5256 5325 0
76 -5256 5326 0
-5257 5326 0
76 -5257 0
77 5327 0
-5258 5327 0
77 -5258 5328 0
-5259 5328 0
77 -5259 5329 0
-5260 5329 0
77 -5260 5330 0
-5261 5330 0
77 -5261 5331 0
-5262 5331 0
77 -5262 5332 0
-5263 5332 0
77 -5263 5333 0
-5264 5333 0
77 -5264 5334 0
-5265 5334 0
77 -5265 5335 0
-5266 5335 0
77 -5266 5336 0
-5267 5336 0
77 -5267 5337 0
-5268 5337 0
77 -5268 5338 0
-5269 5338 0
77 -5269 5339 0
-5270 5339 0
77 -5270 5340 0
-5271 5340 0
77 -5271 5341 0
-5272 5341 0
77 -5272 5342 0
-5273 5342 0
77 -5273 5343 0
-5274 5343 0
77 -5274 5344 0
-5275 5344 0
77 -5275 5345 0
-5276 5345 0
77 -5276 5346 0
-5277 5346 0
77 -5277 5347 0
-5278 5347 0
77 -5278 5348 0
-5279 5348 0
77 -5279 5349 0
-5280 5349 0
77 -5280 5350 0
-5281 5350 0
77 -5281 5351 0
-5282 5351 0
77 -5282 5352 0
-5283 5352 0
77 -5283 5353 0
-5284 5353 0
77 -5284 5354 0
-5285 5354 0
77 -5285 5355 0
-5286 5355 0
77 -5286 5356 0
-5287 5356 0
77 -5287 5357 0
-5288 5357 0
77 -5288 5358 0
-5289 5358 0
77 -5289 5359 0
-5290 5359 0
77 -5290 5360 0
-5291 5360 0
77 -5291 5361 0
-5292 5361 0
77 -5292 5362 0
-5293 5362 0
77 -5293 5363 0
-5294 5363 0
77 -5294 5364 0
-5295 5364 0
77 -5295 5365 0
-5296 5365 0
77 -5296 5366 0
-5297 5366 0
77 -5297 5367 0
-5298 5367 0
77 -5298 5368 0
-5299 5368 0
77 -5299 5369 0
-5300 5369 0
77 -5300 5370 0
-5301 5370 0
77 -5301 5371 0
-5302 5371 0
77 -5302 5372 0
-5303 5372 0
77 -5303 5373 0
-5304 5373 0
77 -5304 5374 0
-5305 5374 0
77 -5305 5375 0
-5306 5375 0
77 -5306 5376 0
-5307 5376 0
77 -5307 5377 0
-5308 5377 0
77 -5308 5378 0
-5309 5378 0
77 -5309 5379 0
-5310 5379 0
77 -5310 5380 0
-5311 5380 0
77 -5311 5381 0
-5312 5381 0
77 -5312 5382 0
-5313 5382 0
77 -5313 5383 0
-5314 5383 0
77 -5314 5384 0
-5315 5384 0
77 -5315 5385 0
-5316 5385 0
77 -5316 5386 0
-5317 5386 0
77 -5317 5387 0
-5318 5387 0
77 -5318 5388 0
-5319 5388 0
77 -5319 5389 0
-5320 5389 0
77 -5320 5390 0
-5321 5390 0
77 -5321 5391 0
-5322 5391 0
77 -5322 5392 0
-5323 5392 0
77 -5323 5393 0
-5324 5393 0
77 -5324 5394 0
-5325 5394 0
77 -5325 5395 0
-5326 5395 0
77 -5326 0
78 5396 0
-5327 5396 0
78 -5327 5397 0
-5328 5397 0
78 -5328 5398 0
-5329 5398 0
78 -5329 5399 0
-5330 5399 0
78 -5330 5400 0
-5331 5400 0
78 -5331 5401 0
-5332 5401 0
78 -5332 5402 0
-5333 5402 0
78 -5333 5403 0
-5334 5403 0
78 -5334 5404 0
-5335 5404 0
78 -5335 5405 0
-5336 5405 0
78 -5336 5406 0
-5337 5406 0
78 -5337 5407 0
-5338 5407 0
78 -5338 5408 0
-5339 5408 0
78 -5339 5409 0
-5340 5409 0
78 -5340 5410 0
-5341 5410 0
78 -5341 5411 0
-5342 5411 0
78 -5342 5412 0
-5343 5412 0
78 -5343 5413 0
-5344 5413 0
78 -5344 5414 0
-5345 5414 0
78 -5345 5415 0
-5346 5415 0
78 -5346 5416 0
-5347 5416 0
78 -5347 5417 0
-5348 5417 0
78 -5348 5418 0
-5349 5418 0
78 -5349 5419 0
-5350 5419 0
78 -5350 5420 0
-5351 5420 0
78 -5351 5421 0
-5352 5421 0
78 -5352 5422 0
-5353 5422 0
78 -5353 5423 0
-5354 5423 0
78 -5354 5424 0
-5355 5424 0
78 -5355 5425 0
-5356 5425 0
78 -5356 5426 0
-5357 5426 0
78 -5357 5427 0
-5358 5427 0
78 -5358 5428 0
-5359 5428 0
78 -5359 5429 0
-5360 5429 0
78 -5360 5430 0
-5361 5430 0
78 -5361 5431 0
-5362 5431 0
78 -5362 5432 0
-5363 5432 0
78 -5363 5433 0
-5364 5433 0
78 -5364 5434 0
-5365 5434 0
78 -5365 5435 0
-5366 5435 0
78 -5366 5436 0
-5367 5436 0
78 -5367 5437 0
-5368 5437 0
78 -5368 5438 0
-5369 5438 0
78 -5369 5439 0
-5370 5439 0
78 -5370 5440 0
-5371 5440 0
78 -5371 5441 0
-5372 5441 0
78 -5372 5442 0
-5373 5442 0
78 -5373 5443 0
-5374 5443 0
78 -5374 5444 0
-5375 5444 0
78 -5375 5445 0
-5376 5445 0
78 -5376 5446 0
-5377 5446 0
78 -5377 5447 0
-5378 5447 0
78 -5378 5448 0
-5379 5448 0
78 -5379 5449 0
-5380 5449 0
78 -5380 5450 0
-5381 5450 0
78 -5381 5451 0
-5382 5451 0
78 -5382 5452 0
-5383 5452 0
78 -5383 5453 0
-5384 5453 0
78 -5384 5454 0
-5385 5454 0
78 -5385 5455 0
-5386 5455 0
78 -5386 5456 0
-5387 5456 0
78 -5387 5457 0
-5388 5457 0
78 -5388 5458 0
-5389 5458 0
78 -5389 5459 0
-5390 5459 0
78 -5390 5460 0
-5391 5460 0
78 -5391 5461 0
-5392 5461 0
78 -5392 5462 0
-5393 5462 0
78 -5393 5463 0
-5394 5463 0
78 -5394 5464 0
-5395 5464 0
78 -5395 0
79 5465 0
-5396 5465 0
79 -5396 5466 0
-5397 5466 0
79 -5397 5467 0
-5398 5467 0
79 -5398 5468 0
-5399 5468 0
79 -5399 5469 0
-5400 5469 0
79 -5400 5470 0
-5401 5470 0
79 -5401 5471 0
-5402 5471 0
79 -5402 5472 0
-5403 5472 0
79 -5403 5473 0
-5404 5473 0
79 -5404 5474 0
-5405 5474 0
79 -5405 5475 0
-5406 5475 0
79 -5406 5476 0
-5407 5476 0
79 -5407 5477 0
-5408 5477 0
79 -5408 5478 0
-5409 5478 0
79 -5409 5479 0
-5410 5479 0
79 -5410 5480 0
-5411 5480 0
79 -5411 5481 0
-5412 5481 0
79 -5412 5482 0
-5413 5482 0
79 -5413 5483 0
-5414 5483 0
79 -5414 5484 0
-5415 5484 0
79 -5415 5485 0
-5416 5485 0
79 -5416 5486 0
-5417 5486 0
79 -5417 5487 0
-5418 5487 0
79 -5418 5488 0
-5419 5488 0
79 -5419 5489 0
-5420 5489 0
79 -5420 5490 0
-5421 5490 0
79 -5421 5491 0
-5422 5491 0
79 -5422 5492 0
-5423 5492 0
79 -5423 5493 0
-5424 5493 0
79 -5424 5494 0
-5425 5494 0
79 -5425 5495 0
-5426 5495 0
79 -5426 5496 0
-5427 5496 0
79 -5427 5497 0
-5428 5497 0
79 -5428 5498 0
-5429 5498 0
79 -5429 5499 0
-5430 5499 0
79 -5430 5500 0
-5431 5500 0
79 -5431 5501 0
-5432 5501 0
79 -5432 5502 0
-5433 5502 0
79 -5433 5503 0
-5434 5503 0
79 -5434 5504 0
-5435 5504 0
79 -5435 5505 0
-5436 5505 0
79 -5436 5506 0
-5437 5506 0
79 -5437 5507 0
-5438 5507 0
79 -5438 5508 0
-5439 5508 0
79 -5439 5509 0
-5440 5509 0
79 -5440 5510 0
-5441 5510 0
79 -5441 5511 0
-5442 5511 0
79 -5442 5512 0
-5443 5512 0
79 -5443 5513 0
-5444 5513 0
79 -5444 5514 0
-5445 5514 0
79 -5445 5515 0
-5446 5515 0
79 -5446 5516 0
-5447 5516 0
79 -5447 5517 0
-5448 5517 0
79 -5448 5518 0
-5449 5518 0
79 -5449 5519 0
-5450 5519 0
79 -5450 5520 0
-5451 5520 0
79 -5451 5521 0
-5452 5521 0
79 -5452 5522 0
-5453 5522 0
79 -5453 5523 0
-5454 5523 0
79 -5454 5524 0
-5455 5524 0
79 -5455 5525 0
-5456 5525 0
79 -5456 5526 0
-5457 5526 0
79 -5457 5527 0
-5458 5527 0
79 -5458 5528 0
-5459 5528 0
79 -5459 5529 0
-5460 5529 0
79 -5460 5530 0
-5461 5530 0
79 -5461 5531 0
-5462 5531 0
79 -5462 5532 0
-5463 5532 0
79 -5463 5533 0
-5464 5533 0
79 -5464 0
80 5534 0
-5465 5534 0
80 -5465 5535 0
-5466 5535 0
80 -5466 5536 0
-5467 5536 0
80 -5467 5537 0
-5468 5537 0
80 -5468 5538 0
-5469 5538 0
80 -5469 5539 0
-5470 5539 0
80 -5470 5540 0
-5471 5540 0
80 -5471 5541 0
-5472 5541 0
80 -5472 5542 0
-5473 5542 0
80 -5473 5543 0
-5474 5543 0
80 -5474 5544 0
-5475 5544 0
80 -5475 5545 0
-5476 5545 0
80 -5476 5546 0
-5477 5546 0
80 -5477 5547 0
-5478 5547 0
80 -5478 5548 0
-5479 5548 0
80 -5479 5549 0
-5480 5549 0
80 -5480 5550 0
-5481 5550 0
80 -5481 5551 0
-5482 5551 0
80 -5482 5552 0
-5483 5552 0
80 -5483 5553 0
-5484 5553 0
80 -5484 5554 0
-5485 5554 0
80 -5485 5555 0
-5486 5555 0
80 -5486 5556 0
-5487 5556 0
80 -5487 5557 0
-5488 5557 0
80 -5488 5558 0
-5489 5558 0
80 -5489 5559 0
-5490 5559 0
80 -5490 5560 0
-5491 5560 0
80 -5491 5561 0
-5492 5561 0
80 -5492 5562 0
-5493 5562 0
80 -5493 5563 0
-5494 5563 0
80 -5494 5564 0
-5495 5564 0
80 -5495 5565 0
-5496 5565 0
80 -5496 5566 0
-5497 5566 0
80 -5497 5567 0
-5498 5567 0
80 -5498 5568 0
-5499 5568 0
80 -5499 5569 0
-5500 5569 0
80 -5500 5570 0
-5501 5570 0
80 -5501 5571 0
-5502 5571 0
80 -5502 5572 0
-5503 5572 0
80 -5503 5573 0
-5504 5573 0
80 -5504 5574 0
-5505 5574 0
80 -5505 5575 0
-5506 5575 0
80 -5506 5576 0
-5507 5576 0
80 -5507 5577 0
-5508 5577 0
80 -5508 5578 0
-5509 5578 0
80 -5509 5579 0
-5510 5579 0
80 -5510 5580 0
-5511 5580 0
80 -5511 5581 0
-5512 5581 0
80 -5512 5582 0
-5513 5582 0
80 -5513 5583 0
-5514 5583 0
80 -5514 5584 0
-5515 5584 0
80 -5515 5585 0
-5516 5585 0
80 -5516 5586 0
-5517 5586 0
80 -5517 5587 0
-5518 5587 0
80 -5518 5588 0
-5519 5588 0
80 -5519 5589 0
-5520 5589 0
80 -5520 5590 0
-5521 5590 0
80 -5521 5591 0
-5522 5591 0
80 -5522 5592 0
-5523 5592 0
80 -5523 5593 0
-5524 5593 0
80 -5524 5594 0
-5525 5594 0
80 -5525 5595 0
-5526 5595 0
80 -5526 5596 0
-5527 5596 0
80 -5527 5597 0
-5528 5597 0
80 -5528 5598 0
-5529 5598 0
80 -5529 5599 0
-5530 5599 0
80 -5530 5600 0
-5531 5600 0
80 -5531 5601 0
-5532 5601 0
80 -5532 5602 0
-5533 5602 0
80 -5533 0
81 5603 0
-5534 5603 0
81 -5534 5604 0
-5535 5604 0
81 -5535 5605 0
-5536 5605 0
81 -5536 5606 0
-5537 5606 0
81 -5537 5607 0
-5538 5607 0
81 -5538 5608 0
-5539 5608 0
81 -5539 5609 0
-5540 5609 0
81 -5540 5610 0
-5541 5610 0
81 -5541 5611 0
-5542 5611 0
81 -5542 5612 0
-5543 5612 0
81 -5543 5613 0
-5544 5613 0
81 -5544 5614 0
-5545 5614 0
81 -5545 5615 0
-5546 5615 0
81 -5546 5616 0
-5547 5616 0
81 -5547 5617 0
-5548 5617 0
81 -5548 5618 0
-5549 5618 0
81 -5549 5619 0
-5550 5619 0
81 -5550 5620 0
-5551 5620 0
81 -5551 5621 0
-5552 5621 0
81 -5552 5622 0
-5553 5622 0
81 -5553 5623 0
-5554 5623 0
81 -5554 5624 0
-5555 5624 0
81 -5555 5625 0
-5556 5625 0
81 -5556 5626 0
-5557 5626 0
81 -5557 5627 0
-5558 5627 0
81 -5558 5628 0
-5559 5628 0
81 -5559 5629 0
-5560 5629 0
81 -5560 5630 0
-5561 5630 0
81 -5561 5631 0
-5562 5631 0
81 -5562 5632 0
-5563 5632 0
81 -5563 5633 0
-5564 5633 0
81 -5564 5634 0
-5565 5634 0
81 -5565 5635 0
-5566 5635 0
81 -5566 5636 0
-5567 5636 0
81 -5567 5637 0
-5568 5637 0
81 -5568 5638 0
-5569 5638 0
81 -5569 5639 0
-5570 5639 0
81 -5570 5640 0
-5571 5640 0
81 -5571 5641 0
-5572 5641 0
81 -5572 5642 0
-5573 5642 0
81 -5573 5643 0
-5574 5643 0
81 -5574 5644 0
-5575 5644 0
81 -5575 5645 0
-5576 5645 0
81 -5576 5646 0
-5577 5646 0
81 -5577 5647 0
-5578 5647 0
81 -5578 5648 0
-5579 5648 0
81 -5579 5649 0
-5580 5649 0
81 -5580 5650 0
-5581 5650 0
81 -5581 5651 0
-5582 5651 0
81 -5582 5652 0
-5583 5652 0
81 -5583 5653 0
-5584 5653 0
81 -5584 5654 0
-5585 5654 0
81 -5585 5655 0
-5586 5655 0
81 -5586 5656 0
-5587 5656 0
81 -5587 5657 0
-5588 5657 0
81 -5588 5658 0
-5589 5658 0
81 -5589 5659 0
-5590 5659 0
81 -5590 5660 0
-5591 5660 0
81 -5591 5661 0
-5592 5661 0
81 -5592 5662 0
-5593 5662 0
81 -5593 5663 0
-5594 5663 0
81 -5594 5664 0
-5595 5664 0
81 -5595 5665 0
-5596 5665 0
81 -5596 5666 0
-5597 5666 0
81 -5597 5667 0
-5598 5667 0
81 -5598 5668 0
-5599 5668 0
81 -5599 5669 0
-5600 5669 0
81 -5600 5670 0
-5601 5670 0
81 -5601 5671 0
-5602 5671 0
81 -5602 0
82 5672 0
-5603 5672 0
82 -5603 5673 0
-5604 5673 0
82 -5604 5674 0
-5605 5674 0
82 -5605 5675 0
-5606 5675 0
82 -5606 5676 0
-5607 5676 0
82 -5607 5677 0
-5608 5677 0
82 -5608 5678 0
-5609 5678 0
82 -5609 5679 0
-5610 5679 0
82 -5610 5680 0
-5611 5680 0
82 -5611 5681 0
-5612 5681 0
82 -5612 5682 0
-5613 5682 0
82 -5613 5683 0
-5614 5683 0
82 -5614 5684 0
-5615 5684 0
82 -5615 5685 0
-5616 5685 0
82 -5616 5686 0
-5617 5686 0
82 -5617 5687 0
-5618 5687 0
82 -5618 5688 0
-5619 5688 0
82 -5619 5689 0
-5620 5689 0
82 -5620 5690 0
-5621 5690 0
82 -5621 5691 0
-5622 5691 0
82 -5622 5692 0
-5623 5692 0
82 -5623 5693 0
-5624 5693 0
82 -5624 5694 0
-5625 5694 0
82 -5625 5695 0
-5626 5695 0
82 -5626 5696 0
-5627 5696 0
82 -5627 5697 0
-5628 5697 0
82 -5628 5698 0
-5629 5698 0
82 -5629 5699 0
-5630 5699 0
82 -5630 5700 0
-5631 5700 0
82 -5631 5701 0
-5632 5701 0
82 -5632 5702 0
-5633 5702 0
82 -5633 5703 0
-5634 5703 0
82 -5634 5704 0
-5635 5704 0
82 -5635 5705 0
-5636 5705 0
82 -5636 5706 0
-5637 5706 0
82 -5637 5707 0
-5638 5707 0
82 -5638 5708 0
-5639 5708 0
82 -5639 5709 0
-5640 5709 0
82 -5640 5710 0
-5641 5710 0
82 -5641 5711 0
-5642 5711 0
82 -5642 5712 0
-5643 5712 0
82 -5643 5713 0
-5644 5713 0
82 -5644 5714 0
-5645 5714 0
82 -5645 5715 0
-5646 5715 0
82 -5646 5716 0
-5647 5716 0
82 -5647 5717 0
-5648 5717 0
82 -5648 5718 0
-5649 5718 0
82 -5649 5719 0
-5650 5719 0
82 -5650 5720 0
-5651 5720 0
82 -5651 5721 0
-5652 5721 0
82 -5652 5722 0
-5653 5722 0
82 -5653 5723 0
-5654 5723 0
82 -5654 5724 0
-5655 5724 0
82 -5655 5725 0
-5656 5725 0
82 -5656 5726 0
-5657 5726 0
82 -5657 5727 0
-5658 5727 0
82 -5658 5728 0
-5659 5728 0
82 -5659 5729 0
-5660 5729 0
82 -5660 5730 0
-5661 5730 0
82 -5661 5731 0
-5662 5731 0
82 -5662 5732 0
-5663 5732 0
82 -5663 5733 0
-5664 5733 0
82 -5664 5734 0
-5665 5734 0
82 -5665 5735 0
-5666 5735 0
82 -5666 5736 0
-5667 5736 0
82 -5667 5737 0
-5668 5737 0
82 -5668 5738 0
-5669 5738 0
82 -5669 5739 0
-5670 5739 0
82 -5670 5740 0
-5671 5740 0
82 -5671 0
