c tt3 packing >= 12 in tournament n=10 bits=111111000111110001111000111000101111111111101 m_TT3=82
p cnf 5822 12079
-1 -2 0
-1 -3 0
-1 -4 0
-1 -5 0
-1 -6 0
-1 -7 0
-1 -8 0
-1 -9 0
-1 -10 0
-1 -11 0
-1 -12 0
-1 -13 0
-1 -14 0
-1 -15 0
-1 -28 0
-1 -29 0
-1 -30 0
-1 -31 0
-1 -32 0
-1 -33 0
-1 -34 0
-2 -3 0
-2 -4 0
-2 -5 0
-2 -6 0
-2 -7 0
-2 -8 0
-2 -9 0
-2 -16 0
-2 -17 0
-2 -18 0
-2 -19 0
-2 -20 0
-2 -21 0
-2 -28 0
-2 -35 0
-2 -36 0
-2 -37 0
-2 -38 0
-2 -39 0
-2 -40 0
-3 -4 0
-3 -5 0
-3 -6 0
-3 -7 0
-3 -8 0
-3 -10 0
-3 -16 0
-3 -22 0
-3 -23 0
-3 -29 0
-3 -35 0
-3 -41 0
-3 -42 0
-4 -5 0
-4 -6 0
-4 -7 0
-4 -8 0
-4 -11 0
-4 -17 0
-4 -22 0
-4 -24 0
-4 -30 0
-4 -36 0
-4 -41 0
-4 -43 0
-5 -6 0
-5 -7 0
-5 -8 0
-5 -12 0
-5 -18 0
-5 -23 0
-5 -24 0
-5 -31 0
-5 -37 0
-5 -42 0
-5 -43 0
-6 -7 0
-6 -8 0
-6 -13 0
-6 -19 0
-6 -25 0
-6 -26 0
-6 -32 0
-6 -38 0
-6 -44 0
-6 -45 0
-7 -8 0
-7 -14 0
-7 -20 0
-7 -25 0
-7 -27 0
-7 -33 0
-7 -39 0
-7 -44 0
-7 -46 0
-8 -15 0
-8 -21 0
-8 -26 0
-8 -27 0
-8 -34 0
-8 -40 0
-8 -45 0
-8 -46 0
-9 -10 0
-9 -11 0
-9 -12 0
-9 -13 0
-9 -14 0
-9 -15 0
-9 -16 0
-9 -17 0
-9 -18 0
-9 -19 0
-9 -20 0
-9 -21 0
-9 -28 0
-9 -47 0
-9 -48 0
-9 -49 0
-9 -50 0
-9 -51 0
-9 -52 0
-10 -11 0
-10 -12 0
-10 -13 0
-10 -14 0
-10 -15 0
-10 -16 0
-10 -22 0
-10 -23 0
-10 -29 0
-10 -47 0
-10 -53 0
-10 -54 0
-11 -12 0
-11 -13 0
-11 -14 0
-11 -15 0
-11 -17 0
-11 -22 0
-11 -24 0
-11 -30 0
-11 -48 0
-11 -53 0
-11 -55 0
-12 -13 0
-12 -14 0
-12 -15 0
-12 -18 0
-12 -23 0
-12 -24 0
-12 -31 0
-12 -49 0
-12 -54 0
-12 -55 0
-13 -14 0
-13 -15 0
-13 -19 0
-13 -25 0
-13 -26 0
-13 -32 0
-13 -50 0
-13 -56 0
-13 -57 0
-14 -15 0
-14 -20 0
-14 -25 0
-14 -27 0
-14 -33 0
-14 -51 0
-14 -56 0
-14 -58 0
-15 -21 0
-15 -26 0
-15 -27 0
-15 -34 0
-15 -52 0
-15 -57 0
-15 -58 0
-16 -17 0
-16 -18 0
-16 -19 0
-16 -20 0
-16 -21 0
-16 -22 0
-16 -23 0
-16 -35 0
-16 -47 0
-16 -59 0
-16 -60 0
-17 -18 0
-17 -19 0
-17 -20 0
-17 -21 0
-17 -22 0
-17 -24 0
-17 -36 0
-17 -48 0
-17 -59 0
-17 -61 0
-18 -19 0
-18 -20 0
-18 -21 0
-18 -23 0
-18 -24 0
-18 -37 0
-18 -49 0
-18 -60 0
-18 -61 0
-19 -20 0
-19 -21 0
-19 -25 0
-19 -26 0
-19 -38 0
-19 -50 0
-19 -62 0
-19 -63 0
-20 -21 0
-20 -25 0
-20 -27 0
-20 -39 0
-20 -51 0
-20 -62 0
-20 -64 0
-21 -26 0
-21 -27 0
-21 -40 0
-21 -52 0
-21 -63 0
-21 -64 0
-22 -23 0
-22 -24 0
-22 -41 0
-22 -53 0
-22 -59 0
-22 -65 0
-22 -66 0
-22 -67 0
-23 -24 0
-23 -42 0
-23 -54 0
-23 -60 0
-23 -68 0
-23 -69 0
-23 -70 0
-24 -43 0
-24 -55 0
-24 -61 0
-24 -74 0
-24 -75 0
-24 -76 0
-25 -26 0
-25 -27 0
-25 -44 0
-25 -56 0
-25 -62 0
-25 -71 0
-25 -77 0
-25 -80 0
-26 -27 0
-26 -45 0
-26 -57 0
-26 -63 0
-26 -72 0
-26 -78 0
-26 -81 0
-27 -46 0
-27 -58 0
-27 -64 0
-27 -73 0
-27 -79 0
-27 -82 0
-28 -29 0
-28 -30 0
-28 -31 0
-28 -32 0
-28 -33 0
-28 -34 0
-28 -35 0
-28 -36 0
-28 -37 0
-28 -38 0
-28 -39 0
-28 -40 0
-28 -47 0
-28 -48 0
-28 -49 0
-28 -50 0
-28 -51 0
-28 -52 0
-29 -30 0
-29 -31 0
-29 -32 0
-29 -33 0
-29 -34 0
-29 -35 0
-29 -41 0
-29 -42 0
-29 -47 0
-29 -53 0
-29 -54 0
-30 -31 0
-30 -32 0
-30 -33 0
-30 -34 0
-30 -36 0
-30 -41 0
-30 -43 0
-30 -48 0
-30 -53 0
-30 -55 0
-31 -32 0
-31 -33 0
-31 -34 0
-31 -37 0
-31 -42 0
-31 -43 0
-31 -49 0
-31 -54 0
-31 -55 0
-32 -33 0
-32 -34 0
-32 -38 0
-32 -44 0
-32 -45 0
-32 -50 0
-32 -56 0
-32 -57 0
-33 -34 0
-33 -39 0
-33 -44 0
-33 -46 0
-33 -51 0
-33 -56 0
-33 -58 0
-34 -40 0
-34 -45 0
-34 -46 0
-34 -52 0
-34 -57 0
-34 -58 0
-35 -36 0
-35 -37 0
-35 -38 0
-35 -39 0
-35 -40 0
-35 -41 0
-35 -42 0
-35 -47 0
-35 -59 0
-35 -60 0
-36 -37 0
-36 -38 0
-36 -39 0
-36 -40 0
-36 -41 0
-36 -43 0
-36 -48 0
-36 -59 0
-36 -61 0
-37 -38 0
-37 -39 0
-37 -40 0
-37 -42 0
-37 -43 0
-37 -49 0
-37 -60 0
-37 -61 0
-38 -39 0
-38 -40 0
-38 -44 0
-38 -45 0
-38 -50 0
-38 -62 0
-38 -63 0
-39 -40 0
-39 -44 0
-39 -46 0
-39 -51 0
-39 -62 0
-39 -64 0
-40 -45 0
-40 -46 0
-40 -52 0
-40 -63 0
-40 -64 0
-41 -42 0
-41 -43 0
-41 -53 0
-41 -59 0
-41 -65 0
-41 -66 0
-41 -67 0
-42 -43 0
-42 -54 0
-42 -60 0
-42 -68 0
-42 -69 0
-42 -70 0
-43 -55 0
-43 -61 0
-43 -74 0
-43 -75 0
-43 -76 0
-44 -45 0
-44 -46 0
-44 -56 0
-44 -62 0
-44 -71 0
-44 -77 0
-44 -80 0
-45 -46 0
-45 -57 0
-45 -63 0
-45 -72 0
-45 -78 0
-45 -81 0
-46 -58 0
-46 -64 0
-46 -73 0
-46 -79 0
-46 -82 0
-47 -48 0
-47 -49 0
-47 -50 0
-47 -51 0
-47 -52 0
-47 -53 0
-47 -54 0
-47 -59 0
-47 -60 0
-48 -49 0
-48 -50 0
-48 -51 0
-48 -52 0
-48 -53 0
-48 -55 0
-48 -59 0
-48 -61 0
-49 -50 0
-49 -51 0
-49 -52 0
-49 -54 0
-49 -55 0
-49 -60 0
-49 -61 0
-50 -51 0
-50 -52 0
-50 -56 0
-50 -57 0
-50 -62 0
-50 -63 0
-51 -52 0
-51 -56 0
-51 -58 0
-51 -62 0
-51 -64 0
-52 -57 0
-52 -58 0
-52 -63 0
-52 -64 0
-53 -54 0
-53 -55 0
-53 -59 0
-53 -65 0
-53 -66 0
-53 -67 0
-54 -55 0
-54 -60 0
-54 -68 0
-54 -69 0
-54 -70 0
-55 -61 0
-55 -74 0
-55 -75 0
-55 -76 0
-56 -57 0
-56 -58 0
-56 -62 0
-56 -71 0
-56 -77 0
-56 -80 0
-57 -58 0
-57 -63 0
-57 -72 0
-57 -78 0
-57 -81 0
-58 -64 0
-58 -73 0
-58 -79 0
-58 -82 0
-59 -60 0
-59 -61 0
-59 -65 0
-59 -66 0
-59 -67 0
-60 -61 0
-60 -68 0
-60 -69 0
-60 -70 0
-61 -74 0
-61 -75 0
-61 -76 0
-62 -63 0
-62 -64 0
-62 -71 0
-62 -77 0
-62 -80 0
-63 -64 0
-63 -72 0
-63 -78 0
-63 -81 0
-64 -73 0
-64 -79 0
-64 -82 0
-65 -66 0
-65 -67 0
-65 -68 0
-65 -71 0
-65 -72 0
-65 -74 0
-65 -77 0
-65 -78 0
-66 -67 0
-66 -69 0
-66 -71 0
-66 -73 0
-66 -75 0
-66 -77 0
-66 -79 0
-67 -70 0
-67 -72 0
-67 -73 0
-67 -76 0
-67 -78 0
-67 -79 0
-68 -69 0
-68 -70 0
-68 -71 0
-68 -72 0
-68 -74 0
-68 -80 0
-68 -81 0
-69 -70 0
-69 -71 0
-69 -73 0
-69 -75 0
-69 -80 0
-69 -82 0
-70 -72 0
-70 -73 0
-70 -76 0
-70 -81 0
-70 -82 0
-71 -72 0
-71 -73 0
-71 -77 0
-71 -80 0
-72 -73 0
-72 -78 0
-72 -81 0
-73 -79 0
-73 -82 0
-74 -75 0
-74 -76 0
-74 -77 0
-74 -78 0
-74 -80 0
-74 -81 0
-75 -76 0
-75 -77 0
-75 -79 0
-75 -80 0
-75 -82 0
-76 -78 0
-76 -79 0
-76 -81 0
-76 -82 0
-77 -78 0
-77 -79 0
-77 -80 0
-78 -79 0
-78 -81 0
-79 -82 0
-80 -81 0
-80 -82 0
-81 -82 0
1 83 0
-84 0
-85 0
-86 0
-87 0
-88 0
-89 0
-90 0
-91 0
-92 0
-93 0
-94 0
-95 0
-96 0
-97 0
-98 0
-99 0
-100 0
-101 0
-102 0
-103 0
-104 0
-105 0
-106 0
-107 0
-108 0
-109 0
-110 0
-111 0
-112 0
-113 0
-114 0
-115 0
-116 0
-117 0
-118 0
-119 0
-120 0
-121 0
-122 0
-123 0
-124 0
-125 0
-126 0
-127 0
-128 0
-129 0
-130 0
-131 0
-132 0
-133 0
-134 0
-135 0
-136 0
-137 0
-138 0
-139 0
-140 0
-141 0
-142 0
-143 0
-144 0
-145 0
-146 0
-147 0
-148 0
-149 0
-150 0
-151 0
-152 0
2 153 0
-83 153 0
2 -83 154 0
-84 154 0
2 -84 155 0
-85 155 0
2 -85 156 0
-86 156 0
2 -86 157 0
-87 157 0
2 -87 158 0
-88 158 0
2 -88 159 0
-89 159 0
2 -89 160 0
-90 160 0
2 -90 161 0
-91 161 0
2 -91 162 0
-92 162 0
2 -92 163 0
-93 163 0
2 -93 164 0
-94 164 0
2 -94 165 0
-95 165 0
2 -95 166 0
-96 166 0
2 -96 167 0
-97 167 0
2 -97 168 0
-98 168 0
2 -98 169 0
-99 169 0
2 -99 170 0
-100 170 0
2 -100 171 0
-101 171 0
2 -101 172 0
-102 172 0
2 -102 173 0
-103 173 0
2 -103 174 0
-104 174 0
2 -104 175 0
-105 175 0
2 -105 176 0
-106 176 0
2 -106 177 0
-107 177 0
2 -107 178 0
-108 178 0
2 -108 179 0
-109 179 0
2 -109 180 0
-110 180 0
2 -110 181 0
-111 181 0
2 -111 182 0
-112 182 0
2 -112 183 0
-113 183 0
2 -113 184 0
-114 184 0
2 -114 185 0
-115 185 0
2 -115 186 0
-116 186 0
2 -116 187 0
-117 187 0
2 -117 188 0
-118 188 0
2 -118 189 0
-119 189 0
2 -119 190 0
-120 190 0
2 -120 191 0
-121 191 0
2 -121 192 0
-122 192 0
2 -122 193 0
-123 193 0
2 -123 194 0
-124 194 0
2 -124 195 0
-125 195 0
2 -125 196 0
-126 196 0
2 -126 197 0
-127 197 0
2 -127 198 0
-128 198 0
2 -128 199 0
-129 199 0
2 -129 200 0
-130 200 0
2 -130 201 0
-131 201 0
2 -131 202 0
-132 202 0
2 -132 203 0
-133 203 0
2 -133 204 0
-134 204 0
2 -134 205 0
-135 205 0
2 -135 206 0
-136 206 0
2 -136 207 0
-137 207 0
2 -137 208 0
-138 208 0
2 -138 209 0
-139 209 0
2 -139 210 0
-140 210 0
2 -140 211 0
-141 211 0
2 -141 212 0
-142 212 0
2 -142 213 0
-143 213 0
2 -143 214 0
-144 214 0
2 -144 215 0
-145 215 0
2 -145 216 0
-146 216 0
2 -146 217 0
-147 217 0
2 -147 218 0
-148 218 0
2 -148 219 0
-149 219 0
2 -149 220 0
-150 220 0
2 -150 221 0
-151 221 0
2 -151 222 0
-152 222 0
2 -152 0
3 223 0
-153 223 0
3 -153 224 0
-154 224 0
3 -154 225 0
-155 225 0
3 -155 226 0
-156 226 0
3 -156 227 0
-157 227 0
3 -157 228 0
-158 228 0
3 -158 229 0
-159 229 0
3 -159 230 0
-160 230 0
3 -160 231 0
-161 231 0
3 -161 232 0
-162 232 0
3 -162 233 0
-163 233 0
3 -163 234 0
-164 234 0
3 -164 235 0
-165 235 0
3 -165 236 0
-166 236 0
3 -166 237 0
-167 237 0
3 -167 238 0
-168 238 0
3 -168 239 0
-169 239 0
3 -169 240 0
-170 240 0
3 -170 241 0
-171 241 0
3 -171 242 0
-172 242 0
3 -172 243 0
-173 243 0
3 -173 244 0
-174 244 0
3 -174 245 0
-175 245 0
3 -175 246 0
-176 246 0
3 -176 247 0
-177 247 0
3 -177 248 0
-178 248 0
3 -178 249 0
-179 249 0
3 -179 250 0
-180 250 0
3 -180 251 0
-181 251 0
3 -181 252 0
-182 252 0
3 -182 253 0
-183 253 0
3 -183 254 0
-184 254 0
3 -184 255 0
-185 255 0
3 -185 256 0
-186 256 0
3 -186 257 0
-187 257 0
3 -187 258 0
-188 258 0
3 -188 259 0
-189 259 0
3 -189 260 0
-190 260 0
3 -190 261 0
-191 261 0
3 -191 262 0
-192 262 0
3 -192 263 0
-193 263 0
3 -193 264 0
-194 264 0
3 -194 265 0
-195 265 0
3 -195 266 0
-196 266 0
3 -196 267 0
-197 267 0
3 -197 268 0
-198 268 0
3 -198 269 0
-199 269 0
3 -199 270 0
-200 270 0
3 -200 271 0
-201 271 0
3 -201 272 0
-202 272 0
3 -202 273 0
-203 273 0
3 -203 274 0
-204 274 0
3 -204 275 0
-205 275 0
3 -205 276 0
-206 276 0
3 -206 277 0
-207 277 0
3 -207 278 0
-208 278 0
3 -208 279 0
-209 279 0
3 -209 280 0
-210 280 0
3 -210 281 0
-211 281 0
3 -211 282 0
-212 282 0
3 -212 283 0
-213 283 0
3 -213 284 0
-214 284 0
3 -214 285 0
-215 285 0
3 -215 286 0
-216 286 0
3 -216 287 0
-217 287 0
3 -217 288 0
-218 288 0
3 -218 289 0
-219 289 0
3 -219 290 0
-220 290 0
3 -220 291 0
-221 291 0
3 -221 292 0
-222 292 0
3 -222 0
4 293 0
-223 293 0
4 -223 294 0
-224 294 0
4 -224 295 0
-225 295 0
4 -225 296 0
-226 296 0
4 -226 297 0
-227 297 0
4 -227 298 0
-228 298 0
4 -228 299 0
-229 299 0
4 -229 300 0
-230 300 0
4 -230 301 0
-231 301 0
4 -231 302 0
-232 302 0
4 -232 303 0
-233 303 0
4 -233 304 0
-234 304 0
4 -234 305 0
-235 305 0
4 -235 306 0
-236 306 0
4 -236 307 0
-237 307 0
4 -237 308 0
-238 308 0
4 -238 309 0
-239 309 0
4 -239 310 0
-240 310 0
4 -240 311 0
-241 311 0
4 -241 312 0
-242 312 0
4 -242 313 0
-243 313 0
4 -243 314 0
-244 314 0
4 -244 315 0
-245 315 0
4 -245 316 0
-246 316 0
4 -246 317 0
-247 317 0
4 -247 318 0
-248 318 0
4 -248 319 0
-249 319 0
4 -249 320 0
-250 320 0
4 -250 321 0
-251 321 0
4 -251 322 0
-252 322 0
4 -252 323 0
-253 323 0
4 -253 324 0
-254 324 0
4 -254 325 0
-255 325 0
4 -255 326 0
-256 326 0
4 -256 327 0
-257 327 0
4 -257 328 0
-258 328 0
4 -258 329 0
-259 329 0
4 -259 330 0
-260 330 0
4 -260 331 0
-261 331 0
4 -261 332 0
-262 332 0
4 -262 333 0
-263 333 0
4 -263 334 0
-264 334 0
4 -264 335 0
-265 335 0
4 -265 336 0
-266 336 0
4 -266 337 0
-267 337 0
4 -267 338 0
-268 338 0
4 -268 339 0
-269 339 0
4 -269 340 0
-270 340 0
4 -270 341 0
-271 341 0
4 -271 342 0
-272 342 0
4 -272 343 0
-273 343 0
4 -273 344 0
-274 344 0
4 -274 345 0
-275 345 0
4 -275 346 0
-276 346 0
4 -276 347 0
-277 347 0
4 -277 348 0
-278 348 0
4 -278 349 0
-279 349 0
4 -279 350 0
-280 350 0
4 -280 351 0
-281 351 0
4 -281 352 0
-282 352 0
4 -282 353 0
-283 353 0
4 -283 354 0
-284 354 0
4 -284 355 0
-285 355 0
4 -285 356 0
-286 356 0
4 -286 357 0
-287 357 0
4 -287 358 0
-288 358 0
4 -288 359 0
-289 359 0
4 -289 360 0
-290 360 0
4 -290 361 0
-291 361 0
4 -291 362 0
-292 362 0
4 -292 0
5 363 0
-293 363 0
5 -293 364 0
-294 364 0
5 -294 365 0
-295 365 0
5 -295 366 0
-296 366 0
5 -296 367 0
-297 367 0
5 -297 368 0
-298 368 0
5 -298 369 0
-299 369 0
5 -299 370 0
-300 370 0
5 -300 371 0
-301 371 0
5 -301 372 0
-302 372 0
5 -302 373 0
-303 373 0
5 -303 374 0
-304 374 0
5 -304 375 0
-305 375 0
5 -305 376 0
-306 376 0
5 -306 377 0
-307 377 0
5 -307 378 0
-308 378 0
5 -308 379 0
-309 379 0
5 -309 380 0
-310 380 0
5 -310 381 0
-311 381 0
5 -311 382 0
-312 382 0
5 -312 383 0
-313 383 0
5 -313 384 0
-314 384 0
5 -314 385 0
-315 385 0
5 -315 386 0
-316 386 0
5 -316 387 0
-317 387 0
5 -317 388 0
-318 388 0
5 -318 389 0
-319 389 0
5 -319 390 0
-320 390 0
5 -320 391 0
-321 391 0
5 -321 392 0
-322 392 0
5 -322 393 0
-323 393 0
5 -323 394 0
-324 394 0
5 -324 395 0
-325 395 0
5 -325 396 0
-326 396 0
5 -326 397 0
-327 397 0
5 -327 398 0
-328 398 0
5 -328 399 0
-329 399 0
5 -329 400 0
-330 400 0
5 -330 401 0
-331 401 0
5 -331 402 0
-332 402 0
5 -332 403 0
-333 403 0
5 -333 404 0
-334 404 0
5 -334 405 0
-335 405 0
5 -335 406 0
-336 406 0
5 -336 407 0
-337 407 0
5 -337 408 0
-338 408 0
5 -338 409 0
-339 409 0
5 -339 410 0
-340 410 0
5 -340 411 0
-341 411 0
5 -341 412 0
-342 412 0
5 -342 413 0
-343 413 0
5 -343 414 0
-344 414 0
5 -344 415 0
-345 415 0
5 -345 416 0
-346 416 0
5 -346 417 0
-347 417 0
5 -347 418 0
-348 418 0
5 -348 419 0
-349 419 0
5 -349 420 0
-350 420 0
5 -350 421 0
-351 421 0
5 -351 422 0
-352 422 0
5 -352 423 0
-353 423 0
5 -353 424 0
-354 424 0
5 -354 425 0
-355 425 0
5 -355 426 0
-356 426 0
5 -356 427 0
-357 427 0
5 -357 428 0
-358 428 0
5 -358 429 0
-359 429 0
5 -359 430 0
-360 430 0
5 -360 431 0
-361 431 0
5 -361 432 0
-362 432 0
5 -362 0
6 433 0
-363 433 0
6 -363 434 0
-364 434 0
6 -364 435 0
-365 435 0
6 -365 436 0
-366 436 0
6 -366 437 0
-367 437 0
6 -367 438 0
-368 438 0
6 -368 439 0
-369 439 0
6 -369 440 0
-370 440 0
6 -370 441 0
-371 441 0
6 -371 442 0
-372 442 0
6 -372 443 0
-373 443 0
6 -373 444 0
-374 444 0
6 -374 445 0
-375 445 0
6 -375 446 0
-376 446 0
6 -376 447 0
-377 447 0
6 -377 448 0
-378 448 0
6 -378 449 0
-379 449 0
6 -379 450 0
-380 450 0
6 -380 451 0
-381 451 0
6 -381 452 0
-382 452 0
6 -382 453 0
-383 453 0
6 -383 454 0
-384 454 0
6 -384 455 0
-385 455 0
6 -385 456 0
-386 456 0
6 -386 457 0
-387 457 0
6 -387 458 0
-388 458 0
6 -388 459 0
-389 459 0
6 -389 460 0
-390 460 0
6 -390 461 0
-391 461 0
6 -391 462 0
-392 462 0
6 -392 463 0
-393 463 0
6 -393 464 0
-394 464 0
6 -394 465 0
-395 465 0
6 -395 466 0
-396 466 0
6 -396 467 0
-397 467 0
6 -397 468 0
-398 468 0
6 -398 469 0
-399 469 0
6 -399 470 0
-400 470 0
6 -400 471 0
-401 471 0
6 -401 472 0
-402 472 0
6 -402 473 0
-403 473 0
6 -403 474 0
-404 474 0
6 -404 475 0
-405 475 0
6 -405 476 0
-406 476 0
6 -406 477 0
-407 477 0
6 -407 478 0
-408 478 0
6 -408 479 0
-409 479 0
6 -409 480 0
-410 480 0
6 -410 481 0
-411 481 0
6 -411 482 0
-412 482 0
6 -412 483 0
-413 483 0
6 -413 484 0
-414 484 0
6 -414 485 0
-415 485 0
6 -415 486 0
-416 486 0
6 -416 487 0
-417 487 0
6 -417 488 0
-418 488 0
6 -418 489 0
-419 489 0
6 -419 490 0
-420 490 0
6 -420 491 0
-421 491 0
6 -421 492 0
-422 492 0
6 -422 493 0
-423 493 0
6 -423 494 0
-424 494 0
6 -424 495 0
-425 495 0
6 -425 496 0
-426 496 0
6 -426 497 0
-427 497 0
6 -427 498 0
-428 498 0
6 -428 499 0
-429 499 0
6 -429 500 0
-430 500 0
6 -430 501 0
-431 501 0
6 -431 502 0
-432 502 0
6 -432 0
7 503 0
-433 503 0
7 -433 504 0
-434 504 0
7 -434 505 0
-435 505 0
7 -435 506 0
-436 506 0
7 -436 507 0
-437 507 0
7 -437 508 0
-438 508 0
7 -438 509 0
-439 509 0
7 -439 510 0
-440 510 0
7 -440 511 0
-441 511 0
7 -441 512 0
-442 512 0
7 -442 513 0
-443 513 0
7 -443 514 0
-444 514 0
7 -444 515 0
-445 515 0
7 -445 516 0
-446 516 0
7 -446 517 0
-447 517 0
7 -447 518 0
-448 518 0
7 -448 519 0
-449 519 0
7 -449 520 0
-450 520 0
7 -450 521 0
-451 521 0
7 -451 522 0
-452 522 0
7 -452 523 0
-453 523 0
7 -453 524 0
-454 524 0
7 -454 525 0
-455 525 0
7 -455 526 0
-456 526 0
7 -456 527 0
-457 527 0
7 -457 528 0
-458 528 0
7 -458 529 0
-459 529 0
7 -459 530 0
-460 530 0
7 -460 531 0
-461 531 0
7 -461 532 0
-462 532 0
7 -462 533 0
-463 533 0
7 -463 534 0
-464 534 0
7 -464 535 0
-465 535 0
7 -465 536 0
-466 536 0
7 -466 537 0
-467 537 0
7 -467 538 0
-468 538 0
7 -468 539 0
-469 539 0
7 -469 540 0
-470 540 0
7 -470 541 0
-471 541 0
7 -471 542 0
-472 542 0
7 -472 543 0
-473 543 0
7 -473 544 0
-474 544 0
7 -474 545 0
-475 545 0
7 -475 546 0
-476 546 0
7 -476 547 0
-477 547 0
7 -477 548 0
-478 548 0
7 -478 549 0
-479 549 0
7 -479 550 0
-480 550 0
7 -480 551 0
-481 551 0
7 -481 552 0
-482 552 0
7 -482 553 0
-483 553 0
7 -483 554 0
-484 554 0
7 -484 555 0
-485 555 0
7 -485 556 0
-486 556 0
7 -486 557 0
-487 557 0
7 -487 558 0
-488 558 0
7 -488 559 0
-489 559 0
7 -489 560 0
-490 560 0
7 -490 561 0
-491 561 0
7 -491 562 0
-492 562 0
7 -492 563 0
-493 563 0
7 -493 564 0
-494 564 0
7 -494 565 0
-495 565 0
7 -495 566 0
-496 566 0
7 -496 567 0
-497 567 0
7 -497 568 0
-498 568 0
7 -498 569 0
-499 569 0
7 -499 570 0
-500 570 0
7 -500 571 0
-501 571 0
7 -501 572 0
-502 572 0
7 -502 0
8 573 0
-503 573 0
8 -503 574 0
-504 574 0
8 -504 575 0
-505 575 0
8 -505 576 0
-506 576 0
8 -506 577 0
-507 577 0
8 -507 578 0
-508 578 0
8 -508 579 0
-509 579 0
8 -509 580 0
-510 580 0
8 -510 581 0
-511 581 0
8 -511 582 0
-512 582 0
8 -512 583 0
-513 583 0
8 -513 584 0
-514 584 0
8 -514 585 0
-515 585 0
8 -515 586 0
-516 586 0
8 -516 587 0
-517 587 0
8 -517 588 0
-518 588 0
8 -518 589 0
-519 589 0
8 -519 590 0
-520 590 0
8 -520 591 0
-521 591 0
8 -521 592 0
-522 592 0
8 -522 593 0
-523 593 0
8 -523 594 0
-524 594 0
8 -524 595 0
-525 595 0
8 -525 596 0
-526 596 0
8 -526 597 0
-527 597 0
8 -527 598 0
-528 598 0
8 -528 599 0
-529 599 0
8 -529 600 0
-530 600 0
8 -530 601 0
-531 601 0
8 -531 602 0
-532 602 0
8 -532 603 0
-533 603 0
8 -533 604 0
-534 604 0
8 -534 605 0
-535 605 0
8 -535 606 0
-536 606 0
8 -536 607 0
-537 607 0
8 -537 608 0
-538 608 0
8 -538 609 0
-539 609 0
8 -539 610 0
-540 610 0
8 -540 611 0
-541 611 0
8 -541 612 0
-542 612 0
8 -542 613 0
-543 613 0
8 -543 614 0
-544 614 0
8 -544 615 0
-545 615 0
8 -545 616 0
-546 616 0
8 -546 617 0
-547 617 0
8 -547 618 0
-548 618 0
8 -548 619 0
-549 619 0
8 -549 620 0
-550 620 0
8 -550 621 0
-551 621 0
8 -551 622 0
-552 622 0
8 -552 623 0
-553 623 0
8 -553 624 0
-554 624 0
8 -554 625 0
-555 625 0
8 -555 626 0
-556 626 0
8 -556 627 0
-557 627 0
8 -557 628 0
-558 628 0
8 -558 629 0
-559 629 0
8 -559 630 0
-560 630 0
8 -560 631 0
-561 631 0
8 -561 632 0
-562 632 0
8 -562 633 0
-563 633 0
8 -563 634 0
-564 634 0
8 -564 635 0
-565 635 0
8 -565 636 0
-566 636 0
8 -566 637 0
-567 637 0
8 -567 638 0
-568 638 0
8 -568 639 0
-569 639 0
8 -569 640 0
-570 640 0
8 -570 641 0
-571 641 0
8 -571 642 0
-572 642 0
8 -572 0
9 643 0
-573 643 0
9 -573 644 0
-574 644 0
9 -574 645 0
-575 645 0
9 -575 646 0
-576 646 0
9 -576 647 0
-577 647 0
9 -577 648 0
-578 648 0
9 -578 649 0
-579 649 0
9 -579 650 0
-580 650 0
9 -580 651 0
-581 651 0
9 -581 652 0
-582 652 0
9 -582 653 0
-583 653 0
9 -583 654 0
-584 654 0
9 -584 655 0
-585 655 0
9 -585 656 0
-586 656 0
9 -586 657 0
-587 657 0
9 -587 658 0
-588 658 0
9 -588 659 0
-589 659 0
9 -589 660 0
-590 660 0
9 -590 661 0
-591 661 0
9 -591 662 0
-592 662 0
9 -592 663 0
-593 663 0
9 -593 664 0
-594 664 0
9 -594 665 0
-595 665 0
9 -595 666 0
-596 666 0
9 -596 667 0
-597 667 0
9 -597 668 0
-598 668 0
9 -598 669 0
-599 669 0
9 -599 670 0
-600 670 0
9 -600 671 0
-601 671 0
9 -601 672 0
-602 672 0
9 -602 673 0
-603 673 0
9 -603 674 0
-604 674 0
9 -604 675 0
-605 675 0
9 -605 676 0
-606 676 0
9 -606 677 0
-607 677 0
9 -607 678 0
-608 678 0
9 -608 679 0
-609 679 0
9 -609 680 0
-610 680 0
9 -610 681 0
-611 681 0
9 -611 682 0
-612 682 0
9 -612 683 0
-613 683 0
9 -613 684 0
-614 684 0
9 -614 685 0
-615 685 0
9 -615 686 0
-616 686 0
9 -616 687 0
-617 687 0
9 -617 688 0
-618 688 0
9 -618 689 0
-619 689 0
9 -619 690 0
-620 690 0
9 -620 691 0
-621 691 0
9 -621 692 0
-622 692 0
9 -622 693 0
-623 693 0
9 -623 694 0
-624 694 0
9 -624 695 0
-625 695 0
9 -625 696 0
-626 696 0
9 -626 697 0
-627 697 0
9 -627 698 0
-628 698 0
9 -628 699 0
-629 699 0
9 -629 700 0
-630 700 0
9 -630 701 0
-631 701 0
9 -631 702 0
-632 702 0
9 -632 703 0
-633 703 0
9 -633 704 0
-634 704 0
9 -634 705 0
-635 705 0
9 -635 706 0
-636 706 0
9 -636 707 0
-637 707 0
9 -637 708 0
-638 708 0
9 -638 709 0
-639 709 0
9 -639 710 0
-640 710 0
9 -640 711 0
-641 711 0
9 -641 712 0
-642 712 0
9 -642 0
10 713 0
-643 713 0
10 -643 714 0
-644 714 0
10 -644 715 0
-645 715 0
10 -645 716 0
-646 716 0
10 -646 717 0
-647 717 0
10 -647 718 0
-648 718 0
10 -648 719 0
-649 719 0
10 -649 720 0
-650 720 0
10 -650 721 0
-651 721 0
10 -651 722 0
-652 722 0
10 -652 723 0
-653 723 0
10 -653 724 0
-654 724 0
10 -654 725 0
-655 725 0
10 -655 726 0
-656 726 0
10 -656 727 0
-657 727 0
10 -657 728 0
-658 728 0
10 -658 729 0
-659 729 0
10 -659 730 0
-660 730 0
10 -660 731 0
-661 731 0
10 -661 732 0
-662 732 0
10 -662 733 0
-663 733 0
10 -663 734 0
-664 734 0
10 -664 735 0
-665 735 0
10 -665 736 0
-666 736 0
10 -666 737 0
-667 737 0
10 -667 738 0
-668 738 0
10 -668 739 0
-669 739 0
10 -669 740 0
-670 740 0
10 -670 741 0
-671 741 0
10 -671 742 0
-672 742 0
10 -672 743 0
-673 743 0
10 -673 744 0
-674 744 0
10 -674 745 0
-675 745 0
10 -675 746 0
-676 746 0
10 -676 747 0
-677 747 0
10 -677 748 0
-678 748 0
10 -678 749 0
-679 749 0
10 -679 750 0
-680 750 0
10 -680 751 0
-681 751 0
10 -681 752 0
-682 752 0
10 -682 753 0
-683 753 0
10 -683 754 0
-684 754 0
10 -684 755 0
-685 755 0
10 -685 756 0
-686 756 0
10 -686 757 0
-687 757 0
10 -687 758 0
-688 758 0
10 -688 759 0
-689 759 0
10 -689 760 0
-690 760 0
10 -690 761 0
-691 761 0
10 -691 762 0
-692 762 0
10 -692 763 0
-693 763 0
10 -693 764 0
-694 764 0
10 -694 765 0
-695 765 0
10 -695 766 0
-696 766 0
10 -696 767 0
-697 767 0
10 -697 768 0
-698 768 0
10 -698 769 0
-699 769 0
10 -699 770 0
-700 770 0
10 -700 771 0
-701 771 0
10 -701 772 0
-702 772 0
10 -702 773 0
-703 773 0
10 -703 774 0
-704 774 0
10 -704 775 0
-705 775 0
10 -705 776 0
-706 776 0
10 -706 777 0
-707 777 0
10 -707 778 0
-708 778 0
10 -708 779 0
-709 779 0
10 -709 780 0
-710 780 0
10 -710 781 0
-711 781 0
10 -711 782 0
-712 782 0
10 -712 0
11 783 0
-713 783 0
11 -713 784 0
-714 784 0
11 -714 785 0
-715 785 0
11 -715 786 0
-716 786 0
11 -716 787 0
-717 787 0
11 -717 788 0
-718 788 0
11 -718 789 0
-719 789 0
11 -719 790 0
-720 790 0
11 -720 791 0
-721 791 0
11 -721 792 0
-722 792 0
11 -722 793 0
-723 793 0
11 -723 794 0
-724 794 0
11 -724 795 0
-725 795 0
11 -725 796 0
-726 796 0
11 -726 797 0
-727 797 0
11 -727 798 0
-728 798 0
11 -728 799 0
-729 799 0
11 -729 800 0
-730 800 0
11 -730 801 0
-731 801 0
11 -731 802 0
-732 802 0
11 -732 803 0
-733 803 0
11 -733 804 0
-734 804 0
11 -734 805 0
-735 805 0
11 -735 806 0
-736 806 0
11 -736 807 0
-737 807 0
11 -737 808 0
-738 808 0
11 -738 809 0
-739 809 0
11 -739 810 0
-740 810 0
11 -740 811 0
-741 811 0
11 -741 812 0
-742 812 0
11 -742 813 0
-743 813 0
11 -743 814 0
-744 814 0
11 -744 815 0
-745 815 0
11 -745 816 0
-746 816 0
11 -746 817 0
-747 817 0
11 -747 818 0
-748 818 0
11 -748 819 0
-749 819 0
11 -749 820 0
-750 820 0
11 -750 821 0
-751 821 0
11 -751 822 0
-752 822 0
11 -752 823 0
-753 823 0
11 -753 824 0
-754 824 0
11 -754 825 0
-755 825 0
11 -755 826 0
-756 826 0
11 -756 827 0
-757 827 0
11 -757 828 0
-758 828 0
11 -758 829 0
-759 829 0
11 -759 830 0
-760 830 0
11 -760 831 0
-761 831 0
11 -761 832 0
-762 832 0
11 -762 833 0
-763 833 0
11 -763 834 0
-764 834 0
11 -764 835 0
-765 835 0
11 -765 836 0
-766 836 0
11 -766 837 0
-767 837 0
11 -767 838 0
-768 838 0
11 -768 839 0
-769 839 0
11 -769 840 0
-770 840 0
11 -770 841 0
-771 841 0
11 -771 842 0
-772 842 0
11 -772 843 0
-773 843 0
11 -773 844 0
-774 844 0
11 -774 845 0
-775 845 0
11 -775 846 0
-776 846 0
11 -776 847 0
-777 847 0
11 -777 848 0
-778 848 0
11 -778 849 0
-779 849 0
11 -779 850 0
-780 850 0
11 -780 851 0
-781 851 0
11 -781 852 0
-782 852 0
11 -782 0
12 853 0
-783 853 0
12 -783 854 0
-784 854 0
12 -784 855 0
-785 855 0
12 -785 856 0
-786 856 0
12 -786 857 0
-787 857 0
12 -787 858 0
-788 858 0
12 -788 859 0
-789 859 0
12 -789 860 0
-790 860 0
12 -790 861 0
-791 861 0
12 -791 862 0
-792 862 0
12 -792 863 0
-793 863 0
12 -793 864 0
-794 864 0
12 -794 865 0
-795 865 0
12 -795 866 0
-796 866 0
12 -796 867 0
-797 867 0
12 -797 868 0
-798 868 0
12 -798 869 0
-799 869 0
12 -799 870 0
-800 870 0
12 -800 871 0
-801 871 0
12 -801 872 0
-802 872 0
12 -802 873 0
-803 873 0
12 -803 874 0
-804 874 0
12 -804 875 0
-805 875 0
12 -805 876 0
-806 876 0
12 -806 877 0
-807 877 0
12 -807 878 0
-808 878 0
12 -808 879 0
-809 879 0
12 -809 880 0
-810 880 0
12 -810 881 0
-811 881 0
12 -811 882 0
-812 882 0
12 -812 883 0
-813 883 0
12 -813 884 0
-814 884 0
12 -814 885 0
-815 885 0
12 -815 886 0
-816 886 0
12 -816 887 0
-817 887 0
12 -817 888 0
-818 888 0
12 -818 889 0
-819 889 0
12 -819 890 0
-820 890 0
12 -820 891 0
-821 891 0
12 -821 892 0
-822 892 0
12 -822 893 0
-823 893 0
12 -823 894 0
-824 894 0
12 -824 895 0
-825 895 0
12 -825 896 0
-826 896 0
12 -826 897 0
-827 897 0
12 -827 898 0
-828 898 0
12 -828 899 0
-829 899 0
12 -829 900 0
-830 900 0
12 -830 901 0
-831 901 0
12 -831 902 0
-832 902 0
12 -832 903 0
-833 903 0
12 -833 904 0
-834 904 0
12 -834 905 0
-835 905 0
12 -835 906 0
-836 906 0
12 -836 907 0
-837 907 0
12 -837 908 0
-838 908 0
12 -838 909 0
-839 909 0
12 -839 910 0
-840 910 0
12 -840 911 0
-841 911 0
12 -841 912 0
-842 912 0
12 -842 913 0
-843 913 0
12 -843 914 0
-844 914 0
12 -844 915 0
-845 915 0
12 -845 916 0
-846 916 0
12 -846 917 0
-847 917 0
12 -847 918 0
-848 918 0
12 -848 919 0
-849 919 0
12 -849 920 0
-850 920 0
12 -850 921 0
-851 921 0
12 -851 922 0
-852 922 0
12 -852 0
13 923 0
-853 923 0
13 -853 924 0
-854 924 0
13 -854 925 0
-855 925 0
13 -855 926 0
-856 926 0
13 -856 927 0
-857 927 0
13 -857 928 0
-858 928 0
13 -858 929 0
-859 929 0
13 -859 930 0
-860 930 0
13 -860 931 0
-861 931 0
13 -861 932 0
-862 932 0
13 -862 933 0
-863 933 0
13 -863 934 0
-864 934 0
13 -864 935 0
-865 935 0
13 -865 936 0
-866 936 0
13 -866 937 0
-867 937 0
13 -867 938 0
-868 938 0
13 -868 939 0
-869 939 0
13 -869 940 0
-870 940 0
13 -870 941 0
-871 941 0
13 -871 942 0
-872 942 0
13 -872 943 0
-873 943 0
13 -873 944 0
-874 944 0
13 -874 945 0
-875 945 0
13 -875 946 0
-876 946 0
13 -876 947 0
-877 947 0
13 -877 948 0
-878 948 0
13 -878 949 0
-879 949 0
13 -879 950 0
-880 950 0
13 -880 951 0
-881 951 0
13 -881 952 0
-882 952 0
13 -882 953 0
-883 953 0
13 -883 954 0
-884 954 0
13 -884 955 0
-885 955 0
13 -885 956 0
-886 956 0
13 -886 957 0
-887 957 0
13 -887 958 0
-888 958 0
13 -888 959 0
-889 959 0
13 -889 960 0
-890 960 0
13 -890 961 0
-891 961 0
13 -891 962 0
-892 962 0
13 -892 963 0
-893 963 0
13 -893 964 0
-894 964 0
13 -894 965 0
-895 965 0
13 -895 966 0
-896 966 0
13 -896 967 0
-897 967 0
13 -897 968 0
-898 968 0
13 -898 969 0
-899 969 0
13 -899 970 0
-900 970 0
13 -900 971 0
-901 971 0
13 -901 972 0
-902 972 0
13 -902 973 0
-903 973 0
13 -903 974 0
-904 974 0
13 -904 975 0
-905 975 0
13 -905 976 0
-906 976 0
13 -906 977 0
-907 977 0
13 -907 978 0
-908 978 0
13 -908 979 0
-909 979 0
13 -909 980 0
-910 980 0
13 -910 981 0
-911 981 0
13 -911 982 0
-912 982 0
13 -912 983 0
-913 983 0
13 -913 984 0
-914 984 0
13 -914 985 0
-915 985 0
13 -915 986 0
-916 986 0
13 -916 987 0
-917 987 0
13 -917 988 0
-918 988 0
13 -918 989 0
-919 989 0
13 -919 990 0
-920 990 0
13 -920 991 0
-921 991 0
13 -921 992 0
-922 992 0
13 -922 0
14 993 0
-923 993 0
14 -923 994 0
-924 994 0
14 -924 995 0
-925 995 0
14 -925 996 0
-926 996 0
14 -926 997 0
-927 997 0
14 -927 998 0
-928 998 0
14 -928 999 0
-929 999 0
14 -929 1000 0
-930 1000 0
14 -930 1001 0
-931 1001 0
14 -931 1002 0
-932 1002 0
14 -932 1003 0
-933 1003 0
14 -933 1004 0
-934 1004 0
14 -934 1005 0
-935 1005 0
14 -935 1006 0
-936 1006 0
14 -936 1007 0
-937 1007 0
14 -937 1008 0
-938 1008 0
14 -938 1009 0
-939 1009 0
14 -939 1010 0
-940 1010 0
14 -940 1011 0
-941 1011 0
14 -941 1012 0
-942 1012 0
14 -942 1013 0
-943 1013 0
14 -943 1014 0
-944 1014 0
14 -944 1015 0
-945 1015 0
14 -945 1016 0
-946 1016 0
14 -946 1017 0
-947 1017 0
14 -947 1018 0
-948 1018 0
14 -948 1019 0
-949 1019 0
14 -949 1020 0
-950 1020 0
14 -950 1021 0
-951 1021 0
14 -951 1022 0
-952 1022 0
14 -952 1023 0
-953 1023 0
14 -953 1024 0
-954 1024 0
14 -954 1025 0
-955 1025 0
14 -955 1026 0
-956 1026 0
14 -956 1027 0
-957 1027 0
14 -957 1028 0
-958 1028 0
14 -958 1029 0
-959 1029 0
14 -959 1030 0
-960 1030 0
14 -960 1031 0
-961 1031 0
14 -961 1032 0
-962 1032 0
14 -962 1033 0
-963 1033 0
14 -963 1034 0
-964 1034 0
14 -964 1035 0
-965 1035 0
14 -965 1036 0
-966 1036 0
14 -966 1037 0
-967 1037 0
14 -967 1038 0
-968 1038 0
14 -968 1039 0
-969 1039 0
14 -969 1040 0
-970 1040 0
14 -970 1041 0
-971 1041 0
14 -971 1042 0
-972 1042 0
14 -972 1043 0
-973 1043 0
14 -973 1044 0
-974 1044 0
14 -974 1045 0
-975 1045 0
14 -975 1046 0
-976 1046 0
14 -976 1047 0
-977 1047 0
14 -977 1048 0
-978 1048 0
14 -978 1049 0
-979 1049 0
14 -979 1050 0
-980 1050 0
14 -980 1051 0
-981 1051 0
14 -981 1052 0
-982 1052 0
14 -982 1053 0
-983 1053 0
14 -983 1054 0
-984 1054 0
14 -984 1055 0
-985 1055 0
14 -985 1056 0
-986 1056 0
14 -986 1057 0
-987 1057 0
14 -987 1058 0
-988 1058 0
14 -988 1059 0
-989 1059 0
14 -989 1060 0
-990 1060 0
14 -990 1061 0
-991 1061 0
14 -991 1062 0
-992 1062 0
14 -992 0
15 1063 0
-993 1063 0
15 -993 1064 0
-994 1064 0
15 -994 1065 0
-995 1065 0
15 -995 1066 0
-996 1066 0
15 -996 1067 0
-997 1067 0
15 -997 1068 0
-998 1068 0
15 -998 1069 0
-999 1069 0
15 -999 1070 0
-1000 1070 0
15 -1000 1071 0
-1001 1071 0
15 -1001 1072 0
-1002 1072 0
15 -1002 1073 0
-1003 1073 0
15 -1003 1074 0
-1004 1074 0
15 -1004 1075 0
-1005 1075 0
15 -1005 1076 0
-1006 1076 0
15 -1006 1077 0
-1007 1077 0
15 -1007 1078 0
-1008 1078 0
15 -1008 1079 0
-1009 1079 0
15 -1009 1080 0
-1010 1080 0
15 -1010 1081 0
-1011 1081 0
15 -1011 1082 0
-1012 1082 0
15 -1012 1083 0
-1013 1083 0
15 -1013 1084 0
-1014 1084 0
15 -1014 1085 0
-1015 1085 0
15 -1015 1086 0
-1016 1086 0
15 -1016 1087 0
-1017 1087 0
15 -1017 1088 0
-1018 1088 0
15 -1018 1089 0
-1019 1089 0
15 -1019 1090 0
-1020 1090 0
15 -1020 1091 0
-1021 1091 0
15 -1021 1092 0
-1022 1092 0
15 -1022 1093 0
-1023 1093 0
15 -1023 1094 0
-1024 1094 0
15 -1024 1095 0
-1025 1095 0
15 -1025 1096 0
-1026 1096 0
15 -1026 1097 0
-1027 1097 0
15 -1027 1098 0
-1028 1098 0
15 -1028 1099 0
-1029 1099 0
15 -1029 1100 0
-1030 1100 0
15 -1030 1101 0
-1031 1101 0
15 -1031 1102 0
-1032 1102 0
15 -1032 1103 0
-1033 1103 0
15 -1033 1104 0
-1034 1104 0
15 -1034 1105 0
-1035 1105 0
15 -1035 1106 0
-1036 1106 0
15 -1036 1107 0
-1037 1107 0
15 -1037 1108 0
-1038 1108 0
15 -1038 1109 0
-1039 1109 0
15 -1039 1110 0
-1040 1110 0
15 -1040 1111 0
-1041 1111 0
15 -1041 1112 0
-1042 1112 0
15 -1042 1113 0
-1043 1113 0
15 -1043 1114 0
-1044 1114 0
15 -1044 1115 0
-1045 1115 0
15 -1045 1116 0
-1046 1116 0
15 -1046 1117 0
-1047 1117 0
15 -1047 1118 0
-1048 1118 0
15 -1048 1119 0
-1049 1119 0
15 -1049 1120 0
-1050 1120 0
15 -1050 1121 0
-1051 1121 0
15 -1051 1122 0
-1052 1122 0
15 -1052 1123 0
-1053 1123 0
15 -1053 1124 0
-1054 1124 0
15 -1054 1125 0
-1055 1125 0
15 -1055 1126 0
-1056 1126 0
15 -1056 1127 0
-1057 1127 0
15 -1057 1128 0
-1058 1128 0
15 -1058 1129 0
-1059 1129 0
15 -1059 1130 0
-1060 1130 0
15 -1060 1131 0
-1061 1131 0
15 -1061 1132 0
-1062 1132 0
15 -1062 0
16 1133 0
-1063 1133 0
16 -1063 1134 0
-1064 1134 0
16 -1064 1135 0
-1065 1135 0
16 -1065 1136 0
-1066 1136 0
16 -1066 1137 0
-1067 1137 0
16 -1067 1138 0
-1068 1138 0
16 -1068 1139 0
-1069 1139 0
16 -1069 1140 0
-1070 1140 0
16 -1070 1141 0
-1071 1141 0
16 -1071 1142 0
-1072 1142 0
16 -1072 1143 0
-1073 1143 0
16 -1073 1144 0
-1074 1144 0
16 -1074 1145 0
-1075 1145 0
16 -1075 1146 0
-1076 1146 0
16 -1076 1147 0
-1077 1147 0
16 -1077 1148 0
-1078 1148 0
16 -1078 1149 0
-1079 1149 0
16 -1079 1150 0
-1080 1150 0
16 -1080 1151 0
-1081 1151 0
16 -1081 1152 0
-1082 1152 0
16 -1082 1153 0
-1083 1153 0
16 -1083 1154 0
-1084 1154 0
16 -1084 1155 0
-1085 1155 0
16 -1085 1156 0
-1086 1156 0
16 -1086 1157 0
-1087 1157 0
16 -1087 1158 0
-1088 1158 0
16 -1088 1159 0
-1089 1159 0
16 -1089 1160 0
-1090 1160 0
16 -1090 1161 0
-1091 1161 0
16 -1091 1162 0
-1092 1162 0
16 -1092 1163 0
-1093 1163 0
16 -1093 1164 0
-1094 1164 0
16 -1094 1165 0
-1095 1165 0
16 -1095 1166 0
-1096 1166 0
16 -1096 1167 0
-1097 1167 0
16 -1097 1168 0
-1098 1168 0
16 -1098 1169 0
-1099 1169 0
16 -1099 1170 0
-1100 1170 0
16 -1100 1171 0
-1101 1171 0
16 -1101 1172 0
-1102 1172 0
16 -1102 1173 0
-1103 1173 0
16 -1103 1174 0
-1104 1174 0
16 -1104 1175 0
-1105 1175 0
16 -1105 1176 0
-1106 1176 0
16 -1106 1177 0
-1107 1177 0
16 -1107 1178 0
-1108 1178 0
16 -1108 1179 0
-1109 1179 0
16 -1109 1180 0
-1110 1180 0
16 -1110 1181 0
-1111 1181 0
16 -1111 1182 0
-1112 1182 0
16 -1112 1183 0
-1113 1183 0
16 -1113 1184 0
-1114 1184 0
16 -1114 1185 0
-1115 1185 0
16 -1115 1186 0
-1116 1186 0
16 -1116 1187 0
-1117 1187 0
16 -1117 1188 0
-1118 1188 0
16 -1118 1189 0
-1119 1189 0
16 -1119 1190 0
-1120 1190 0
16 -1120 1191 0
-1121 1191 0
16 -1121 1192 0
-1122 1192 0
16 -1122 1193 0
-1123 1193 0
16 -1123 1194 0
-1124 1194 0
16 -1124 1195 0
-1125 1195 0
16 -1125 1196 0
-1126 1196 0
16 -1126 1197 0
-1127 1197 0
16 -1127 1198 0
-1128 1198 0
16 -1128 1199 0
-1129 1199 0
16 -1129 1200 0
-1130 1200 0
16 -1130 1201 0
-1131 1201 0
16 -1131 1202 0
-1132 1202 0
16 -1132 0
17 1203 0
-1133 1203 0
17 -1133 1204 0
-1134 1204 0
17 -1134 1205 0
-1135 1205 0
17 -1135 1206 0
-1136 1206 0
17 -1136 1207 0
-1137 1207 0
17 -1137 1208 0
-1138 1208 0
17 -1138 1209 0
-1139 1209 0
17 -1139 1210 0
-1140 1210 0
17 -1140 1211 0
-1141 1211 0
17 -1141 1212 0
-1142 1212 0
17 -1142 1213 0
-1143 1213 0
17 -1143 1214 0
-1144 1214 0
17 -1144 1215 0
-1145 1215 0
17 -1145 1216 0
-1146 1216 0
17 -1146 1217 0
-1147 1217 0
17 -1147 1218 0
-1148 1218 0
17 -1148 1219 0
-1149 1219 0
17 -1149 1220 0
-1150 1220 0
17 -1150 1221 0
-1151 1221 0
17 -1151 1222 0
-1152 1222 0
17 -1152 1223 0
-1153 1223 0
17 -1153 1224 0
-1154 1224 0
17 -1154 1225 0
-1155 1225 0
17 -1155 1226 0
-1156 1226 0
17 -1156 1227 0
-1157 1227 0
17 -1157 1228 0
-1158 1228 0
17 -1158 1229 0
-1159 1229 0
17 -1159 1230 0
-1160 1230 0
17 -1160 1231 0
-1161 1231 0
17 -1161 1232 0
-1162 1232 0
17 -1162 1233 0
-1163 1233 0
17 -1163 1234 0
-1164 1234 0
17 -1164 1235 0
-1165 1235 0
17 -1165 1236 0
-1166 1236 0
17 -1166 1237 0
-1167 1237 0
17 -1167 1238 0
-1168 1238 0
17 -1168 1239 0
-1169 1239 0
17 -1169 1240 0
-1170 1240 0
17 -1170 1241 0
-1171 1241 0
17 -1171 1242 0
-1172 1242 0
17 -1172 1243 0
-1173 1243 0
17 -1173 1244 0
-1174 1244 0
17 -1174 1245 0
-1175 1245 0
17 -1175 1246 0
-1176 1246 0
17 -1176 1247 0
-1177 1247 0
17 -1177 1248 0
-1178 1248 0
17 -1178 1249 0
-1179 1249 0
17 -1179 1250 0
-1180 1250 0
17 -1180 1251 0
-1181 1251 0
17 -1181 1252 0
-1182 1252 0
17 -1182 1253 0
-1183 1253 0
17 -1183 1254 0
-1184 1254 0
17 -1184 1255 0
-1185 1255 0
17 -1185 1256 0
-1186 1256 0
17 -1186 1257 0
-1187 1257 0
17 -1187 1258 0
-1188 1258 0
17 -1188 1259 0
-1189 1259 0
17 -1189 1260 0
-1190 1260 0
17 -1190 1261 0
-1191 1261 0
17 -1191 1262 0
-1192 1262 0
17 -1192 1263 0
-1193 1263 0
17 -1193 1264 0
-1194 1264 0
17 -1194 1265 0
-1195 1265 0
17 -1195 1266 0
-1196 1266 0
17 -1196 1267 0
-1197 1267 0
17 -1197 1268 0
-1198 1268 0
17 -1198 1269 0
-1199 1269 0
17 -1199 1270 0
-1200 1270 0
17 -1200 1271 0
-1201 1271 0
17 -1201 1272 0
-1202 1272 0
17 -1202 0
18 1273 0
-1203 1273 0
18 -1203 1274 0
-1204 1274 0
18 -1204 1275 0
-1205 1275 0
18 -1205 1276 0
-1206 1276 0
18 -1206 1277 0
-1207 1277 0
18 -1207 1278 0
-1208 1278 0
18 -1208 1279 0
-1209 1279 0
18 -1209 1280 0
-1210 1280 0
18 -1210 1281 0
-1211 1281 0
18 -1211 1282 0
-1212 1282 0
18 -1212 1283 0
-1213 1283 0
18 -1213 1284 0
-1214 1284 0
18 -1214 1285 0
-1215 1285 0
18 -1215 1286 0
-1216 1286 0
18 -1216 1287 0
-1217 1287 0
18 -1217 1288 0
-1218 1288 0
18 -1218 1289 0
-1219 1289 0
18 -1219 1290 0
-1220 1290 0
18 -1220 1291 0
-1221 1291 0
18 -1221 1292 0
-1222 1292 0
18 -1222 1293 0
-1223 1293 0
18 -1223 1294 0
-1224 1294 0
18 -1224 1295 0
-1225 1295 0
18 -1225 1296 0
-1226 1296 0
18 -1226 1297 0
-1227 1297 0
18 -1227 1298 0
-1228 1298 0
18 -1228 1299 0
-1229 1299 0
18 -1229 1300 0
-1230 1300 0
18 -1230 1301 0
-1231 1301 0
18 -1231 1302 0
-1232 1302 0
18 -1232 1303 0
-1233 1303 0
18 -1233 1304 0
-1234 1304 0
18 -1234 1305 0
-1235 1305 0
18 -1235 1306 0
-1236 1306 0
18 -1236 1307 0
-1237 1307 0
18 -1237 1308 0
-1238 1308 0
18 -1238 1309 0
-1239 1309 0
18 -1239 1310 0
-1240 1310 0
18 -1240 1311 0
-1241 1311 0
18 -1241 1312 0
-1242 1312 0
18 -1242 1313 0
-1243 1313 0
18 -1243 1314 0
-1244 1314 0
18 -1244 1315 0
-1245 1315 0
18 -1245 1316 0
-1246 1316 0
18 -1246 1317 0
-1247 1317 0
18 -1247 1318 0
-1248 1318 0
18 -1248 1319 0
-1249 1319 0
18 -1249 1320 0
-1250 1320 0
18 -1250 1321 0
-1251 1321 0
18 -1251 1322 0
-1252 1322 0
18 -1252 1323 0
-1253 1323 0
18 -1253 1324 0
-1254 1324 0
18 -1254 1325 0
-1255 1325 0
18 -1255 1326 0
-1256 1326 0
18 -1256 1327 0
-1257 1327 0
18 -1257 1328 0
-1258 1328 0
18 -1258 1329 0
-1259 1329 0
18 -1259 1330 0
-1260 1330 0
18 -1260 1331 0
-1261 1331 0
18 -1261 1332 0
-1262 1332 0
18 -1262 1333 0
-1263 1333 0
18 -1263 1334 0
-1264 1334 0
18 -1264 1335 0
-1265 1335 0
18 -1265 1336 0
-1266 1336 0
18 -1266 1337 0
-1267 1337 0
18 -1267 1338 0
-1268 1338 0
18 -1268 1339 0
-1269 1339 0
18 -1269 1340 0
-1270 1340 0
18 -1270 1341 0
-1271 1341 0
18 -1271 1342 0
-1272 1342 0
18 -1272 0
19 1343 0
-1273 1343 0
19 -1273 1344 0
-1274 1344 0
19 -1274 1345 0
-1275 1345 0
19 -1275 1346 0
-1276 1346 0
19 -1276 1347 0
-1277 1347 0
19 -1277 1348 0
-1278 1348 0
19 -1278 1349 0
-1279 1349 0
19 -1279 1350 0
-1280 1350 0
19 -1280 1351 0
-1281 1351 0
19 -1281 1352 0
-1282 1352 0
19 -1282 1353 0
-1283 1353 0
19 -1283 1354 0
-1284 1354 0
19 -1284 1355 0
-1285 1355 0
19 -1285 1356 0
-1286 1356 0
19 -1286 1357 0
-1287 1357 0
19 -1287 1358 0
-1288 1358 0
19 -1288 1359 0
-1289 1359 0
19 -1289 1360 0
-1290 1360 0
19 -1290 1361 0
-1291 1361 0
19 -1291 1362 0
-1292 1362 0
19 -1292 1363 0
-1293 1363 0
19 -1293 1364 0
-1294 1364 0
19 -1294 1365 0
-1295 1365 0
19 -1295 1366 0
-1296 1366 0
19 -1296 1367 0
-1297 1367 0
19 -1297 1368 0
-1298 1368 0
19 -1298 1369 0
-1299 1369 0
19 -1299 1370 0
-1300 1370 0
19 -1300 1371 0
-1301 1371 0
19 -1301 1372 0
-1302 1372 0
19 -1302 1373 0
-1303 1373 0
19 -1303 1374 0
-1304 1374 0
19 -1304 1375 0
-1305 1375 0
19 -1305 1376 0
-1306 1376 0
19 -1306 1377 0
-1307 1377 0
19 -1307 1378 0
-1308 1378 0
19 -1308 1379 0
-1309 1379 0
19 -1309 1380 0
-1310 1380 0
19 -1310 1381 0
-1311 1381 0
19 -1311 1382 0
-1312 1382 0
19 -1312 1383 0
-1313 1383 0
19 -1313 1384 0
-1314 1384 0
19 -1314 1385 0
-1315 1385 0
19 -1315 1386 0
-1316 1386 0
19 -1316 1387 0
-1317 1387 0
19 -1317 1388 0
-1318 1388 0
19 -1318 1389 0
-1319 1389 0
19 -1319 1390 0
-1320 1390 0
19 -1320 1391 0
-1321 1391 0
19 -1321 1392 0
-1322 1392 0
19 -1322 1393 0
-1323 1393 0
19 -1323 1394 0
-1324 1394 0
19 -1324 1395 0
-1325 1395 0
19 -1325 1396 0
-1326 1396 0
19 -1326 1397 0
-1327 1397 0
19 -1327 1398 0
-1328 1398 0
19 -1328 1399 0
-1329 1399 0
19 -1329 1400 0
-1330 1400 0
19 -1330 1401 0
-1331 1401 0
19 -1331 1402 0
-1332 1402 0
19 -1332 1403 0
-1333 1403 0
19 -1333 1404 0
-1334 1404 0
19 -1334 1405 0
-1335 1405 0
19 -1335 1406 0
-1336 1406 0
19 -1336 1407 0
-1337 1407 0
19 -1337 1408 0
-1338 1408 0
19 -1338 1409 0
-1339 1409 0
19 -1339 1410 0
-1340 1410 0
19 -1340 1411 0
-1341 1411 0
19 -1341 1412 0
-1342 1412 0
19 -1342 0
20 1413 0
-1343 1413 0
20 -1343 1414 0
-1344 1414 0
20 -1344 1415 0
-1345 1415 0
20 -1345 1416 0
-1346 1416 0
20 -1346 1417 0
-1347 1417 0
20 -1347 1418 0
-1348 1418 0
20 -1348 1419 0
-1349 1419 0
20 -1349 1420 0
-1350 1420 0
20 -1350 1421 0
-1351 1421 0
20 -1351 1422 0
-1352 1422 0
20 -1352 1423 0
-1353 1423 0
20 -1353 1424 0
-1354 1424 0
20 -1354 1425 0
-1355 1425 0
20 -1355 1426 0
-1356 1426 0
20 -1356 1427 0
-1357 1427 0
20 -1357 1428 0
-1358 1428 0
20 -1358 1429 0
-1359 1429 0
20 -1359 1430 0
-1360 1430 0
20 -1360 1431 0
-1361 1431 0
20 -1361 1432 0
-1362 1432 0
20 -1362 1433 0
-1363 1433 0
20 -1363 1434 0
-1364 1434 0
20 -1364 1435 0
-1365 1435 0
20 -1365 1436 0
-1366 1436 0
20 -1366 1437 0
-1367 1437 0
20 -1367 1438 0
-1368 1438 0
20 -1368 1439 0
-1369 1439 0
20 -1369 1440 0
-1370 1440 0
20 -1370 1441 0
-1371 1441 0
20 -1371 1442 0
-1372 1442 0
20 -1372 1443 0
-1373 1443 0
20 -1373 1444 0
-1374 1444 0
20 -1374 1445 0
-1375 1445 0
20 -1375 1446 0
-1376 1446 0
20 -1376 1447 0
-1377 1447 0
20 -1377 1448 0
-1378 1448 0
20 -1378 1449 0
-1379 1449 0
20 -1379 1450 0
-1380 1450 0
20 -1380 1451 0
-1381 1451 0
20 -1381 1452 0
-1382 1452 0
20 -1382 1453 0
-1383 1453 0
20 -1383 1454 0
-1384 1454 0
20 -1384 1455 0
-1385 1455 0
20 -1385 1456 0
-1386 1456 0
20 -1386 1457 0
-1387 1457 0
20 -1387 1458 0
-1388 1458 0
20 -1388 1459 0
-1389 1459 0
20 -1389 1460 0
-1390 1460 0
20 -1390 1461 0
-1391 1461 0
20 -1391 1462 0
-1392 1462 0
20 -1392 1463 0
-1393 1463 0
20 -1393 1464 0
-1394 1464 0
20 -1394 1465 0
-1395 1465 0
20 -1395 1466 0
-1396 1466 0
20 -1396 1467 0
-1397 1467 0
20 -1397 1468 0
-1398 1468 0
20 -1398 1469 0
-1399 1469 0
20 -1399 1470 0
-1400 1470 0
20 -1400 1471 0
-1401 1471 0
20 -1401 1472 0
-1402 1472 0
20 -1402 1473 0
-1403 1473 0
20 -1403 1474 0
-1404 1474 0
20 -1404 1475 0
-1405 1475 0
20 -1405 1476 0
-1406 1476 0
20 -1406 1477 0
-1407 1477 0
20 -1407 1478 0
-1408 1478 0
20 -1408 1479 0
-1409 1479 0
20 -1409 1480 0
-1410 1480 0
20 -1410 1481 0
-1411 1481 0
20 -1411 1482 0
-1412 1482 0
20 -1412 0
21 1483 0
-1413 1483 0
21 -1413 1484 0
-1414 1484 0
21 -1414 1485 0
-1415 1485 0
21 -1415 1486 0
-1416 1486 0
21 -1416 1487 0
-1417 1487 0
21 -1417 1488 0
-1418 1488 0
21 -1418 1489 0
-1419 1489 0
21 -1419 1490 0
-1420 1490 0
21 -1420 1491 0
-1421 1491 0
21 -1421 1492 0
-1422 1492 0
21 -1422 1493 0
-1423 1493 0
21 -1423 1494 0
-1424 1494 0
21 -1424 1495 0
-1425 1495 0
21 -1425 1496 0
-1426 1496 0
21 -1426 1497 0
-1427 1497 0
21 -1427 1498 0
-1428 1498 0
21 -1428 1499 0
-1429 1499 0
21 -1429 1500 0
-1430 1500 0
21 -1430 1501 0
-1431 1501 0
21 -1431 1502 0
-1432 1502 0
21 -1432 1503 0
-1433 1503 0
21 -1433 1504 0
-1434 1504 0
21 -1434 1505 0
-1435 1505 0
21 -1435 1506 0
-1436 1506 0
21 -1436 1507 0
-1437 1507 0
21 -1437 1508 0
-1438 1508 0
21 -1438 1509 0
-1439 1509 0
21 -1439 1510 0
-1440 1510 0
21 -1440 1511 0
-1441 1511 0
21 -1441 1512 0
-1442 1512 0
21 -1442 1513 0
-1443 1513 0
21 -1443 1514 0
-1444 1514 0
21 -1444 1515 0
-1445 1515 0
21 -1445 1516 0
-1446 1516 0
21 -1446 1517 0
-1447 1517 0
21 -1447 1518 0
-1448 1518 0
21 -1448 1519 0
-1449 1519 0
21 -1449 1520 0
-1450 1520 0
21 -1450 1521 0
-1451 1521 0
21 -1451 1522 0
-1452 1522 0
21 -1452 1523 0
-1453 1523 0
21 -1453 1524 0
-1454 1524 0
21 -1454 1525 0
-1455 1525 0
21 -1455 1526 0
-1456 1526 0
21 -1456 1527 0
-1457 1527 0
21 -1457 1528 0
-1458 1528 0
21 -1458 1529 0
-1459 1529 0
21 -1459 1530 0
-1460 1530 0
21 -1460 1531 0
-1461 1531 0
21 -1461 1532 0
-1462 1532 0
21 -1462 1533 0
-1463 1533 0
21 -1463 1534 0
-1464 1534 0
21 -1464 1535 0
-1465 1535 0
21 -1465 1536 0
-1466 1536 0
21 -1466 1537 0
-1467 1537 0
21 -1467 1538 0
-1468 1538 0
21 -1468 1539 0
-1469 1539 0
21 -1469 1540 0
-1470 1540 0
21 -1470 1541 0
-1471 1541 0
21 -1471 1542 0
-1472 1542 0
21 -1472 1543 0
-1473 1543 0
21 -1473 1544 0
-1474 1544 0
21 -1474 1545 0
-1475 1545 0
21 -1475 1546 0
-1476 1546 0
21 -1476 1547 0
-1477 1547 0
21 -1477 1548 0
-1478 1548 0
21 -1478 1549 0
-1479 1549 0
21 -1479 1550 0
-1480 1550 0
21 -1480 1551 0
-1481 1551 0
21 -1481 1552 0
-1482 1552 0
21 -1482 0
22 1553 0
-1483 1553 0
22 -1483 1554 0
-1484 1554 0
22 -1484 1555 0
-1485 1555 0
22 -1485 1556 0
-1486 1556 0
22 -1486 1557 0
-1487 1557 0
22 -1487 1558 0
-1488 1558 0
22 -1488 1559 0
-1489 1559 0
22 -1489 1560 0
-1490 1560 0
22 -1490 1561 0
-1491 1561 0
22 -1491 1562 0
-1492 1562 0
22 -1492 1563 0
-1493 1563 0
22 -1493 1564 0
-1494 1564 0
22 -1494 1565 0
-1495 1565 0
22 -1495 1566 0
-1496 1566 0
22 -1496 1567 0
-1497 1567 0
22 -1497 1568 0
-1498 1568 0
22 -1498 1569 0
-1499 1569 0
22 -1499 1570 0
-1500 1570 0
22 -1500 1571 0
-1501 1571 0
22 -1501 1572 0
-1502 1572 0
22 -1502 1573 0
-1503 1573 0
22 -1503 1574 0
-1504 1574 0
22 -1504 1575 0
-1505 1575 0
22 -1505 1576 0
-1506 1576 0
22 -1506 1577 0
-1507 1577 0
22 -1507 1578 0
-1508 1578 0
22 -1508 1579 0
-1509 1579 0
22 -1509 1580 0
-1510 1580 0
22 -1510 1581 0
-1511 1581 0
22 -1511 1582 0
-1512 1582 0
22 -1512 1583 0
-1513 1583 0
22 -1513 1584 0
-1514 1584 0
22 -1514 1585 0
-1515 1585 0
22 -1515 1586 0
-1516 1586 0
22 -1516 1587 0
-1517 1587 0
22 -1517 1588 0
-1518 1588 0
22 -1518 1589 0
-1519 1589 0
22 -1519 1590 0
-1520 1590 0
22 -1520 1591 0
-1521 1591 0
22 -1521 1592 0
-1522 1592 0
22 -1522 1593 0
-1523 1593 0
22 -1523 1594 0
-1524 1594 0
22 -1524 1595 0
-1525 1595 0
22 -1525 1596 0
-1526 1596 0
22 -1526 1597 0
-1527 1597 0
22 -1527 1598 0
-1528 1598 0
22 -1528 1599 0
-1529 1599 0
22 -1529 1600 0
-1530 1600 0
22 -1530 1601 0
-1531 1601 0
22 -1531 1602 0
-1532 1602 0
22 -1532 1603 0
-1533 1603 0
22 -1533 1604 0
-1534 1604 0
22 -1534 1605 0
-1535 1605 0
22 -1535 1606 0
-1536 1606 0
22 -1536 1607 0
-1537 1607 0
22 -1537 1608 0
-1538 1608 0
22 -1538 1609 0
-1539 1609 0
22 -1539 1610 0
-1540 1610 0
22 -1540 1611 0
-1541 1611 0
22 -1541 1612 0
-1542 1612 0
22 -1542 1613 0
-1543 1613 0
22 -1543 1614 0
-1544 1614 0
22 -1544 1615 0
-1545 1615 0
22 -1545 1616 0
-1546 1616 0
22 -1546 1617 0
-1547 1617 0
22 -1547 1618 0
-1548 1618 0
22 -1548 1619 0
-1549 1619 0
22 -1549 1620 0
-1550 1620 0
22 -1550 1621 0
-1551 1621 0
22 -1551 1622 0
-1552 1622 0
22 -1552 0
23 1623 0
-1553 1623 0
23 -1553 1624 0
-1554 1624 0
23 -1554 1625 0
-1555 1625 0
23 -1555 1626 0
-1556 1626 0
23 -1556 1627 0
-1557 1627 0
23 -1557 1628 0
-1558 1628 0
23 -1558 1629 0
-1559 1629 0
23 -1559 1630 0
-1560 1630 0
23 -1560 1631 0
-1561 1631 0
23 -1561 1632 0
-1562 1632 0
23 -1562 1633 0
-1563 1633 0
23 -1563 1634 0
-1564 1634 0
23 -1564 1635 0
-1565 1635 0
23 -1565 1636 0
-1566 1636 0
23 -1566 1637 0
-1567 1637 0
23 -1567 1638 0
-1568 1638 0
23 -1568 1639 0
-1569 1639 0
23 -1569 1640 0
-1570 1640 0
23 -1570 1641 0
-1571 1641 0
23 -1571 1642 0
-1572 1642 0
23 -1572 1643 0
-1573 1643 0
23 -1573 1644 0
-1574 1644 0
23 -1574 1645 0
-1575 1645 0
23 -1575 1646 0
-1576 1646 0
23 -1576 1647 0
-1577 1647 0
23 -1577 1648 0
-1578 1648 0
23 -1578 1649 0
-1579 1649 0
23 -1579 1650 0
-1580 1650 0
23 -1580 1651 0
-1581 1651 0
23 -1581 1652 0
-1582 1652 0
23 -1582 1653 0
-1583 1653 0
23 -1583 1654 0
-1584 1654 0
23 -1584 1655 0
-1585 1655 0
23 -1585 1656 0
-1586 1656 0
23 -1586 1657 0
-1587 1657 0
23 -1587 1658 0
-1588 1658 0
23 -1588 1659 0
-1589 1659 0
23 -1589 1660 0
-1590 1660 0
23 -1590 1661 0
-1591 1661 0
23 -1591 1662 0
-1592 1662 0
23 -1592 1663 0
-1593 1663 0
23 -1593 1664 0
-1594 1664 0
23 -1594 1665 0
-1595 1665 0
23 -1595 1666 0
-1596 1666 0
23 -1596 1667 0
-1597 1667 0
23 -1597 1668 0
-1598 1668 0
23 -1598 1669 0
-1599 1669 0
23 -1599 1670 0
-1600 1670 0
23 -1600 1671 0
-1601 1671 0
23 -1601 1672 0
-1602 1672 0
23 -1602 1673 0
-1603 1673 0
23 -1603 1674 0
-1604 1674 0
23 -1604 1675 0
-1605 1675 0
23 -1605 1676 0
-1606 1676 0
23 -1606 1677 0
-1607 1677 0
23 -1607 1678 0
-1608 1678 0
23 -1608 1679 0
-1609 1679 0
23 -1609 1680 0
-1610 1680 0
23 -1610 1681 0
-1611 1681 0
23 -1611 1682 0
-1612 1682 0
23 -1612 1683 0
-1613 1683 0
23 -1613 1684 0
-1614 1684 0
23 -1614 1685 0
-1615 1685 0
23 -1615 1686 0
-1616 1686 0
23 -1616 1687 0
-1617 1687 0
23 -1617 1688 0
-1618 1688 0
23 -1618 1689 0
-1619 1689 0
23 -1619 1690 0
-1620 1690 0
23 -1620 1691 0
-1621 1691 0
23 -1621 1692 0
-1622 1692 0
23 -1622 0
24 1693 0
-1623 1693 0
24 -1623 1694 0
-1624 1694 0
24 -1624 1695 0
-1625 1695 0
24 -1625 1696 0
-1626 1696 0
24 -1626 1697 0
-1627 1697 0
24 -1627 1698 0
-1628 1698 0
24 -1628 1699 0
-1629 1699 0
24 -1629 1700 0
-1630 1700 0
24 -1630 1701 0
-1631 1701 0
24 -1631 1702 0
-1632 1702 0
24 -1632 1703 0
-1633 1703 0
24 -1633 1704 0
-1634 1704 0
24 -1634 1705 0
-1635 1705 0
24 -1635 1706 0
-1636 1706 0
24 -1636 1707 0
-1637 1707 0
24 -1637 1708 0
-1638 1708 0
24 -1638 1709 0
-1639 1709 0
24 -1639 1710 0
-1640 1710 0
24 -1640 1711 0
-1641 1711 0
24 -1641 1712 0
-1642 1712 0
24 -1642 1713 0
-1643 1713 0
24 -1643 1714 0
-1644 1714 0
24 -1644 1715 0
-1645 1715 0
24 -1645 1716 0
-1646 1716 0
24 -1646 1717 0
-1647 1717 0
24 -1647 1718 0
-1648 1718 0
24 -1648 1719 0
-1649 1719 0
24 -1649 1720 0
-1650 1720 0
24 -1650 1721 0
-1651 1721 0
24 -1651 1722 0
-1652 1722 0
24 -1652 1723 0
-1653 1723 0
24 -1653 1724 0
-1654 1724 0
24 -1654 1725 0
-1655 1725 0
24 -1655 1726 0
-1656 1726 0
24 -1656 1727 0
-1657 1727 0
24 -1657 1728 0
-1658 1728 0
24 -1658 1729 0
-1659 1729 0
24 -1659 1730 0
-1660 1730 0
24 -1660 1731 0
-1661 1731 0
24 -1661 1732 0
-1662 1732 0
24 -1662 1733 0
-1663 1733 0
24 -1663 1734 0
-1664 1734 0
24 -1664 1735 0
-1665 1735 0
24 -1665 1736 0
-1666 1736 0
24 -1666 1737 0
-1667 1737 0
24 -1667 1738 0
-1668 1738 0
24 -1668 1739 0
-1669 1739 0
24 -1669 1740 0
-1670 1740 0
24 -1670 1741 0
-1671 1741 0
24 -1671 1742 0
-1672 1742 0
24 -1672 1743 0
-1673 1743 0
24 -1673 1744 0
-1674 1744 0
24 -1674 1745 0
-1675 1745 0
24 -1675 1746 0
-1676 1746 0
24 -1676 1747 0
-1677 1747 0
24 -1677 1748 0
-1678 1748 0
24 -1678 1749 0
-1679 1749 0
24 -1679 1750 0
-1680 1750 0
24 -1680 1751 0
-1681 1751 0
24 -1681 1752 0
-1682 1752 0
24 -1682 1753 0
-1683 1753 0
24 -1683 1754 0
-1684 1754 0
24 -1684 1755 0
-1685 1755 0
24 -1685 1756 0
-1686 1756 0
24 -1686 1757 0
-1687 1757 0
24 -1687 1758 0
-1688 1758 0
24 -1688 1759 0
-1689 1759 0
24 -1689 1760 0
-1690 1760 0
24 -1690 1761 0
-1691 1761 0
24 -1691 1762 0
-1692 1762 0
24 -1692 0
25 1763 0
-1693 1763 0
25 -1693 1764 0
-1694 1764 0
25 -1694 1765 0
-1695 1765 0
25 -1695 1766 0
-1696 1766 0
25 -1696 1767 0
-1697 1767 0
25 -1697 1768 0
-1698 1768 0
25 -1698 1769 0
-1699 1769 0
25 -1699 1770 0
-1700 1770 0
25 -1700 1771 0
-1701 1771 0
25 -1701 1772 0
-1702 1772 0
25 -1702 1773 0
-1703 1773 0
25 -1703 1774 0
-1704 1774 0
25 -1704 1775 0
-1705 1775 0
25 -1705 1776 0
-1706 1776 0
25 -1706 1777 0
-1707 1777 0
25 -1707 1778 0
-1708 1778 0
25 -1708 1779 0
-1709 1779 0
25 -1709 1780 0
-1710 1780 0
25 -1710 1781 0
-1711 1781 0
25 -1711 1782 0
-1712 1782 0
25 -1712 1783 0
-1713 1783 0
25 -1713 1784 0
-1714 1784 0
25 -1714 1785 0
-1715 1785 0
25 -1715 1786 0
-1716 1786 0
25 -1716 1787 0
-1717 1787 0
25 -1717 1788 0
-1718 1788 0
25 -1718 1789 0
-1719 1789 0
25 -1719 1790 0
-1720 1790 0
25 -1720 1791 0
-1721 1791 0
25 -1721 1792 0
-1722 1792 0
25 -1722 1793 0
-1723 1793 0
25 -1723 1794 0
-1724 1794 0
25 -1724 1795 0
-1725 1795 0
25 -1725 1796 0
-1726 1796 0
25 -1726 1797 0
-1727 1797 0
25 -1727 1798 0
-1728 1798 0
25 -1728 1799 0
-1729 1799 0
25 -1729 1800 0
-1730 1800 0
25 -1730 1801 0
-1731 1801 0
25 -1731 1802 0
-1732 1802 0
25 -1732 1803 0
-1733 1803 0
25 -1733 1804 0
-1734 1804 0
25 -1734 1805 0
-1735 1805 0
25 -1735 1806 0
-1736 1806 0
25 -1736 1807 0
-1737 1807 0
25 -1737 1808 0
-1738 1808 0
25 -1738 1809 0
-1739 1809 0
25 -1739 1810 0
-1740 1810 0
25 -1740 1811 0
-1741 1811 0
25 -1741 1812 0
-1742 1812 0
25 -1742 1813 0
-1743 1813 0
25 -1743 1814 0
-1744 1814 0
25 -1744 1815 0
-1745 1815 0
25 -1745 1816 0
-1746 1816 0
25 -1746 1817 0
-1747 1817 0
25 -1747 1818 0
-1748 1818 0
25 -1748 1819 0
-1749 1819 0
25 -1749 1820 0
-1750 1820 0
25 -1750 1821 0
-1751 1821 0
25 -1751 1822 0
-1752 1822 0
25 -1752 1823 0
-1753 1823 0
25 -1753 1824 0
-1754 1824 0
25 -1754 1825 0
-1755 1825 0
25 -1755 1826 0
-1756 1826 0
25 -1756 1827 0
-1757 1827 0
25 -1757 1828 0
-1758 1828 0
25 -1758 1829 0
-1759 1829 0
25 -1759 1830 0
-1760 1830 0
25 -1760 1831 0
-1761 1831 0
25 -1761 1832 0
-1762 1832 0
25 -1762 0
26 1833 0
-1763 1833 0
26 -1763 1834 0
-1764 1834 0
26 -1764 1835 0
-1765 1835 0
26 -1765 1836 0
-1766 1836 0
26 -1766 1837 0
-1767 1837 0
26 -1767 1838 0
-1768 1838 0
26 -1768 1839 0
-1769 1839 0
26 -1769 1840 0
-1770 1840 0
26 -1770 1841 0
-1771 1841 0
26 -1771 1842 0
-1772 1842 0
26 -1772 1843 0
-1773 1843 0
26 -1773 1844 0
-1774 1844 0
26 -1774 1845 0
-1775 1845 0
26 -1775 1846 0
-1776 1846 0
26 -1776 1847 0
-1777 1847 0
26 -1777 1848 0
-1778 1848 0
26 -1778 1849 0
-1779 1849 0
26 -1779 1850 0
-1780 1850 0
26 -1780 1851 0
-1781 1851 0
26 -1781 1852 0
-1782 1852 0
26 -1782 1853 0
-1783 1853 0
26 -1783 1854 0
-1784 1854 0
26 -1784 1855 0
-1785 1855 0
26 -1785 1856 0
-1786 1856 0
26 -1786 1857 0
-1787 1857 0
26 -1787 1858 0
-1788 1858 0
26 -1788 1859 0
-1789 1859 0
26 -1789 1860 0
-1790 1860 0
26 -1790 1861 0
-1791 1861 0
26 -1791 1862 0
-1792 1862 0
26 -1792 1863 0
-1793 1863 0
26 -1793 1864 0
-1794 1864 0
26 -1794 1865 0
-1795 1865 0
26 -1795 1866 0
-1796 1866 0
26 -1796 1867 0
-1797 1867 0
26 -1797 1868 0
-1798 1868 0
26 -1798 1869 0
-1799 1869 0
26 -1799 1870 0
-1800 1870 0
26 -1800 1871 0
-1801 1871 0
26 -1801 1872 0
-1802 1872 0
26 -1802 1873 0
-1803 1873 0
26 -1803 1874 0
-1804 1874 0
26 -1804 1875 0
-1805 1875 0
26 -1805 1876 0
-1806 1876 0
26 -1806 1877 0
-1807 1877 0
26 -1807 1878 0
-1808 1878 0
26 -1808 1879 0
-1809 1879 0
26 -1809 1880 0
-1810 1880 0
26 -1810 1881 0
-1811 1881 0
26 -1811 1882 0
-1812 1882 0
26 -1812 1883 0
-1813 1883 0
26 -1813 1884 0
-1814 1884 0
26 -1814 1885 0
-1815 1885 0
26 -1815 1886 0
-1816 1886 0
26 -1816 1887 0
-1817 1887 0
26 -1817 1888 0
-1818 1888 0
26 -1818 1889 0
-1819 1889 0
26 -1819 1890 0
-1820 1890 0
26 -1820 1891 0
-1821 1891 0
26 -1821 1892 0
-1822 1892 0
26 -1822 1893 0
-1823 1893 0
26 -1823 1894 0
-1824 1894 0
26 -1824 1895 0
-1825 1895 0
26 -1825 1896 0
-1826 1896 0
26 -1826 1897 0
-1827 1897 0
26 -1827 1898 0
-1828 1898 0
26 -1828 1899 0
-1829 1899 0
26 -1829 1900 0
-1830 1900 0
26 -1830 1901 0
-1831 1901 0
26 -1831 1902 0
-1832 1902 0
26 -1832 0
27 1903 0
-1833 1903 0
27 -1833 1904 0
-1834 1904 0
27 -1834 1905 0
-1835 1905 0
27 -1835 1906 0
-1836 1906 0
27 -1836 1907 0
-1837 1907 0
27 -1837 1908 0
-1838 1908 0
27 -1838 1909 0
-1839 1909 0
27 -1839 1910 0
-1840 1910 0
27 -1840 1911 0
-1841 1911 0
27 -1841 1912 0
-1842 1912 0
27 -1842 1913 0
-1843 1913 0
27 -1843 1914 0
-1844 1914 0
27 -1844 1915 0
-1845 1915 0
27 -1845 1916 0
-1846 1916 0
27 -1846 1917 0
-1847 1917 0
27 -1847 1918 0
-1848 1918 0
27 -1848 1919 0
-1849 1919 0
27 -1849 1920 0
-1850 1920 0
27 -1850 1921 0
-1851 1921 0
27 -1851 1922 0
-1852 1922 0
27 -1852 1923 0
-1853 1923 0
27 -1853 1924 0
-1854 1924 0
27 -1854 1925 0
-1855 1925 0
27 -1855 1926 0
-1856 1926 0
27 -1856 1927 0
-1857 1927 0
27 -1857 1928 0
-1858 1928 0
27 -1858 1929 0
-1859 1929 0
27 -1859 1930 0
-1860 1930 0
27 -1860 1931 0
-1861 1931 0
27 -1861 1932 0
-1862 1932 0
27 -1862 1933 0
-1863 1933 0
27 -1863 1934 0
-1864 1934 0
27 -1864 1935 0
-1865 1935 0
27 -1865 1936 0
-1866 1936 0
27 -1866 1937 0
-1867 1937 0
27 -1867 1938 0
-1868 1938 0
27 -1868 1939 0
-1869 1939 0
27 -1869 1940 0
-1870 1940 0
27 -1870 1941 0
-1871 1941 0
27 -1871 1942 0
-1872 1942 0
27 -1872 1943 0
-1873 1943 0
27 -1873 1944 0
-1874 1944 0
27 -1874 1945 0
-1875 1945 0
27 -1875 1946 0
-1876 1946 0
27 -1876 1947 0
-1877 1947 0
27 -1877 1948 0
-1878 1948 0
27 -1878 1949 0
-1879 1949 0
27 -1879 1950 0
-1880 1950 0
27 -1880 1951 0
-1881 1951 0
27 -1881 1952 0
-1882 1952 0
27 -1882 1953 0
-1883 1953 0
27 -1883 1954 0
-1884 1954 0
27 -1884 1955 0
-1885 1955 0
27 -1885 1956 0
-1886 1956 0
27 -1886 1957 0
-1887 1957 0
27 -1887 1958 0
-1888 1958 0
27 -1888 1959 0
-1889 1959 0
27 -1889 1960 0
-1890 1960 0
27 -1890 1961 0
-1891 1961 0
27 -1891 1962 0
-1892 1962 0
27 -1892 1963 0
-1893 1963 0
27 -1893 1964 0
-1894 1964 0
27 -1894 1965 0
-1895 1965 0
27 -1895 1966 0
-1896 1966 0
27 -1896 1967 0
-1897 1967 0
27 -1897 1968 0
-1898 1968 0
27 -1898 1969 0
-1899 1969 0
27 -1899 1970 0
-1900 1970 0
27 -1900 1971 0
-1901 1971 0
27 -1901 1972 0
-1902 1972 0
27 -1902 0
28 1973 0
-1903 1973 0
28 -1903 1974 0
-1904 1974 0
28 -1904 1975 0
-1905 1975 0
28 -1905 1976 0
-1906 1976 0
28 -1906 1977 0
-1907 1977 0
28 -1907 1978 0
-1908 1978 0
28 -1908 1979 0
-1909 1979 0
28 -1909 1980 0
-1910 1980 0
28 -1910 1981 0
-1911 1981 0
28 -1911 1982 0
-1912 1982 0
28 -1912 1983 0
-1913 1983 0
28 -1913 1984 0
-1914 1984 0
28 -1914 1985 0
-1915 1985 0
28 -1915 1986 0
-1916 1986 0
28 -1916 1987 0
-1917 1987 0
28 -1917 1988 0
-1918 1988 0
28 -1918 1989 0
-1919 1989 0
28 -1919 1990 0
-1920 1990 0
28 -1920 1991 0
-1921 1991 0
28 -1921 1992 0
-1922 1992 0
28 -1922 1993 0
-1923 1993 0
28 -1923 1994 0
-1924 1994 0
28 -1924 1995 0
-1925 1995 0
28 -1925 1996 0
-1926 1996 0
28 -1926 1997 0
-1927 1997 0
28 -1927 1998 0
-1928 1998 0
28 -1928 1999 0
-1929 1999 0
28 -1929 2000 0
-1930 2000 0
28 -1930 2001 0
-1931 2001 0
28 -1931 2002 0
-1932 2002 0
28 -1932 2003 0
-1933 2003 0
28 -1933 2004 0
-1934 2004 0
28 -1934 2005 0
-1935 2005 0
28 -1935 2006 0
-1936 2006 0
28 -1936 2007 0
-1937 2007 0
28 -1937 2008 0
-1938 2008 0
28 -1938 2009 0
-1939 2009 0
28 -1939 2010 0
-1940 2010 0
28 -1940 2011 0
-1941 2011 0
28 -1941 2012 0
-1942 2012 0
28 -1942 2013 0
-1943 2013 0
28 -1943 2014 0
-1944 2014 0
28 -1944 2015 0
-1945 2015 0
28 -1945 2016 0
-1946 2016 0
28 -1946 2017 0
-1947 2017 0
28 -1947 2018 0
-1948 2018 0
28 -1948 2019 0
-1949 2019 0
28 -1949 2020 0
-1950 2020 0
28 -1950 2021 0
-1951 2021 0
28 -1951 2022 0
-1952 2022 0
28 -1952 2023 0
-1953 2023 0
28 -1953 2024 0
-1954 2024 0
28 -1954 2025 0
-1955 2025 0
28 -1955 2026 0
-1956 2026 0
28 -1956 2027 0
-1957 2027 0
28 -1957 2028 0
-1958 2028 0
28 -1958 2029 0
-1959 2029 0
28 -1959 2030 0
-1960 2030 0
28 -1960 2031 0
-1961 2031 0
28 -1961 2032 0
-1962 2032 0
28 -1962 2033 0
-1963 2033 0
28 -1963 2034 0
-1964 2034 0
28 -1964 2035 0
-1965 2035 0
28 -1965 2036 0
-1966 2036 0
28 -1966 2037 0
-1967 2037 0
28 -1967 2038 0
-1968 2038 0
28 -1968 2039 0
-1969 2039 0
28 -1969 2040 0
-1970 2040 0
28 -1970 2041 0
-1971 2041 0
28 -1971 2042 0
-1972 2042 0
28 -1972 0
29 2043 0
-1973 2043 0
29 -1973 2044 0
-1974 2044 0
29 -1974 2045 0
-1975 2045 0
29 -1975 2046 0
-1976 2046 0
29 -1976 2047 0
-1977 2047 0
29 -1977 2048 0
-1978 2048 0
29 -1978 2049 0
-1979 2049 0
29 -1979 2050 0
-1980 2050 0
29 -1980 2051 0
-1981 2051 0
29 -1981 2052 0
-1982 2052 0
29 -1982 2053 0
-1983 2053 0
29 -1983 2054 0
-1984 2054 0
29 -1984 2055 0
-1985 2055 0
29 -1985 2056 0
-1986 2056 0
29 -1986 2057 0
-1987 2057 0
29 -1987 2058 0
-1988 2058 0
29 -1988 2059 0
-1989 2059 0
29 -1989 2060 0
-1990 2060 0
29 -1990 2061 0
-1991 2061 0
29 -1991 2062 0
-1992 2062 0
29 -1992 2063 0
-1993 2063 0
29 -1993 2064 0
-1994 2064 0
29 -1994 2065 0
-1995 2065 0
29 -1995 2066 0
-1996 2066 0
29 -1996 2067 0
-1997 2067 0
29 -1997 2068 0
-1998 2068 0
29 -1998 2069 0
-1999 2069 0
29 -1999 2070 0
-2000 2070 0
29 -2000 2071 0
-2001 2071 0
29 -2001 2072 0
-2002 2072 0
29 -2002 2073 0
-2003 2073 0
29 -2003 2074 0
-2004 2074 0
29 -2004 2075 0
-2005 2075 0
29 -2005 2076 0
-2006 2076 0
29 -2006 2077 0
-2007 2077 0
29 -2007 2078 0
-2008 2078 0
29 -2008 2079 0
-2009 2079 0
29 -2009 2080 0
-2010 2080 0
29 -2010 2081 0
-2011 2081 0
29 -2011 2082 0
-2012 2082 0
29 -2012 2083 0
-2013 2083 0
29 -2013 2084 0
-2014 2084 0
29 -2014 2085 0
-2015 2085 0
29 -2015 2086 0
-2016 2086 0
29 -2016 2087 0
-2017 2087 0
29 -2017 2088 0
-2018 2088 0
29 -2018 2089 0
-2019 2089 0
29 -2019 2090 0
-2020 2090 0
29 -2020 2091 0
-2021 2091 0
29 -2021 2092 0
-2022 2092 0
29 -2022 2093 0
-2023 2093 0
29 -2023 2094 0
-2024 2094 0
29 -2024 2095 0
-2025 2095 0
29 -2025 2096 0
-2026 2096 0
29 -2026 2097 0
-2027 2097 0
29 -2027 2098 0
-2028 2098 0
29 -2028 2099 0
-2029 2099 0
29 -2029 2100 0
-2030 2100 0
29 -2030 2101 0
-2031 2101 0
29 -2031 2102 0
-2032 2102 0
29 -2032 2103 0
-2033 2103 0
29 -2033 2104 0
-2034 2104 0
29 -2034 2105 0
-2035 2105 0
29 -2035 2106 0
-2036 2106 0
29 -2036 2107 0
-2037 2107 0
29 -2037 2108 0
-2038 2108 0
29 -2038 2109 0
-2039 2109 0
29 -2039 2110 0
-2040 2110 0
29 -2040 2111 0
-2041 2111 0
29 -2041 2112 0
-2042 2112 0
29 -2042 0
30 2113 0
-2043 2113 0
30 -2043 2114 0
-2044 2114 0
30 -2044 2115 0
-2045 2115 0
30 -2045 2116 0
-2046 2116 0
30 -2046 2117 0
-2047 2117 0
30 -2047 2118 0
-2048 2118 0
30 -2048 2119 0
-2049 2119 0
30 -2049 2120 0
-2050 2120 0
30 -2050 2121 0
-2051 2121 0
30 -2051 2122 0
-2052 2122 0
30 -2052 2123 0
-2053 2123 0
30 -2053 2124 0
-2054 2124 0
30 -2054 2125 0
-2055 2125 0
30 -2055 2126 0
-2056 2126 0
30 -2056 2127 0
-2057 2127 0
30 -2057 2128 0
-2058 2128 0
30 -2058 2129 0
-2059 2129 0
30 -2059 2130 0
-2060 2130 0
30 -2060 2131 0
-2061 2131 0
30 -2061 2132 0
-2062 2132 0
30 -2062 2133 0
-2063 2133 0
30 -2063 2134 0
-2064 2134 0
30 -2064 2135 0
-2065 2135 0
30 -2065 2136 0
-2066 2136 0
30 -2066 2137 0
-2067 2137 0
30 -2067 2138 0
-2068 2138 0
30 -2068 2139 0
-2069 2139 0
30 -2069 2140 0
-2070 2140 0
30 -2070 2141 0
-2071 2141 0
30 -2071 2142 0
-2072 2142 0
30 -2072 2143 0
-2073 2143 0
30 -2073 2144 0
-2074 2144 0
30 -2074 2145 0
-2075 2145 0
30 -2075 2146 0
-2076 2146 0
30 -2076 2147 0
-2077 2147 0
30 -2077 2148 0
-2078 2148 0
30 -2078 2149 0
-2079 2149 0
30 -2079 2150 0
-2080 2150 0
30 -2080 2151 0
-2081 2151 0
30 -2081 2152 0
-2082 2152 0
30 -2082 2153 0
-2083 2153 0
30 -2083 2154 0
-2084 2154 0
30 -2084 2155 0
-2085 2155 0
30 -2085 2156 0
-2086 2156 0
30 -2086 2157 0
-2087 2157 0
30 -2087 2158 0
-2088 2158 0
30 -2088 2159 0
-2089 2159 0
30 -2089 2160 0
-2090 2160 0
30 -2090 2161 0
-2091 2161 0
30 -2091 2162 0
-2092 2162 0
30 -2092 2163 0
-2093 2163 0
30 -2093 2164 0
-2094 2164 0
30 -2094 2165 0
-2095 2165 0
30 -2095 2166 0
-2096 2166 0
30 -2096 2167 0
-2097 2167 0
30 -2097 2168 0
-2098 2168 0
30 -2098 2169 0
-2099 2169 0
30 -2099 2170 0
-2100 2170 0
30 -2100 2171 0
-2101 2171 0
30 -2101 2172 0
-2102 2172 0
30 -2102 2173 0
-2103 2173 0
30 -2103 2174 0
-2104 2174 0
30 -2104 2175 0
-2105 2175 0
30 -2105 2176 0
-2106 2176 0
30 -2106 2177 0
-2107 2177 0
30 -2107 2178 0
-2108 2178 0
30 -2108 2179 0
-2109 2179 0
30 -2109 2180 0
-2110 2180 0
30 -2110 2181 0
-2111 2181 0
30 -2111 2182 0
-2112 2182 0
30 -2112 0
31 2183 0
-2113 2183 0
31 -2113 2184 0
-2114 2184 0
31 -2114 2185 0
-2115 2185 0
31 -2115 2186 0
-2116 2186 0
31 -2116 2187 0
-2117 2187 0
31 -2117 2188 0
-2118 2188 0
31 -2118 2189 0
-2119 2189 0
31 -2119 2190 0
-2120 2190 0
31 -2120 2191 0
-2121 2191 0
31 -2121 2192 0
-2122 2192 0
31 -2122 2193 0
-2123 2193 0
31 -2123 2194 0
-2124 2194 0
31 -2124 2195 0
-2125 2195 0
31 -2125 2196 0
-2126 2196 0
31 -2126 2197 0
-2127 2197 0
31 -2127 2198 0
-2128 2198 0
31 -2128 2199 0
-2129 2199 0
31 -2129 2200 0
-2130 2200 0
31 -2130 2201 0
-2131 2201 0
31 -2131 2202 0
-2132 2202 0
31 -2132 2203 0
-2133 2203 0
31 -2133 2204 0
-2134 2204 0
31 -2134 2205 0
-2135 2205 0
31 -2135 2206 0
-2136 2206 0
31 -2136 2207 0
-2137 2207 0
31 -2137 2208 0
-2138 2208 0
31 -2138 2209 0
-2139 2209 0
31 -2139 2210 0
-2140 2210 0
31 -2140 2211 0
-2141 2211 0
31 -2141 2212 0
-2142 2212 0
31 -2142 2213 0
-2143 2213 0
31 -2143 2214 0
-2144 2214 0
31 -2144 2215 0
-2145 2215 0
31 -2145 2216 0
-2146 2216 0
31 -2146 2217 0
-2147 2217 0
31 -2147 2218 0
-2148 2218 0
31 -2148 2219 0
-2149 2219 0
31 -2149 2220 0
-2150 2220 0
31 -2150 2221 0
-2151 2221 0
31 -2151 2222 0
-2152 2222 0
31 -2152 2223 0
-2153 2223 0
31 -2153 2224 0
-2154 2224 0
31 -2154 2225 0
-2155 2225 0
31 -2155 2226 0
-2156 2226 0
31 -2156 2227 0
-2157 2227 0
31 -2157 2228 0
-2158 2228 0
31 -2158 2229 0
-2159 2229 0
31 -2159 2230 0
-2160 2230 0
31 -2160 2231 0
-2161 2231 0
31 -2161 2232 0
-2162 2232 0
31 -2162 2233 0
-2163 2233 0
31 -2163 2234 0
-2164 2234 0
31 -2164 2235 0
-2165 2235 0
31 -2165 2236 0
-2166 2236 0
31 -2166 2237 0
-2167 2237 0
31 -2167 2238 0
-2168 2238 0
31 -2168 2239 0
-2169 2239 0
31 -2169 2240 0
-2170 2240 0
31 -2170 2241 0
-2171 2241 0
31 -2171 2242 0
-2172 2242 0
31 -2172 2243 0
-2173 2243 0
31 -2173 2244 0
-2174 2244 0
31 -2174 2245 0
-2175 2245 0
31 -2175 2246 0
-2176 2246 0
31 -2176 2247 0
-2177 2247 0
31 -2177 2248 0
-2178 2248 0
31 -2178 2249 0
-2179 2249 0
31 -2179 2250 0
-2180 2250 0
31 -2180 2251 0
-2181 2251 0
31 -2181 2252 0
-2182 2252 0
31 -2182 0
32 2253 0
-2183 2253 0
32 -2183 2254 0
-2184 2254 0
32 -2184 2255 0
-2185 2255 0
32 -2185 2256 0
-2186 2256 0
32 -2186 2257 0
-2187 2257 0
32 -2187 2258 0
-2188 2258 0
32 -2188 2259 0
-2189 2259 0
32 -2189 2260 0
-2190 2260 0
32 -2190 2261 0
-2191 2261 0
32 -2191 2262 0
-2192 2262 0
32 -2192 2263 0
-2193 2263 0
32 -2193 2264 0
-2194 2264 0
32 -2194 2265 0
-2195 2265 0
32 -2195 2266 0
-2196 2266 0
32 -2196 2267 0
-2197 2267 0
32 -2197 2268 0
-2198 2268 0
32 -2198 2269 0
-2199 2269 0
32 -2199 2270 0
-2200 2270 0
32 -2200 2271 0
-2201 2271 0
32 -2201 2272 0
-2202 2272 0
32 -2202 2273 0
-2203 2273 0
32 -2203 2274 0
-2204 2274 0
32 -2204 2275 0
-2205 2275 0
32 -2205 2276 0
-2206 2276 0
32 -2206 2277 0
-2207 2277 0
32 -2207 2278 0
-2208 2278 0
32 -2208 2279 0
-2209 2279 0
32 -2209 2280 0
-2210 2280 0
32 -2210 2281 0
-2211 2281 0
32 -2211 2282 0
-2212 2282 0
32 -2212 2283 0
-2213 2283 0
32 -2213 2284 0
-2214 2284 0
32 -2214 2285 0
-2215 2285 0
32 -2215 2286 0
-2216 2286 0
32 -2216 2287 0
-2217 2287 0
32 -2217 2288 0
-2218 2288 0
32 -2218 2289 0
-2219 2289 0
32 -2219 2290 0
-2220 2290 0
32 -2220 2291 0
-2221 2291 0
32 -2221 2292 0
-2222 2292 0
32 -2222 2293 0
-2223 2293 0
32 -2223 2294 0
-2224 2294 0
32 -2224 2295 0
-2225 2295 0
32 -2225 2296 0
-2226 2296 0
32 -2226 2297 0
-2227 2297 0
32 -2227 2298 0
-2228 2298 0
32 -2228 2299 0
-2229 2299 0
32 -2229 2300 0
-2230 2300 0
32 -2230 2301 0
-2231 2301 0
32 -2231 2302 0
-2232 2302 0
32 -2232 2303 0
-2233 2303 0
32 -2233 2304 0
-2234 2304 0
32 -2234 2305 0
-2235 2305 0
32 -2235 2306 0
-2236 2306 0
32 -2236 2307 0
-2237 2307 0
32 -2237 2308 0
-2238 2308 0
32 -2238 2309 0
-2239 2309 0
32 -2239 2310 0
-2240 2310 0
32 -2240 2311 0
-2241 2311 0
32 -2241 2312 0
-2242 2312 0
32 -2242 2313 0
-2243 2313 0
32 -2243 2314 0
-2244 2314 0
32 -2244 2315 0
-2245 2315 0
32 -2245 2316 0
-2246 2316 0
32 -2246 2317 0
-2247 2317 0
32 -2247 2318 0
-2248 2318 0
32 -2248 2319 0
-2249 2319 0
32 -2249 2320 0
-2250 2320 0
32 -2250 2321 0
-2251 2321 0
32 -2251 2322 0
-2252 2322 0
32 -2252 0
33 2323 0
-2253 2323 0
33 -2253 2324 0
-2254 2324 0
33 -2254 2325 0
-2255 2325 0
33 -2255 2326 0
-2256 2326 0
33 -2256 2327 0
-2257 2327 0
33 -2257 2328 0
-2258 2328 0
33 -2258 2329 0
-2259 2329 0
33 -2259 2330 0
-2260 2330 0
33 -2260 2331 0
-2261 2331 0
33 -2261 2332 0
-2262 2332 0
33 -2262 2333 0
-2263 2333 0
33 -2263 2334 0
-2264 2334 0
33 -2264 2335 0
-2265 2335 0
33 -2265 2336 0
-2266 2336 0
33 -2266 2337 0
-2267 2337 0
33 -2267 2338 0
-2268 2338 0
33 -2268 2339 0
-2269 2339 0
33 -2269 2340 0
-2270 2340 0
33 -2270 2341 0
-2271 2341 0
33 -2271 2342 0
-2272 2342 0
33 -2272 2343 0
-2273 2343 0
33 -2273 2344 0
-2274 2344 0
33 -2274 2345 0
-2275 2345 0
33 -2275 2346 0
-2276 2346 0
33 -2276 2347 0
-2277 2347 0
33 -2277 2348 0
-2278 2348 0
33 -2278 2349 0
-2279 2349 0
33 -2279 2350 0
-2280 2350 0
33 -2280 2351 0
-2281 2351 0
33 -2281 2352 0
-2282 2352 0
33 -2282 2353 0
-2283 2353 0
33 -2283 2354 0
-2284 2354 0
33 -2284 2355 0
-2285 2355 0
33 -2285 2356 0
-2286 2356 0
33 -2286 2357 0
-2287 2357 0
33 -2287 2358 0
-2288 2358 0
33 -2288 2359 0
-2289 2359 0
33 -2289 2360 0
-2290 2360 0
33 -2290 2361 0
-2291 2361 0
33 -2291 2362 0
-2292 2362 0
33 -2292 2363 0
-2293 2363 0
33 -2293 2364 0
-2294 2364 0
33 -2294 2365 0
-2295 2365 0
33 -2295 2366 0
-2296 2366 0
33 -2296 2367 0
-2297 2367 0
33 -2297 2368 0
-2298 2368 0
33 -2298 2369 0
-2299 2369 0
33 -2299 2370 0
-2300 2370 0
33 -2300 2371 0
-2301 2371 0
33 -2301 2372 0
-2302 2372 0
33 -2302 2373 0
-2303 2373 0
33 -2303 2374 0
-2304 2374 0
33 -2304 2375 0
-2305 2375 0
33 -2305 2376 0
-2306 2376 0
33 -2306 2377 0
-2307 2377 0
33 -2307 2378 0
-2308 2378 0
33 -2308 2379 0
-2309 2379 0
33 -2309 2380 0
-2310 2380 0
33 -2310 2381 0
-2311 2381 0
33 -2311 2382 0
-2312 2382 0
33 -2312 2383 0
-2313 2383 0
33 -2313 2384 0
-2314 2384 0
33 -2314 2385 0
-2315 2385 0
33 -2315 2386 0
-2316 2386 0
33 -2316 2387 0
-2317 2387 0
33 -2317 2388 0
-2318 2388 0
33 -2318 2389 0
-2319 2389 0
33 -2319 2390 0
-2320 2390 0
33 -2320 2391 0
-2321 2391 0
33 -2321 2392 0
-2322 2392 0
33 -2322 0
34 2393 0
-2323 2393 0
34 -2323 2394 0
-2324 2394 0
34 -2324 2395 0
-2325 2395 0
34 -2325 2396 0
-2326 2396 0
34 -2326 2397 0
-2327 2397 0
34 -2327 2398 0
-2328 2398 0
34 -2328 2399 0
-2329 2399 0
34 -2329 2400 0
-2330 2400 0
34 -2330 2401 0
-2331 2401 0
34 -2331 2402 0
-2332 2402 0
34 -2332 2403 0
-2333 2403 0
34 -2333 2404 0
-2334 2404 0
34 -2334 2405 0
-2335 2405 0
34 -2335 2406 0
-2336 2406 0
34 -2336 2407 0
-2337 2407 0
34 -2337 2408 0
-2338 2408 0
34 -2338 2409 0
-2339 2409 0
34 -2339 2410 0
-2340 2410 0
34 -2340 2411 0
-2341 2411 0
34 -2341 2412 0
-2342 2412 0
34 -2342 2413 0
-2343 2413 0
34 -2343 2414 0
-2344 2414 0
34 -2344 2415 0
-2345 2415 0
34 -2345 2416 0
-2346 2416 0
34 -2346 2417 0
-2347 2417 0
34 -2347 2418 0
-2348 2418 0
34 -2348 2419 0
-2349 2419 0
34 -2349 2420 0
-2350 2420 0
34 -2350 2421 0
-2351 2421 0
34 -2351 2422 0
-2352 2422 0
34 -2352 2423 0
-2353 2423 0
34 -2353 2424 0
-2354 2424 0
34 -2354 2425 0
-2355 2425 0
34 -2355 2426 0
-2356 2426 0
34 -2356 2427 0
-2357 2427 0
34 -2357 2428 0
-2358 2428 0
34 -2358 2429 0
-2359 2429 0
34 -2359 2430 0
-2360 2430 0
34 -2360 2431 0
-2361 2431 0
34 -2361 2432 0
-2362 2432 0
34 -2362 2433 0
-2363 2433 0
34 -2363 2434 0
-2364 2434 0
34 -2364 2435 0
-2365 2435 0
34 -2365 2436 0
-2366 2436 0
34 -2366 2437 0
-2367 2437 0
34 -2367 2438 0
-2368 2438 0
34 -2368 2439 0
-2369 2439 0
34 -2369 2440 0
-2370 2440 0
34 -2370 2441 0
-2371 2441 0
34 -2371 2442 0
-2372 2442 0
34 -2372 2443 0
-2373 2443 0
34 -2373 2444 0
-2374 2444 0
34 -2374 2445 0
-2375 2445 0
34 -2375 2446 0
-2376 2446 0
34 -2376 2447 0
-2377 2447 0
34 -2377 2448 0
-2378 2448 0
34 -2378 2449 0
-2379 2449 0
34 -2379 2450 0
-2380 2450 0
34 -2380 2451 0
-2381 2451 0
34 -2381 2452 0
-2382 2452 0
34 -2382 2453 0
-2383 2453 0
34 -2383 2454 0
-2384 2454 0
34 -2384 2455 0
-2385 2455 0
34 -2385 2456 0
-2386 2456 0
34 -2386 2457 0
-2387 2457 0
34 -2387 2458 0
-2388 2458 0
34 -2388 2459 0
-2389 2459 0
34 -2389 2460 0
-2390 2460 0
34 -2390 2461 0
-2391 2461 0
34 -2391 2462 0
-2392 2462 0
34 -2392 0
35 2463 0
-2393 2463 0
35 -2393 2464 0
-2394 2464 0
35 -2394 2465 0
-2395 2465 0
35 -2395 2466 0
-2396 2466 0
35 -2396 2467 0
-2397 2467 0
35 -2397 2468 0
-2398 2468 0
35 -2398 2469 0
-2399 2469 0
35 -2399 2470 0
-2400 2470 0
35 -2400 2471 0
-2401 2471 0
35 -2401 2472 0
-2402 2472 0
35 -2402 2473 0
-2403 2473 0
35 -2403 2474 0
-2404 2474 0
35 -2404 2475 0
-2405 2475 0
35 -2405 2476 0
-2406 2476 0
35 -2406 2477 0
-2407 2477 0
35 -2407 2478 0
-2408 2478 0
35 -2408 2479 0
-2409 2479 0
35 -2409 2480 0
-2410 2480 0
35 -2410 2481 0
-2411 2481 0
35 -2411 2482 0
-2412 2482 0
35 -2412 2483 0
-2413 2483 0
35 -2413 2484 0
-2414 2484 0
35 -2414 2485 0
-2415 2485 0
35 -2415 2486 0
-2416 2486 0
35 -2416 2487 0
-2417 2487 0
35 -2417 2488 0
-2418 2488 0
35 -2418 2489 0
-2419 2489 0
35 -2419 2490 0
-2420 2490 0
35 -2420 2491 0
-2421 2491 0
35 -2421 2492 0
-2422 2492 0
35 -2422 2493 0
-2423 2493 0
35 -2423 2494 0
-2424 2494 0
35 -2424 2495 0
-2425 2495 0
35 -2425 2496 0
-2426 2496 0
35 -2426 2497 0
-2427 2497 0
35 -2427 2498 0
-2428 2498 0
35 -2428 2499 0
-2429 2499 0
35 -2429 2500 0
-2430 2500 0
35 -2430 2501 0
-2431 2501 0
35 -2431 2502 0
-2432 2502 0
35 -2432 2503 0
-2433 2503 0
35 -2433 2504 0
-2434 2504 0
35 -2434 2505 0
-2435 2505 0
35 -2435 2506 0
-2436 2506 0
35 -2436 2507 0
-2437 2507 0
35 -2437 2508 0
-2438 2508 0
35 -2438 2509 0
-2439 2509 0
35 -2439 2510 0
-2440 2510 0
35 -2440 2511 0
-2441 2511 0
35 -2441 2512 0
-2442 2512 0
35 -2442 2513 0
-2443 2513 0
35 -2443 2514 0
-2444 2514 0
35 -2444 2515 0
-2445 2515 0
35 -2445 2516 0
-2446 2516 0
35 -2446 2517 0
-2447 2517 0
35 -2447 2518 0
-2448 2518 0
35 -2448 2519 0
-2449 2519 0
35 -2449 2520 0
-2450 2520 0
35 -2450 2521 0
-2451 2521 0
35 -2451 2522 0
-2452 2522 0
35 -2452 2523 0
-2453 2523 0
35 -2453 2524 0
-2454 2524 0
35 -2454 2525 0
-2455 2525 0
35 -2455 2526 0
-2456 2526 0
35 -2456 2527 0
-2457 2527 0
35 -2457 2528 0
-2458 2528 0
35 -2458 2529 0
-2459 2529 0
35 -2459 2530 0
-2460 2530 0
35 -2460 2531 0
-2461 2531 0
35 -2461 2532 0
-2462 2532 0
35 -2462 0
36 2533 0
-2463 2533 0
36 -2463 2534 0
-2464 2534 0
36 -2464 2535 0
-2465 2535 0
36 -2465 2536 0
-2466 2536 0
36 -2466 2537 0
-2467 2537 0
36 -2467 2538 0
-2468 2538 0
36 -2468 2539 0
-2469 2539 0
36 -2469 2540 0
-2470 2540 0
36 -2470 2541 0
-2471 2541 0
36 -2471 2542 0
-2472 2542 0
36 -2472 2543 0
-2473 2543 0
36 -2473 2544 0
-2474 2544 0
36 -2474 2545 0
-2475 2545 0
36 -2475 2546 0
-2476 2546 0
36 -2476 2547 0
-2477 2547 0
36 -2477 2548 0
-2478 2548 0
36 -2478 2549 0
-2479 2549 0
36 -2479 2550 0
-2480 2550 0
36 -2480 2551 0
-2481 2551 0
36 -2481 2552 0
-2482 2552 0
36 -2482 2553 0
-2483 2553 0
36 -2483 2554 0
-2484 2554 0
36 -2484 2555 0
-2485 2555 0
36 -2485 2556 0
-2486 2556 0
36 -2486 2557 0
-2487 2557 0
36 -2487 2558 0
-2488 2558 0
36 -2488 2559 0
-2489 2559 0
36 -2489 2560 0
-2490 2560 0
36 -2490 2561 0
-2491 2561 0
36 -2491 2562 0
-2492 2562 0
36 -2492 2563 0
-2493 2563 0
36 -2493 2564 0
-2494 2564 0
36 -2494 2565 0
-2495 2565 0
36 -2495 2566 0
-2496 2566 0
36 -2496 2567 0
-2497 2567 0
36 -2497 2568 0
-2498 2568 0
36 -2498 2569 0
-2499 2569 0
36 -2499 2570 0
-2500 2570 0
36 -2500 2571 0
-2501 2571 0
36 -2501 2572 0
-2502 2572 0
36 -2502 2573 0
-2503 2573 0
36 -2503 2574 0
-2504 2574 0
36 -2504 2575 0
-2505 2575 0
36 -2505 2576 0
-2506 2576 0
36 -2506 2577 0
-2507 2577 0
36 -2507 2578 0
-2508 2578 0
36 -2508 2579 0
-2509 2579 0
36 -2509 2580 0
-2510 2580 0
36 -2510 2581 0
-2511 2581 0
36 -2511 2582 0
-2512 2582 0
36 -2512 2583 0
-2513 2583 0
36 -2513 2584 0
-2514 2584 0
36 -2514 2585 0
-2515 2585 0
36 -2515 2586 0
-2516 2586 0
36 -2516 2587 0
-2517 2587 0
36 -2517 2588 0
-2518 2588 0
36 -2518 2589 0
-2519 2589 0
36 -2519 2590 0
-2520 2590 0
36 -2520 2591 0
-2521 2591 0
36 -2521 2592 0
-2522 2592 0
36 -2522 2593 0
-2523 2593 0
36 -2523 2594 0
-2524 2594 0
36 -2524 2595 0
-2525 2595 0
36 -2525 2596 0
-2526 2596 0
36 -2526 2597 0
-2527 2597 0
36 -2527 2598 0
-2528 2598 0
36 -2528 2599 0
-2529 2599 0
36 -2529 2600 0
-2530 2600 0
36 -2530 2601 0
-2531 2601 0
36 -2531 2602 0
-2532 2602 0
36 -2532 0
37 2603 0
-2533 2603 0
37 -2533 2604 0
-2534 2604 0
37 -2534 2605 0
-2535 2605 0
37 -2535 2606 0
-2536 2606 0
37 -2536 2607 0
-2537 2607 0
37 -2537 2608 0
-2538 2608 0
37 -2538 2609 0
-2539 2609 0
37 -2539 2610 0
-2540 2610 0
37 -2540 2611 0
-2541 2611 0
37 -2541 2612 0
-2542 2612 0
37 -2542 2613 0
-2543 2613 0
37 -2543 2614 0
-2544 2614 0
37 -2544 2615 0
-2545 2615 0
37 -2545 2616 0
-2546 2616 0
37 -2546 2617 0
-2547 2617 0
37 -2547 2618 0
-2548 2618 0
37 -2548 2619 0
-2549 2619 0
37 -2549 2620 0
-2550 2620 0
37 -2550 2621 0
-2551 2621 0
37 -2551 2622 0
-2552 2622 0
37 -2552 2623 0
-2553 2623 0
37 -2553 2624 0
-2554 2624 0
37 -2554 2625 0
-2555 2625 0
37 -2555 2626 0
-2556 2626 0
37 -2556 2627 0
-2557 2627 0
37 -2557 2628 0
-2558 2628 0
37 -2558 2629 0
-2559 2629 0
37 -2559 2630 0
-2560 2630 0
37 -2560 2631 0
-2561 2631 0
37 -2561 2632 0
-2562 2632 0
37 -2562 2633 0
-2563 2633 0
37 -2563 2634 0
-2564 2634 0
37 -2564 2635 0
-2565 2635 0
37 -2565 2636 0
-2566 2636 0
37 -2566 2637 0
-2567 2637 0
37 -2567 2638 0
-2568 2638 0
37 -2568 2639 0
-2569 2639 0
37 -2569 2640 0
-2570 2640 0
37 -2570 2641 0
-2571 2641 0
37 -2571 2642 0
-2572 2642 0
37 -2572 2643 0
-2573 2643 0
37 -2573 2644 0
-2574 2644 0
37 -2574 2645 0
-2575 2645 0
37 -2575 2646 0
-2576 2646 0
37 -2576 2647 0
-2577 2647 0
37 -2577 2648 0
-2578 2648 0
37 -2578 2649 0
-2579 2649 0
37 -2579 2650 0
-2580 2650 0
37 -2580 2651 0
-2581 2651 0
37 -2581 2652 0
-2582 2652 0
37 -2582 2653 0
-2583 2653 0
37 -2583 2654 0
-2584 2654 0
37 -2584 2655 0
-2585 2655 0
37 -2585 2656 0
-2586 2656 0
37 -2586 2657 0
-2587 2657 0
37 -2587 2658 0
-2588 2658 0
37 -2588 2659 0
-2589 2659 0
37 -2589 2660 0
-2590 2660 0
37 -2590 2661 0
-2591 2661 0
37 -2591 2662 0
-2592 2662 0
37 -2592 2663 0
-2593 2663 0
37 -2593 2664 0
-2594 2664 0
37 -2594 2665 0
-2595 2665 0
37 -2595 2666 0
-2596 2666 0
37 -2596 2667 0
-2597 2667 0
37 -2597 2668 0
-2598 2668 0
37 -2598 2669 0
-2599 2669 0
37 -2599 2670 0
-2600 2670 0
37 -2600 2671 0
-2601 2671 0
37 -2601 2672 0
-2602 2672 0
37 -2602 0
38 2673 0
-2603 2673 0
38 -2603 2674 0
-2604 2674 0
38 -2604 2675 0
-2605 2675 0
38 -2605 2676 0
-2606 2676 0
38 -2606 2677 0
-2607 2677 0
38 -2607 2678 0
-2608 2678 0
38 -2608 2679 0
-2609 2679 0
38 -2609 2680 0
-2610 2680 0
38 -2610 2681 0
-2611 2681 0
38 -2611 2682 0
-2612 2682 0
38 -2612 2683 0
-2613 2683 0
38 -2613 2684 0
-2614 2684 0
38 -2614 2685 0
-2615 2685 0
38 -2615 2686 0
-2616 2686 0
38 -2616 2687 0
-2617 2687 0
38 -2617 2688 0
-2618 2688 0
38 -2618 2689 0
-2619 2689 0
38 -2619 2690 0
-2620 2690 0
38 -2620 2691 0
-2621 2691 0
38 -2621 2692 0
-2622 2692 0
38 -2622 2693 0
-2623 2693 0
38 -2623 2694 0
-2624 2694 0
38 -2624 2695 0
-2625 2695 0
38 -2625 2696 0
-2626 2696 0
38 -2626 2697 0
-2627 2697 0
38 -2627 2698 0
-2628 2698 0
38 -2628 2699 0
-2629 2699 0
38 -2629 2700 0
-2630 2700 0
38 -2630 2701 0
-2631 2701 0
38 -2631 2702 0
-2632 2702 0
38 -2632 2703 0
-2633 2703 0
38 -2633 2704 0
-2634 2704 0
38 -2634 2705 0
-2635 2705 0
38 -2635 2706 0
-2636 2706 0
38 -2636 2707 0
-2637 2707 0
38 -2637 2708 0
-2638 2708 0
38 -2638 2709 0
-2639 2709 0
38 -2639 2710 0
-2640 2710 0
38 -2640 2711 0
-2641 2711 0
38 -2641 2712 0
-2642 2712 0
38 -2642 2713 0
-2643 2713 0
38 -2643 2714 0
-2644 2714 0
38 -2644 2715 0
-2645 2715 0
38 -2645 2716 0
-2646 2716 0
38 -2646 2717 0
-2647 2717 0
38 -2647 2718 0
-2648 2718 0
38 -2648 2719 0
-2649 2719 0
38 -2649 2720 0
-2650 2720 0
38 -2650 2721 0
-2651 2721 0
38 -2651 2722 0
-2652 2722 0
38 -2652 2723 0
-2653 2723 0
38 -2653 2724 0
-2654 2724 0
38 -2654 2725 0
-2655 2725 0
38 -2655 2726 0
-2656 2726 0
38 -2656 2727 0
-2657 2727 0
38 -2657 2728 0
-2658 2728 0
38 -2658 2729 0
-2659 2729 0
38 -2659 2730 0
-2660 2730 0
38 -2660 2731 0
-2661 2731 0
38 -2661 2732 0
-2662 2732 0
38 -2662 2733 0
-2663 2733 0
38 -2663 2734 0
-2664 2734 0
38 -2664 2735 0
-2665 2735 0
38 -2665 2736 0
-2666 2736 0
38 -2666 2737 0
-2667 2737 0
38 -2667 2738 0
-2668 2738 0
38 -2668 2739 0
-2669 2739 0
38 -2669 2740 0
-2670 2740 0
38 -2670 2741 0
-2671 2741 0
38 -2671 2742 0
-2672 2742 0
38 -2672 0
39 2743 0
-2673 2743 0
39 -2673 2744 0
-2674 2744 0
39 -2674 2745 0
-2675 2745 0
39 -2675 2746 0
-2676 2746 0
39 -2676 2747 0
-2677 2747 0
39 -2677 2748 0
-2678 2748 0
39 -2678 2749 0
-2679 2749 0
39 -2679 2750 0
-2680 2750 0
39 -2680 2751 0
-2681 2751 0
39 -2681 2752 0
-2682 2752 0
39 -2682 2753 0
-2683 2753 0
39 -2683 2754 0
-2684 2754 0
39 -2684 2755 0
-2685 2755 0
39 -2685 2756 0
-2686 2756 0
39 -2686 2757 0
-2687 2757 0
39 -2687 2758 0
-2688 2758 0
39 -2688 2759 0
-2689 2759 0
39 -2689 2760 0
-2690 2760 0
39 -2690 2761 0
-2691 2761 0
39 -2691 2762 0
-2692 2762 0
39 -2692 2763 0
-2693 2763 0
39 -2693 2764 0
-2694 2764 0
39 -2694 2765 0
-2695 2765 0
39 -2695 2766 0
-2696 2766 0
39 -2696 2767 0
-2697 2767 0
39 -2697 2768 0
-2698 2768 0
39 -2698 2769 0
-2699 2769 0
39 -2699 2770 0
-2700 2770 0
39 -2700 2771 0
-2701 2771 0
39 -2701 2772 0
-2702 2772 0
39 -2702 2773 0
-2703 2773 0
39 -2703 2774 0
-2704 2774 0
39 -2704 2775 0
-2705 2775 0
39 -2705 2776 0
-2706 2776 0
39 -2706 2777 0
-2707 2777 0
39 -2707 2778 0
-2708 2778 0
39 -2708 2779 0
-2709 2779 0
39 -2709 2780 0
-2710 2780 0
39 -2710 2781 0
-2711 2781 0
39 -2711 2782 0
-2712 2782 0
39 -2712 2783 0
-2713 2783 0
39 -2713 2784 0
-2714 2784 0
39 -2714 2785 0
-2715 2785 0
39 -2715 2786 0
-2716 2786 0
39 -2716 2787 0
-2717 2787 0
39 -2717 2788 0
-2718 2788 0
39 -2718 2789 0
-2719 2789 0
39 -2719 2790 0
-2720 2790 0
39 -2720 2791 0
-2721 2791 0
39 -2721 2792 0
-2722 2792 0
39 -2722 2793 0
-2723 2793 0
39 -2723 2794 0
-2724 2794 0
39 -2724 2795 0
-2725 2795 0
39 -2725 2796 0
-2726 2796 0
39 -2726 2797 0
-2727 2797 0
39 -2727 2798 0
-2728 2798 0
39 -2728 2799 0
-2729 2799 0
39 -2729 2800 0
-2730 2800 0
39 -2730 2801 0
-2731 2801 0
39 -2731 2802 0
-2732 2802 0
39 -2732 2803 0
-2733 2803 0
39 -2733 2804 0
-2734 2804 0
39 -2734 2805 0
-2735 2805 0
39 -2735 2806 0
-2736 2806 0
39 -2736 2807 0
-2737 2807 0
39 -2737 2808 0
-2738 2808 0
39 -2738 2809 0
-2739 2809 0
39 -2739 2810 0
-2740 2810 0
39 -2740 2811 0
-2741 2811 0
39 -2741 2812 0
-2742 2812 0
39 -2742 0
40 2813 0
-2743 2813 0
40 -2743 2814 0
-2744 2814 0
40 -2744 2815 0
-2745 2815 0
40 -2745 2816 0
-2746 2816 0
40 -2746 2817 0
-2747 2817 0
40 -2747 2818 0
-2748 2818 0
40 -2748 2819 0
-2749 2819 0
40 -2749 2820 0
-2750 2820 0
40 -2750 2821 0
-2751 2821 0
40 -2751 2822 0
-2752 2822 0
40 -2752 2823 0
-2753 2823 0
40 -2753 2824 0
-2754 2824 0
40 -2754 2825 0
-2755 2825 0
40 -2755 2826 0
-2756 2826 0
40 -2756 2827 0
-2757 2827 0
40 -2757 2828 0
-2758 2828 0
40 -2758 2829 0
-2759 2829 0
40 -2759 2830 0
-2760 2830 0
40 -2760 2831 0
-2761 2831 0
40 -2761 2832 0
-2762 2832 0
40 -2762 2833 0
-2763 2833 0
40 -2763 2834 0
-2764 2834 0
40 -2764 2835 0
-2765 2835 0
40 -2765 2836 0
-2766 2836 0
40 -2766 2837 0
-2767 2837 0
40 -2767 2838 0
-2768 2838 0
40 -2768 2839 0
-2769 2839 0
40 -2769 2840 0
-2770 2840 0
40 -2770 2841 0
-2771 2841 0
40 -2771 2842 0
-2772 2842 0
40 -2772 2843 0
-2773 2843 0
40 -2773 2844 0
-2774 2844 0
40 -2774 2845 0
-2775 2845 0
40 -2775 2846 0
-2776 2846 0
40 -2776 2847 0
-2777 2847 0
40 -2777 2848 0
-2778 2848 0
40 -2778 2849 0
-2779 2849 0
40 -2779 2850 0
-2780 2850 0
40 -2780 2851 0
-2781 2851 0
40 -2781 2852 0
-2782 2852 0
40 -2782 2853 0
-2783 2853 0
40 -2783 2854 0
-2784 2854 0
40 -2784 2855 0
-2785 2855 0
40 -2785 2856 0
-2786 2856 0
40 -2786 2857 0
-2787 2857 0
40 -2787 2858 0
-2788 2858 0
40 -2788 2859 0
-2789 2859 0
40 -2789 2860 0
-2790 2860 0
40 -2790 2861 0
-2791 2861 0
40 -2791 2862 0
-2792 2862 0
40 -2792 2863 0
-2793 2863 0
40 -2793 2864 0
-2794 2864 0
40 -2794 2865 0
-2795 2865 0
40 -2795 2866 0
-2796 2866 0
40 -2796 2867 0
-2797 2867 0
40 -2797 2868 0
-2798 2868 0
40 -2798 2869 0
-2799 2869 0
40 -2799 2870 0
-2800 2870 0
40 -2800 2871 0
-2801 2871 0
40 -2801 2872 0
-2802 2872 0
40 -2802 2873 0
-2803 2873 0
40 -2803 2874 0
-2804 2874 0
40 -2804 2875 0
-2805 2875 0
40 -2805 2876 0
-2806 2876 0
40 -2806 2877 0
-2807 2877 0
40 -2807 2878 0
-2808 2878 0
40 -2808 2879 0
-2809 2879 0
40 -2809 2880 0
-2810 2880 0
40 -2810 2881 0
-2811 2881 0
40 -2811 2882 0
-2812 2882 0
40 -2812 0
41 2883 0
-2813 2883 0
41 -2813 2884 0
-2814 2884 0
41 -2814 2885 0
-2815 2885 0
41 -2815 2886 0
-2816 2886 0
41 -2816 2887 0
-2817 2887 0
41 -2817 2888 0
-2818 2888 0
41 -2818 2889 0
-2819 2889 0
41 -2819 2890 0
-2820 2890 0
41 -2820 2891 0
-2821 2891 0
41 -2821 2892 0
-2822 2892 0
41 -2822 2893 0
-2823 2893 0
41 -2823 2894 0
-2824 2894 0
41 -2824 2895 0
-2825 2895 0
41 -2825 2896 0
-2826 2896 0
41 -2826 2897 0
-2827 2897 0
41 -2827 2898 0
-2828 2898 0
41 -2828 2899 0
-2829 2899 0
41 -2829 2900 0
-2830 2900 0
41 -2830 2901 0
-2831 2901 0
41 -2831 2902 0
-2832 2902 0
41 -2832 2903 0
-2833 2903 0
41 -2833 2904 0
-2834 2904 0
41 -2834 2905 0
-2835 2905 0
41 -2835 2906 0
-2836 2906 0
41 -2836 2907 0
-2837 2907 0
41 -2837 2908 0
-2838 2908 0
41 -2838 2909 0
-2839 2909 0
41 -2839 2910 0
-2840 2910 0
41 -2840 2911 0
-2841 2911 0
41 -2841 2912 0
-2842 2912 0
41 -2842 2913 0
-2843 2913 0
41 -2843 2914 0
-2844 2914 0
41 -2844 2915 0
-2845 2915 0
41 -2845 2916 0
-2846 2916 0
41 -2846 2917 0
-2847 2917 0
41 -2847 2918 0
-2848 2918 0
41 -2848 2919 0
-2849 2919 0
41 -2849 2920 0
-2850 2920 0
41 -2850 2921 0
-2851 2921 0
41 -2851 2922 0
-2852 2922 0
41 -2852 2923 0
-2853 2923 0
41 -2853 2924 0
-2854 2924 0
41 -2854 2925 0
-2855 2925 0
41 -2855 2926 0
-2856 2926 0
41 -2856 2927 0
-2857 2927 0
41 -2857 2928 0
-2858 2928 0
41 -2858 2929 0
-2859 2929 0
41 -2859 2930 0
-2860 2930 0
41 -2860 2931 0
-2861 2931 0
41 -2861 2932 0
-2862 2932 0
41 -2862 2933 0
-2863 2933 0
41 -2863 2934 0
-2864 2934 0
41 -2864 2935 0
-2865 2935 0
41 -2865 2936 0
-2866 2936 0
41 -2866 2937 0
-2867 2937 0
41 -2867 2938 0
-2868 2938 0
41 -2868 2939 0
-2869 2939 0
41 -2869 2940 0
-2870 2940 0
41 -2870 2941 0
-2871 2941 0
41 -2871 2942 0
-2872 2942 0
41 -2872 2943 0
-2873 2943 0
41 -2873 2944 0
-2874 2944 0
41 -2874 2945 0
-2875 2945 0
41 -2875 2946 0
-2876 2946 0
41 -2876 2947 0
-2877 2947 0
41 -2877 2948 0
-2878 2948 0
41 -2878 2949 0
-2879 2949 0
41 -2879 2950 0
-2880 2950 0
41 -2880 2951 0
-2881 2951 0
41 -2881 2952 0
-2882 2952 0
41 -2882 0
42 2953 0
-2883 2953 0
42 -2883 2954 0
-2884 2954 0
42 -2884 2955 0
-2885 2955 0
42 -2885 2956 0
-2886 2956 0
42 -2886 2957 0
-2887 2957 0
42 -2887 2958 0
-2888 2958 0
42 -2888 2959 0
-2889 2959 0
42 -2889 2960 0
-2890 2960 0
42 -2890 2961 0
-2891 2961 0
42 -2891 2962 0
-2892 2962 0
42 -2892 2963 0
-2893 2963 0
42 -2893 2964 0
-2894 2964 0
42 -2894 2965 0
-2895 2965 0
42 -2895 2966 0
-2896 2966 0
42 -2896 2967 0
-2897 2967 0
42 -2897 2968 0
-2898 2968 0
42 -2898 2969 0
-2899 2969 0
42 -2899 2970 0
-2900 2970 0
42 -2900 2971 0
-2901 2971 0
42 -2901 2972 0
-2902 2972 0
42 -2902 2973 0
-2903 2973 0
42 -2903 2974 0
-2904 2974 0
42 -2904 2975 0
-2905 2975 0
42 -2905 2976 0
-2906 2976 0
42 -2906 2977 0
-2907 2977 0
42 -2907 2978 0
-2908 2978 0
42 -2908 2979 0
-2909 2979 0
42 -2909 2980 0
-2910 2980 0
42 -2910 2981 0
-2911 2981 0
42 -2911 2982 0
-2912 2982 0
42 -2912 2983 0
-2913 2983 0
42 -2913 2984 0
-2914 2984 0
42 -2914 2985 0
-2915 2985 0
42 -2915 2986 0
-2916 2986 0
42 -2916 2987 0
-2917 2987 0
42 -2917 2988 0
-2918 2988 0
42 -2918 2989 0
-2919 2989 0
42 -2919 2990 0
-2920 2990 0
42 -2920 2991 0
-2921 2991 0
42 -2921 2992 0
-2922 2992 0
42 -2922 2993 0
-2923 2993 0
42 -2923 2994 0
-2924 2994 0
42 -2924 2995 0
-2925 2995 0
42 -2925 2996 0
-2926 2996 0
42 -2926 2997 0
-2927 2997 0
42 -2927 2998 0
-2928 2998 0
42 -2928 2999 0
-2929 2999 0
42 -2929 3000 0
-2930 3000 0
42 -2930 3001 0
-2931 3001 0
42 -2931 3002 0
-2932 3002 0
42 -2932 3003 0
-2933 3003 0
42 -2933 3004 0
-2934 3004 0
42 -2934 3005 0
-2935 3005 0
42 -2935 3006 0
-2936 3006 0
42 -2936 3007 0
-2937 3007 0
42 -2937 3008 0
-2938 3008 0
42 -2938 3009 0
-2939 3009 0
42 -2939 3010 0
-2940 3010 0
42 -2940 3011 0
-2941 3011 0
42 -2941 3012 0
-2942 3012 0
42 -2942 3013 0
-2943 3013 0
42 -2943 3014 0
-2944 3014 0
42 -2944 3015 0
-2945 3015 0
42 -2945 3016 0
-2946 3016 0
42 -2946 3017 0
-2947 3017 0
42 -2947 3018 0
-2948 3018 0
42 -2948 3019 0
-2949 3019 0
42 -2949 3020 0
-2950 3020 0
42 -2950 3021 0
-2951 3021 0
42 -2951 3022 0
-2952 3022 0
42 -2952 0
43 3023 0
-2953 3023 0
43 -2953 3024 0
-2954 3024 0
43 -2954 3025 0
-2955 3025 0
43 -2955 3026 0
-2956 3026 0
43 -2956 3027 0
-2957 3027 0
43 -2957 3028 0
-2958 3028 0
43 -2958 3029 0
-2959 3029 0
43 -2959 3030 0
-2960 3030 0
43 -2960 3031 0
-2961 3031 0
43 -2961 3032 0
-2962 3032 0
43 -2962 3033 0
-2963 3033 0
43 -2963 3034 0
-2964 3034 0
43 -2964 3035 0
-2965 3035 0
43 -2965 3036 0
-2966 3036 0
43 -2966 3037 0
-2967 3037 0
43 -2967 3038 0
-2968 3038 0
43 -2968 3039 0
-2969 3039 0
43 -2969 3040 0
-2970 3040 0
43 -2970 3041 0
-2971 3041 0
43 -2971 3042 0
-2972 3042 0
43 -2972 3043 0
-2973 3043 0
43 -2973 3044 0
-2974 3044 0
43 -2974 3045 0
-2975 3045 0
43 -2975 3046 0
-2976 3046 0
43 -2976 3047 0
-2977 3047 0
43 -2977 3048 0
-2978 3048 0
43 -2978 3049 0
-2979 3049 0
43 -2979 3050 0
-2980 3050 0
43 -2980 3051 0
-2981 3051 0
43 -2981 3052 0
-2982 3052 0
43 -2982 3053 0
-2983 3053 0
43 -2983 3054 0
-2984 3054 0
43 -2984 3055 0
-2985 3055 0
43 -2985 3056 0
-2986 3056 0
43 -2986 3057 0
-2987 3057 0
43 -2987 3058 0
-2988 3058 0
43 -2988 3059 0
-2989 3059 0
43 -2989 3060 0
-2990 3060 0
43 -2990 3061 0
-2991 3061 0
43 -2991 3062 0
-2992 3062 0
43 -2992 3063 0
-2993 3063 0
43 -2993 3064 0
-2994 3064 0
43 -2994 3065 0
-2995 3065 0
43 -2995 3066 0
-2996 3066 0
43 -2996 3067 0
-2997 3067 0
43 -2997 3068 0
-2998 3068 0
43 -2998 3069 0
-2999 3069 0
43 -2999 3070 0
-3000 3070 0
43 -3000 3071 0
-3001 3071 0
43 -3001 3072 0
-3002 3072 0
43 -3002 3073 0
-3003 3073 0
43 -3003 3074 0
-3004 3074 0
43 -3004 3075 0
-3005 3075 0
43 -3005 3076 0
-3006 3076 0
43 -3006 3077 0
-3007 3077 0
43 -3007 3078 0
-3008 3078 0
43 -3008 3079 0
-3009 3079 0
43 -3009 3080 0
-3010 3080 0
43 -3010 3081 0
-3011 3081 0
43 -3011 3082 0
-3012 3082 0
43 -3012 3083 0
-3013 3083 0
43 -3013 3084 0
-3014 3084 0
43 -3014 3085 0
-3015 3085 0
43 -3015 3086 0
-3016 3086 0
43 -3016 3087 0
-3017 3087 0
43 -3017 3088 0
-3018 3088 0
43 -3018 3089 0
-3019 3089 0
43 -3019 3090 0
-3020 3090 0
43 -3020 3091 0
-3021 3091 0
43 -3021 3092 0
-3022 3092 0
43 -3022 0
44 3093 0
-3023 3093 0
44 -3023 3094 0
-3024 3094 0
44 -3024 3095 0
-3025 3095 0
44 -3025 3096 0
-3026 3096 0
44 -3026 3097 0
-3027 3097 0
44 -3027 3098 0
-3028 3098 0
44 -3028 3099 0
-3029 3099 0
44 -3029 3100 0
-3030 3100 0
44 -3030 3101 0
-3031 3101 0
44 -3031 3102 0
-3032 3102 0
44 -3032 3103 0
-3033 3103 0
44 -3033 3104 0
-3034 3104 0
44 -3034 3105 0
-3035 3105 0
44 -3035 3106 0
-3036 3106 0
44 -3036 3107 0
-3037 3107 0
44 -3037 3108 0
-3038 3108 0
44 -3038 3109 0
-3039 3109 0
44 -3039 3110 0
-3040 3110 0
44 -3040 3111 0
-3041 3111 0
44 -3041 3112 0
-3042 3112 0
44 -3042 3113 0
-3043 3113 0
44 -3043 3114 0
-3044 3114 0
44 -3044 3115 0
-3045 3115 0
44 -3045 3116 0
-3046 3116 0
44 -3046 3117 0
-3047 3117 0
44 -3047 3118 0
-3048 3118 0
44 -3048 3119 0
-3049 3119 0
44 -3049 3120 0
-3050 3120 0
44 -3050 3121 0
-3051 3121 0
44 -3051 3122 0
-3052 3122 0
44 -3052 3123 0
-3053 3123 0
44 -3053 3124 0
-3054 3124 0
44 -3054 3125 0
-3055 3125 0
44 -3055 3126 0
-3056 3126 0
44 -3056 3127 0
-3057 3127 0
44 -3057 3128 0
-3058 3128 0
44 -3058 3129 0
-3059 3129 0
44 -3059 3130 0
-3060 3130 0
44 -3060 3131 0
-3061 3131 0
44 -3061 3132 0
-3062 3132 0
44 -3062 3133 0
-3063 3133 0
44 -3063 3134 0
-3064 3134 0
44 -3064 3135 0
-3065 3135 0
44 -3065 3136 0
-3066 3136 0
44 -3066 3137 0
-3067 3137 0
44 -3067 3138 0
-3068 3138 0
44 -3068 3139 0
-3069 3139 0
44 -3069 3140 0
-3070 3140 0
44 -3070 3141 0
-3071 3141 0
44 -3071 3142 0
-3072 3142 0
44 -3072 3143 0
-3073 3143 0
44 -3073 3144 0
-3074 3144 0
44 -3074 3145 0
-3075 3145 0
44 -3075 3146 0
-3076 3146 0
44 -3076 3147 0
-3077 3147 0
44 -3077 3148 0
-3078 3148 0
44 -3078 3149 0
-3079 3149 0
44 -3079 3150 0
-3080 3150 0
44 -3080 3151 0
-3081 3151 0
44 -3081 3152 0
-3082 3152 0
44 -3082 3153 0
-3083 3153 0
44 -3083 3154 0
-3084 3154 0
44 -3084 3155 0
-3085 3155 0
44 -3085 3156 0
-3086 3156 0
44 -3086 3157 0
-3087 3157 0
44 -3087 3158 0
-3088 3158 0
44 -3088 3159 0
-3089 3159 0
44 -3089 3160 0
-3090 3160 0
44 -3090 3161 0
-3091 3161 0
44 -3091 3162 0
-3092 3162 0
44 -3092 0
45 3163 0
-3093 3163 0
45 -3093 3164 0
-3094 3164 0
45 -3094 3165 0
-3095 3165 0
45 -3095 3166 0
-3096 3166 0
45 -3096 3167 0
-3097 3167 0
45 -3097 3168 0
-3098 3168 0
45 -3098 3169 0
-3099 3169 0
45 -3099 3170 0
-3100 3170 0
45 -3100 3171 0
-3101 3171 0
45 -3101 3172 0
-3102 3172 0
45 -3102 3173 0
-3103 3173 0
45 -3103 3174 0
-3104 3174 0
45 -3104 3175 0
-3105 3175 0
45 -3105 3176 0
-3106 3176 0
45 -3106 3177 0
-3107 3177 0
45 -3107 3178 0
-3108 3178 0
45 -3108 3179 0
-3109 3179 0
45 -3109 3180 0
-3110 3180 0
45 -3110 3181 0
-3111 3181 0
45 -3111 3182 0
-3112 3182 0
45 -3112 3183 0
-3113 3183 0
45 -3113 3184 0
-3114 3184 0
45 -3114 3185 0
-3115 3185 0
45 -3115 3186 0
-3116 3186 0
45 -3116 3187 0
-3117 3187 0
45 -3117 3188 0
-3118 3188 0
45 -3118 3189 0
-3119 3189 0
45 -3119 3190 0
-3120 3190 0
45 -3120 3191 0
-3121 3191 0
45 -3121 3192 0
-3122 3192 0
45 -3122 3193 0
-3123 3193 0
45 -3123 3194 0
-3124 3194 0
45 -3124 3195 0
-3125 3195 0
45 -3125 3196 0
-3126 3196 0
45 -3126 3197 0
-3127 3197 0
45 -3127 3198 0
-3128 3198 0
45 -3128 3199 0
-3129 3199 0
45 -3129 3200 0
-3130 3200 0
45 -3130 3201 0
-3131 3201 0
45 -3131 3202 0
-3132 3202 0
45 -3132 3203 0
-3133 3203 0
45 -3133 3204 0
-3134 3204 0
45 -3134 3205 0
-3135 3205 0
45 -3135 3206 0
-3136 3206 0
45 -3136 3207 0
-3137 3207 0
45 -3137 3208 0
-3138 3208 0
45 -3138 3209 0
-3139 3209 0
45 -3139 3210 0
-3140 3210 0
45 -3140 3211 0
-3141 3211 0
45 -3141 3212 0
-3142 3212 0
45 -3142 3213 0
-3143 3213 0
45 -3143 3214 0
-3144 3214 0
45 -3144 3215 0
-3145 3215 0
45 -3145 3216 0
-3146 3216 0
45 -3146 3217 0
-3147 3217 0
45 -3147 3218 0
-3148 3218 0
45 -3148 3219 0
-3149 3219 0
45 -3149 3220 0
-3150 3220 0
45 -3150 3221 0
-3151 3221 0
45 -3151 3222 0
-3152 3222 0
45 -3152 3223 0
-3153 3223 0
45 -3153 3224 0
-3154 3224 0
45 -3154 3225 0
-3155 3225 0
45 -3155 3226 0
-3156 3226 0
45 -3156 3227 0
-3157 3227 0
45 -3157 3228 0
-3158 3228 0
45 -3158 3229 0
-3159 3229 0
45 -3159 3230 0
-3160 3230 0
45 -3160 3231 0
-3161 3231 0
45 -3161 3232 0
-3162 3232 0
45 -3162 0
46 3233 0
-3163 3233 0
46 -3163 3234 0
-3164 3234 0
46 -3164 3235 0
-3165 3235 0
46 -3165 3236 0
-3166 3236 0
46 -3166 3237 0
-3167 3237 0
46 -3167 3238 0
-3168 3238 0
46 -3168 3239 0
-3169 3239 0
46 -3169 3240 0
-3170 3240 0
46 -3170 3241 0
-3171 3241 0
46 -3171 3242 0
-3172 3242 0
46 -3172 3243 0
-3173 3243 0
46 -3173 3244 0
-3174 3244 0
46 -3174 3245 0
-3175 3245 0
46 -3175 3246 0
-3176 3246 0
46 -3176 3247 0
-3177 3247 0
46 -3177 3248 0
-3178 3248 0
46 -3178 3249 0
-3179 3249 0
46 -3179 3250 0
-3180 3250 0
46 -3180 3251 0
-3181 3251 0
46 -3181 3252 0
-3182 3252 0
46 -3182 3253 0
-3183 3253 0
46 -3183 3254 0
-3184 3254 0
46 -3184 3255 0
-3185 3255 0
46 -3185 3256 0
-3186 3256 0
46 -3186 3257 0
-3187 3257 0
46 -3187 3258 0
-3188 3258 0
46 -3188 3259 0
-3189 3259 0
46 -3189 3260 0
-3190 3260 0
46 -3190 3261 0
-3191 3261 0
46 -3191 3262 0
-3192 3262 0
46 -3192 3263 0
-3193 3263 0
46 -3193 3264 0
-3194 3264 0
46 -3194 3265 0
-3195 3265 0
46 -3195 3266 0
-3196 3266 0
46 -3196 3267 0
-3197 3267 0
46 -3197 3268 0
-3198 3268 0
46 -3198 3269 0
-3199 3269 0
46 -3199 3270 0
-3200 3270 0
46 -3200 3271 0
-3201 3271 0
46 -3201 3272 0
-3202 3272 0
46 -3202 3273 0
-3203 3273 0
46 -3203 3274 0
-3204 3274 0
46 -3204 3275 0
-3205 3275 0
46 -3205 3276 0
-3206 3276 0
46 -3206 3277 0
-3207 3277 0
46 -3207 3278 0
-3208 3278 0
46 -3208 3279 0
-3209 3279 0
46 -3209 3280 0
-3210 3280 0
46 -3210 3281 0
-3211 3281 0
46 -3211 3282 0
-3212 3282 0
46 -3212 3283 0
-3213 3283 0
46 -3213 3284 0
-3214 3284 0
46 -3214 3285 0
-3215 3285 0
46 -3215 3286 0
-3216 3286 0
46 -3216 3287 0
-3217 3287 0
46 -3217 3288 0
-3218 3288 0
46 -3218 3289 0
-3219 3289 0
46 -3219 3290 0
-3220 3290 0
46 -3220 3291 0
-3221 3291 0
46 -3221 3292 0
-3222 3292 0
46 -3222 3293 0
-3223 3293 0
46 -3223 3294 0
-3224 3294 0
46 -3224 3295 0
-3225 3295 0
46 -3225 3296 0
-3226 3296 0
46 -3226 3297 0
-3227 3297 0
46 -3227 3298 0
-3228 3298 0
46 -3228 3299 0
-3229 3299 0
46 -3229 3300 0
-3230 3300 0
46 -3230 3301 0
-3231 3301 0
46 -3231 3302 0
-3232 3302 0
46 -3232 0
47 3303 0
-3233 3303 0
47 -3233 3304 0
-3234 3304 0
47 -3234 3305 0
-3235 3305 0
47 -3235 3306 0
-3236 3306 0
47 -3236 3307 0
-3237 3307 0
47 -3237 3308 0
-3238 3308 0
47 -3238 3309 0
-3239 3309 0
47 -3239 3310 0
-3240 3310 0
47 -3240 3311 0
-3241 3311 0
47 -3241 3312 0
-3242 3312 0
47 -3242 3313 0
-3243 3313 0
47 -3243 3314 0
-3244 3314 0
47 -3244 3315 0
-3245 3315 0
47 -3245 3316 0
-3246 3316 0
47 -3246 3317 0
-3247 3317 0
47 -3247 3318 0
-3248 3318 0
47 -3248 3319 0
-3249 3319 0
47 -3249 3320 0
-3250 3320 0
47 -3250 3321 0
-3251 3321 0
47 -3251 3322 0
-3252 3322 0
47 -3252 3323 0
-3253 3323 0
47 -3253 3324 0
-3254 3324 0
47 -3254 3325 0
-3255 3325 0
47 -3255 3326 0
-3256 3326 0
47 -3256 3327 0
-3257 3327 0
47 -3257 3328 0
-3258 3328 0
47 -3258 3329 0
-3259 3329 0
47 -3259 3330 0
-3260 3330 0
47 -3260 3331 0
-3261 3331 0
47 -3261 3332 0
-3262 3332 0
47 -3262 3333 0
-3263 3333 0
47 -3263 3334 0
-3264 3334 0
47 -3264 3335 0
-3265 3335 0
47 -3265 3336 0
-3266 3336 0
47 -3266 3337 0
-3267 3337 0
47 -3267 3338 0
-3268 3338 0
47 -3268 3339 0
-3269 3339 0
47 -3269 3340 0
-3270 3340 0
47 -3270 3341 0
-3271 3341 0
47 -3271 3342 0
-3272 3342 0
47 -3272 3343 0
-3273 3343 0
47 -3273 3344 0
-3274 3344 0
47 -3274 3345 0
-3275 3345 0
47 -3275 3346 0
-3276 3346 0
47 -3276 3347 0
-3277 3347 0
47 -3277 3348 0
-3278 3348 0
47 -3278 3349 0
-3279 3349 0
47 -3279 3350 0
-3280 3350 0
47 -3280 3351 0
-3281 3351 0
47 -3281 3352 0
-3282 3352 0
47 -3282 3353 0
-3283 3353 0
47 -3283 3354 0
-3284 3354 0
47 -3284 3355 0
-3285 3355 0
47 -3285 3356 0
-3286 3356 0
47 -3286 3357 0
-3287 3357 0
47 -3287 3358 0
-3288 3358 0
47 -3288 3359 0
-3289 3359 0
47 -3289 3360 0
-3290 3360 0
47 -3290 3361 0
-3291 3361 0
47 -3291 3362 0
-3292 3362 0
47 -3292 3363 0
-3293 3363 0
47 -3293 3364 0
-3294 3364 0
47 -3294 3365 0
-3295 3365 0
47 -3295 3366 0
-3296 3366 0
47 -3296 3367 0
-3297 3367 0
47 -3297 3368 0
-3298 3368 0
47 -3298 3369 0
-3299 3369 0
47 -3299 3370 0
-3300 3370 0
47 -3300 3371 0
-3301 3371 0
47 -3301 3372 0
-3302 3372 0
47 -3302 0
48 3373 0
-3303 3373 0
48 -3303 3374 0
-3304 3374 0
48 -3304 3375 0
-3305 3375 0
48 -3305 3376 0
-3306 3376 0
48 -3306 3377 0
-3307 3377 0
48 -3307 3378 0
-3308 3378 0
48 -3308 3379 0
-3309 3379 0
48 -3309 3380 0
-3310 3380 0
48 -3310 3381 0
-3311 3381 0
48 -3311 3382 0
-3312 3382 0
48 -3312 3383 0
-3313 3383 0
48 -3313 3384 0
-3314 3384 0
48 -3314 3385 0
-3315 3385 0
48 -3315 3386 0
-3316 3386 0
48 -3316 3387 0
-3317 3387 0
48 -3317 3388 0
-3318 3388 0
48 -3318 3389 0
-3319 3389 0
48 -3319 3390 0
-3320 3390 0
48 -3320 3391 0
-3321 3391 0
48 -3321 3392 0
-3322 3392 0
48 -3322 3393 0
-3323 3393 0
48 -3323 3394 0
-3324 3394 0
48 -3324 3395 0
-3325 3395 0
48 -3325 3396 0
-3326 3396 0
48 -3326 3397 0
-3327 3397 0
48 -3327 3398 0
-3328 3398 0
48 -3328 3399 0
-3329 3399 0
48 -3329 3400 0
-3330 3400 0
48 -3330 3401 0
-3331 3401 0
48 -3331 3402 0
-3332 3402 0
48 -3332 3403 0
-3333 3403 0
48 -3333 3404 0
-3334 3404 0
48 -3334 3405 0
-3335 3405 0
48 -3335 3406 0
-3336 3406 0
48 -3336 3407 0
-3337 3407 0
48 -3337 3408 0
-3338 3408 0
48 -3338 3409 0
-3339 3409 0
48 -3339 3410 0
-3340 3410 0
48 -3340 3411 0
-3341 3411 0
48 -3341 3412 0
-3342 3412 0
48 -3342 3413 0
-3343 3413 0
48 -3343 3414 0
-3344 3414 0
48 -3344 3415 0
-3345 3415 0
48 -3345 3416 0
-3346 3416 0
48 -3346 3417 0
-3347 3417 0
48 -3347 3418 0
-3348 3418 0
48 -3348 3419 0
-3349 3419 0
48 -3349 3420 0
-3350 3420 0
48 -3350 3421 0
-3351 3421 0
48 -3351 3422 0
-3352 3422 0
48 -3352 3423 0
-3353 3423 0
48 -3353 3424 0
-3354 3424 0
48 -3354 3425 0
-3355 3425 0
48 -3355 3426 0
-3356 3426 0
48 -3356 3427 0
-3357 3427 0
48 -3357 3428 0
-3358 3428 0
48 -3358 3429 0
-3359 3429 0
48 -3359 3430 0
-3360 3430 0
48 -3360 3431 0
-3361 3431 0
48 -3361 3432 0
-3362 3432 0
48 -3362 3433 0
-3363 3433 0
48 -3363 3434 0
-3364 3434 0
48 -3364 3435 0
-3365 3435 0
48 -3365 3436 0
-3366 3436 0
48 -3366 3437 0
-3367 3437 0
48 -3367 3438 0
-3368 3438 0
48 -3368 3439 0
-3369 3439 0
48 -3369 3440 0
-3370 3440 0
48 -3370 3441 0
-3371 3441 0
48 -3371 3442 0
-3372 3442 0
48 -3372 0
49 3443 0
-3373 3443 0
49 -3373 3444 0
-3374 3444 0
49 -3374 3445 0
-3375 3445 0
49 -3375 3446 0
-3376 3446 0
49 -3376 3447 0
-3377 3447 0
49 -3377 3448 0
-3378 3448 0
49 -3378 3449 0
-3379 3449 0
49 -3379 3450 0
-3380 3450 0
49 -3380 3451 0
-3381 3451 0
49 -3381 3452 0
-3382 3452 0
49 -3382 3453 0
-3383 3453 0
49 -3383 3454 0
-3384 3454 0
49 -3384 3455 0
-3385 3455 0
49 -3385 3456 0
-3386 3456 0
49 -3386 3457 0
-3387 3457 0
49 -3387 3458 0
-3388 3458 0
49 -3388 3459 0
-3389 3459 0
49 -3389 3460 0
-3390 3460 0
49 -3390 3461 0
-3391 3461 0
49 -3391 3462 0
-3392 3462 0
49 -3392 3463 0
-3393 3463 0
49 -3393 3464 0
-3394 3464 0
49 -3394 3465 0
-3395 3465 0
49 -3395 3466 0
-3396 3466 0
49 -3396 3467 0
-3397 3467 0
49 -3397 3468 0
-3398 3468 0
49 -3398 3469 0
-3399 3469 0
49 -3399 3470 0
-3400 3470 0
49 -3400 3471 0
-3401 3471 0
49 -3401 3472 0
-3402 3472 0
49 -3402 3473 0
-3403 3473 0
49 -3403 3474 0
-3404 3474 0
49 -3404 3475 0
-3405 3475 0
49 -3405 3476 0
-3406 3476 0
49 -3406 3477 0
-3407 3477 0
49 -3407 3478 0
-3408 3478 0
49 -3408 3479 0
-3409 3479 0
49 -3409 3480 0
-3410 3480 0
49 -3410 3481 0
-3411 3481 0
49 -3411 3482 0
-3412 3482 0
49 -3412 3483 0
-3413 3483 0
49 -3413 3484 0
-3414 3484 0
49 -3414 3485 0
-3415 3485 0
49 -3415 3486 0
-3416 3486 0
49 -3416 3487 0
-3417 3487 0
49 -3417 3488 0
-3418 3488 0
49 -3418 3489 0
-3419 3489 0
49 -3419 3490 0
-3420 3490 0
49 -3420 3491 0
-3421 3491 0
49 -3421 3492 0
-3422 3492 0
49 -3422 3493 0
-3423 3493 0
49 -3423 3494 0
-3424 3494 0
49 -3424 3495 0
-3425 3495 0
49 -3425 3496 0
-3426 3496 0
49 -3426 3497 0
-3427 3497 0
49 -3427 3498 0
-3428 3498 0
49 -3428 3499 0
-3429 3499 0
49 -3429 3500 0
-3430 3500 0
49 -3430 3501 0
-3431 3501 0
49 -3431 3502 0
-3432 3502 0
49 -3432 3503 0
-3433 3503 0
49 -3433 3504 0
-3434 3504 0
49 -3434 3505 0
-3435 3505 0
49 -3435 3506 0
-3436 3506 0
49 -3436 3507 0
-3437 3507 0
49 -3437 3508 0
-3438 3508 0
49 -3438 3509 0
-3439 3509 0
49 -3439 3510 0
-3440 3510 0
49 -3440 3511 0
-3441 3511 0
49 -3441 3512 0
-3442 3512 0
49 -3442 0
50 3513 0
-3443 3513 0
50 -3443 3514 0
-3444 3514 0
50 -3444 3515 0
-3445 3515 0
50 -3445 3516 0
-3446 3516 0
50 -3446 3517 0
-3447 3517 0
50 -3447 3518 0
-3448 3518 0
50 -3448 3519 0
-3449 3519 0
50 -3449 3520 0
-3450 3520 0
50 -3450 3521 0
-3451 3521 0
50 -3451 3522 0
-3452 3522 0
50 -3452 3523 0
-3453 3523 0
50 -3453 3524 0
-3454 3524 0
50 -3454 3525 0
-3455 3525 0
50 -3455 3526 0
-3456 3526 0
50 -3456 3527 0
-3457 3527 0
50 -3457 3528 0
-3458 3528 0
50 -3458 3529 0
-3459 3529 0
50 -3459 3530 0
-3460 3530 0
50 -3460 3531 0
-3461 3531 0
50 -3461 3532 0
-3462 3532 0
50 -3462 3533 0
-3463 3533 0
50 -3463 3534 0
-3464 3534 0
50 -3464 3535 0
-3465 3535 0
50 -3465 3536 0
-3466 3536 0
50 -3466 3537 0
-3467 3537 0
50 -3467 3538 0
-3468 3538 0
50 -3468 3539 0
-3469 3539 0
50 -3469 3540 0
-3470 3540 0
50 -3470 3541 0
-3471 3541 0
50 -3471 3542 0
-3472 3542 0
50 -3472 3543 0
-3473 3543 0
50 -3473 3544 0
-3474 3544 0
50 -3474 3545 0
-3475 3545 0
50 -3475 3546 0
-3476 3546 0
50 -3476 3547 0
-3477 3547 0
50 -3477 3548 0
-3478 3548 0
50 -3478 3549 0
-3479 3549 0
50 -3479 3550 0
-3480 3550 0
50 -3480 3551 0
-3481 3551 0
50 -3481 3552 0
-3482 3552 0
50 -3482 3553 0
-3483 3553 0
50 -3483 3554 0
-3484 3554 0
50 -3484 3555 0
-3485 3555 0
50 -3485 3556 0
-3486 3556 0
50 -3486 3557 0
-3487 3557 0
50 -3487 3558 0
-3488 3558 0
50 -3488 3559 0
-3489 3559 0
50 -3489 3560 0
-3490 3560 0
50 -3490 3561 0
-3491 3561 0
50 -3491 3562 0
-3492 3562 0
50 -3492 3563 0
-3493 3563 0
50 -3493 3564 0
-3494 3564 0
50 -3494 3565 0
-3495 3565 0
50 -3495 3566 0
-3496 3566 0
50 -3496 3567 0
-3497 3567 0
50 -3497 3568 0
-3498 3568 0
50 -3498 3569 0
-3499 3569 0
50 -3499 3570 0
-3500 3570 0
50 -3500 3571 0
-3501 3571 0
50 -3501 3572 0
-3502 3572 0
50 -3502 3573 0
-3503 3573 0
50 -3503 3574 0
-3504 3574 0
50 -3504 3575 0
-3505 3575 0
50 -3505 3576 0
-3506 3576 0
50 -3506 3577 0
-3507 3577 0
50 -3507 3578 0
-3508 3578 0
50 -3508 3579 0
-3509 3579 0
50 -3509 3580 0
-3510 3580 0
50 -3510 3581 0
-3511 3581 0
50 -3511 3582 0
-3512 3582 0
50 -3512 0
51 3583 0
-3513 3583 0
51 -3513 3584 0
-3514 3584 0
51 -3514 3585 0
-3515 3585 0
51 -3515 3586 0
-3516 3586 0
51 -3516 3587 0
-3517 3587 0
51 -3517 3588 0
-3518 3588 0
51 -3518 3589 0
-3519 3589 0
51 -3519 3590 0
-3520 3590 0
51 -3520 3591 0
-3521 3591 0
51 -3521 3592 0
-3522 3592 0
51 -3522 3593 0
-3523 3593 0
51 -3523 3594 0
-3524 3594 0
51 -3524 3595 0
-3525 3595 0
51 -3525 3596 0
-3526 3596 0
51 -3526 3597 0
-3527 3597 0
51 -3527 3598 0
-3528 3598 0
51 -3528 3599 0
-3529 3599 0
51 -3529 3600 0
-3530 3600 0
51 -3530 3601 0
-3531 3601 0
51 -3531 3602 0
-3532 3602 0
51 -3532 3603 0
-3533 3603 0
51 -3533 3604 0
-3534 3604 0
51 -3534 3605 0
-3535 3605 0
51 -3535 3606 0
-3536 3606 0
51 -3536 3607 0
-3537 3607 0
51 -3537 3608 0
-3538 3608 0
51 -3538 3609 0
-3539 3609 0
51 -3539 3610 0
-3540 3610 0
51 -3540 3611 0
-3541 3611 0
51 -3541 3612 0
-3542 3612 0
51 -3542 3613 0
-3543 3613 0
51 -3543 3614 0
-3544 3614 0
51 -3544 3615 0
-3545 3615 0
51 -3545 3616 0
-3546 3616 0
51 -3546 3617 0
-3547 3617 0
51 -3547 3618 0
-3548 3618 0
51 -3548 3619 0
-3549 3619 0
51 -3549 3620 0
-3550 3620 0
51 -3550 3621 0
-3551 3621 0
51 -3551 3622 0
-3552 3622 0
51 -3552 3623 0
-3553 3623 0
51 -3553 3624 0
-3554 3624 0
51 -3554 3625 0
-3555 3625 0
51 -3555 3626 0
-3556 3626 0
51 -3556 3627 0
-3557 3627 0
51 -3557 3628 0
-3558 3628 0
51 -3558 3629 0
-3559 3629 0
51 -3559 3630 0
-3560 3630 0
51 -3560 3631 0
-3561 3631 0
51 -3561 3632 0
-3562 3632 0
51 -3562 3633 0
-3563 3633 0
51 -3563 3634 0
-3564 3634 0
51 -3564 3635 0
-3565 3635 0
51 -3565 3636 0
-3566 3636 0
51 -3566 3637 0
-3567 3637 0
51 -3567 3638 0
-3568 3638 0
51 -3568 3639 0
-3569 3639 0
51 -3569 3640 0
-3570 3640 0
51 -3570 3641 0
-3571 3641 0
51 -3571 3642 0
-3572 3642 0
51 -3572 3643 0
-3573 3643 0
51 -3573 3644 0
-3574 3644 0
51 -3574 3645 0
-3575 3645 0
51 -3575 3646 0
-3576 3646 0
51 -3576 3647 0
-3577 3647 0
51 -3577 3648 0
-3578 3648 0
51 -3578 3649 0
-3579 3649 0
51 -3579 3650 0
-3580 3650 0
51 -3580 3651 0
-3581 3651 0
51 -3581 3652 0
-3582 3652 0
51 -3582 0
52 3653 0
-3583 3653 0
52 -3583 3654 0
-3584 3654 0
52 -3584 3655 0
-3585 3655 0
52 -3585 3656 0
-3586 3656 0
52 -3586 3657 0
-3587 3657 0
52 -3587 3658 0
-3588 3658 0
52 -3588 3659 0
-3589 3659 0
52 -3589 3660 0
-3590 3660 0
52 -3590 3661 0
-3591 3661 0
52 -3591 3662 0
-3592 3662 0
52 -3592 3663 0
-3593 3663 0
52 -3593 3664 0
-3594 3664 0
52 -3594 3665 0
-3595 3665 0
52 -3595 3666 0
-3596 3666 0
52 -3596 3667 0
-3597 3667 0
52 -3597 3668 0
-3598 3668 0
52 -3598 3669 0
-3599 3669 0
52 -3599 3670 0
-3600 3670 0
52 -3600 3671 0
-3601 3671 0
52 -3601 3672 0
-3602 3672 0
52 -3602 3673 0
-3603 3673 0
52 -3603 3674 0
-3604 3674 0
52 -3604 3675 0
-3605 3675 0
52 -3605 3676 0
-3606 3676 0
52 -3606 3677 0
-3607 3677 0
52 -3607 3678 0
-3608 3678 0
52 -3608 3679 0
-3609 3679 0
52 -3609 3680 0
-3610 3680 0
52 -3610 3681 0
-3611 3681 0
52 -3611 3682 0
-3612 3682 0
52 -3612 3683 0
-3613 3683 0
52 -3613 3684 0
-3614 3684 0
52 -3614 3685 0
-3615 3685 0
52 -3615 3686 0
-3616 3686 0
52 -3616 3687 0
-3617 3687 0
52 -3617 3688 0
-3618 3688 0
52 -3618 3689 0
-3619 3689 0
52 -3619 3690 0
-3620 3690 0
52 -3620 3691 0
-3621 3691 0
52 -3621 3692 0
-3622 3692 0
52 -3622 3693 0
-3623 3693 0
52 -3623 3694 0
-3624 3694 0
52 -3624 3695 0
-3625 3695 0
52 -3625 3696 0
-3626 3696 0
52 -3626 3697 0
-3627 3697 0
52 -3627 3698 0
-3628 3698 0
52 -3628 3699 0
-3629 3699 0
52 -3629 3700 0
-3630 3700 0
52 -3630 3701 0
-3631 3701 0
52 -3631 3702 0
-3632 3702 0
52 -3632 3703 0
-3633 3703 0
52 -3633 3704 0
-3634 3704 0
52 -3634 3705 0
-3635 3705 0
52 -3635 3706 0
-3636 3706 0
52 -3636 3707 0
-3637 3707 0
52 -3637 3708 0
-3638 3708 0
52 -3638 3709 0
-3639 3709 0
52 -3639 3710 0
-3640 3710 0
52 -3640 3711 0
-3641 3711 0
52 -3641 3712 0
-3642 3712 0
52 -3642 3713 0
-3643 3713 0
52 -3643 3714 0
-3644 3714 0
52 -3644 3715 0
-3645 3715 0
52 -3645 3716 0
-3646 3716 0
52 -3646 3717 0
-3647 3717 0
52 -3647 3718 0
-3648 3718 0
52 -3648 3719 0
-3649 3719 0
52 -3649 3720 0
-3650 3720 0
52 -3650 3721 0
-3651 3721 0
52 -3651 3722 0
-3652 3722 0
52 -3652 0
53 3723 0
-3653 3723 0
53 -3653 3724 0
-3654 3724 0
53 -3654 3725 0
-3655 3725 0
53 -3655 3726 0
-3656 3726 0
53 -3656 3727 0
-3657 3727 0
53 -3657 3728 0
-3658 3728 0
53 -3658 3729 0
-3659 3729 0
53 -3659 3730 0
-3660 3730 0
53 -3660 3731 0
-3661 3731 0
53 -3661 3732 0
-3662 3732 0
53 -3662 3733 0
-3663 3733 0
53 -3663 3734 0
-3664 3734 0
53 -3664 3735 0
-3665 3735 0
53 -3665 3736 0
-3666 3736 0
53 -3666 3737 0
-3667 3737 0
53 -3667 3738 0
-3668 3738 0
53 -3668 3739 0
-3669 3739 0
53 -3669 3740 0
-3670 3740 0
53 -3670 3741 0
-3671 3741 0
53 -3671 3742 0
-3672 3742 0
53 -3672 3743 0
-3673 3743 0
53 -3673 3744 0
-3674 3744 0
53 -3674 3745 0
-3675 3745 0
53 -3675 3746 0
-3676 3746 0
53 -3676 3747 0
-3677 3747 0
53 -3677 3748 0
-3678 3748 0
53 -3678 3749 0
-3679 3749 0
53 -3679 3750 0
-3680 3750 0
53 -3680 3751 0
-3681 3751 0
53 -3681 3752 0
-3682 3752 0
53 -3682 3753 0
-3683 3753 0
53 -3683 3754 0
-3684 3754 0
53 -3684 3755 0
-3685 3755 0
53 -3685 3756 0
-3686 3756 0
53 -3686 3757 0
-3687 3757 0
53 -3687 3758 0
-3688 3758 0
53 -3688 3759 0
-3689 3759 0
53 -3689 3760 0
-3690 3760 0
53 -3690 3761 0
-3691 3761 0
53 -3691 3762 0
-3692 3762 0
53 -3692 3763 0
-3693 3763 0
53 -3693 3764 0
-3694 3764 0
53 -3694 3765 0
-3695 3765 0
53 -3695 3766 0
-3696 3766 0
53 -3696 3767 0
-3697 3767 0
53 -3697 3768 0
-3698 3768 0
53 -3698 3769 0
-3699 3769 0
53 -3699 3770 0
-3700 3770 0
53 -3700 3771 0
-3701 3771 0
53 -3701 3772 0
-3702 3772 0
53 -3702 3773 0
-3703 3773 0
53 -3703 3774 0
-3704 3774 0
53 -3704 3775 0
-3705 3775 0
53 -3705 3776 0
-3706 3776 0
53 -3706 3777 0
-3707 3777 0
53 -3707 3778 0
-3708 3778 0
53 -3708 3779 0
-3709 3779 0
53 -3709 3780 0
-3710 3780 0
53 -3710 3781 0
-3711 3781 0
53 -3711 3782 0
-3712 3782 0
53 -3712 3783 0
-3713 3783 0
53 -3713 3784 0
-3714 3784 0
53 -3714 3785 0
-3715 3785 0
53 -3715 3786 0
-3716 3786 0
53 -3716 3787 0
-3717 3787 0
53 -3717 3788 0
-3718 3788 0
53 -3718 3789 0
-3719 3789 0
53 -3719 3790 0
-3720 3790 0
53 -3720 3791 0
-3721 3791 0
53 -3721 3792 0
-3722 3792 0
53 -3722 0
54 3793 0
-3723 3793 0
54 -3723 3794 0
-3724 3794 0
54 -3724 3795 0
-3725 3795 0
54 -3725 3796 0
-3726 3796 0
54 -3726 3797 0
-3727 3797 0
54 -3727 3798 0
-3728 3798 0
54 -3728 3799 0
-3729 3799 0
54 -3729 3800 0
-3730 3800 0
54 -3730 3801 0
-3731 3801 0
54 -3731 3802 0
-3732 3802 0
54 -3732 3803 0
-3733 3803 0
54 -3733 3804 0
-3734 3804 0
54 -3734 3805 0
-3735 3805 0
54 -3735 3806 0
-3736 3806 0
54 -3736 3807 0
-3737 3807 0
54 -3737 3808 0
-3738 3808 0
54 -3738 3809 0
-3739 3809 0
54 -3739 3810 0
-3740 3810 0
54 -3740 3811 0
-3741 3811 0
54 -3741 3812 0
-3742 3812 0
54 -3742 3813 0
-3743 3813 0
54 -3743 3814 0
-3744 3814 0
54 -3744 3815 0
-3745 3815 0
54 -3745 3816 0
-3746 3816 0
54 -3746 3817 0
-3747 3817 0
54 -3747 3818 0
-3748 3818 0
54 -3748 3819 0
-3749 3819 0
54 -3749 3820 0
-3750 3820 0
54 -3750 3821 0
-3751 3821 0
54 -3751 3822 0
-3752 3822 0
54 -3752 3823 0
-3753 3823 0
54 -3753 3824 0
-3754 3824 0
54 -3754 3825 0
-3755 3825 0
54 -3755 3826 0
-3756 3826 0
54 -3756 3827 0
-3757 3827 0
54 -3757 3828 0
-3758 3828 0
54 -3758 3829 0
-3759 3829 0
54 -3759 3830 0
-3760 3830 0
54 -3760 3831 0
-3761 3831 0
54 -3761 3832 0
-3762 3832 0
54 -3762 3833 0
-3763 3833 0
54 -3763 3834 0
-3764 3834 0
54 -3764 3835 0
-3765 3835 0
54 -3765 3836 0
-3766 3836 0
54 -3766 3837 0
-3767 3837 0
54 -3767 3838 0
-3768 3838 0
54 -3768 3839 0
-3769 3839 0
54 -3769 3840 0
-3770 3840 0
54 -3770 3841 0
-3771 3841 0
54 -3771 3842 0
-3772 3842 0
54 -3772 3843 0
-3773 3843 0
54 -3773 3844 0
-3774 3844 0
54 -3774 3845 0
-3775 3845 0
54 -3775 3846 0
-3776 3846 0
54 -3776 3847 0
-3777 3847 0
54 -3777 3848 0
-3778 3848 0
54 -3778 3849 0
-3779 3849 0
54 -3779 3850 0
-3780 3850 0
54 -3780 3851 0
-3781 3851 0
54 -3781 3852 0
-3782 3852 0
54 -3782 3853 0
-3783 3853 0
54 -3783 3854 0
-3784 3854 0
54 -3784 3855 0
-3785 3855 0
54 -3785 3856 0
-3786 3856 0
54 -3786 3857 0
-3787 3857 0
54 -3787 3858 0
-3788 3858 0
54 -3788 3859 0
-3789 3859 0
54 -3789 3860 0
-3790 3860 0
54 -3790 3861 0
-3791 3861 0
54 -3791 3862 0
-3792 3862 0
54 -3792 0
55 3863 0
-3793 3863 0
55 -3793 3864 0
-3794 3864 0
55 -3794 3865 0
-3795 3865 0
55 -3795 3866 0
-3796 3866 0
55 -3796 3867 0
-3797 3867 0
55 -3797 3868 0
-3798 3868 0
55 -3798 3869 0
-3799 3869 0
55 -3799 3870 0
-3800 3870 0
55 -3800 3871 0
-3801 3871 0
55 -3801 3872 0
-3802 3872 0
55 -3802 3873 0
-3803 3873 0
55 -3803 3874 0
-3804 3874 0
55 -3804 3875 0
-3805 3875 0
55 -3805 3876 0
-3806 3876 0
55 -3806 3877 0
-3807 3877 0
55 -3807 3878 0
-3808 3878 0
55 -3808 3879 0
-3809 3879 0
55 -3809 3880 0
-3810 3880 0
55 -3810 3881 0
-3811 3881 0
55 -3811 3882 0
-3812 3882 0
55 -3812 3883 0
-3813 3883 0
55 -3813 3884 0
-3814 3884 0
55 -3814 3885 0
-3815 3885 0
55 -3815 3886 0
-3816 3886 0
55 -3816 3887 0
-3817 3887 0
55 -3817 3888 0
-3818 3888 0
55 -3818 3889 0
-3819 3889 0
55 -3819 3890 0
-3820 3890 0
55 -3820 3891 0
-3821 3891 0
55 -3821 3892 0
-3822 3892 0
55 -3822 3893 0
-3823 3893 0
55 -3823 3894 0
-3824 3894 0
55 -3824 3895 0
-3825 3895 0
55 -3825 3896 0
-3826 3896 0
55 -3826 3897 0
-3827 3897 0
55 -3827 3898 0
-3828 3898 0
55 -3828 3899 0
-3829 3899 0
55 -3829 3900 0
-3830 3900 0
55 -3830 3901 0
-3831 3901 0
55 -3831 3902 0
-3832 3902 0
55 -3832 3903 0
-3833 3903 0
55 -3833 3904 0
-3834 3904 0
55 -3834 3905 0
-3835 3905 0
55 -3835 3906 0
-3836 3906 0
55 -3836 3907 0
-3837 3907 0
55 -3837 3908 0
-3838 3908 0
55 -3838 3909 0
-3839 3909 0
55 -3839 3910 0
-3840 3910 0
55 -3840 3911 0
-3841 3911 0
55 -3841 3912 0
-3842 3912 0
55 -3842 3913 0
-3843 3913 0
55 -3843 3914 0
-3844 3914 0
55 -3844 3915 0
-3845 3915 0
55 -3845 3916 0
-3846 3916 0
55 -3846 3917 0
-3847 3917 0
55 -3847 3918 0
-3848 3918 0
55 -3848 3919 0
-3849 3919 0
55 -3849 3920 0
-3850 3920 0
55 -3850 3921 0
-3851 3921 0
55 -3851 3922 0
-3852 3922 0
55 -3852 3923 0
-3853 3923 0
55 -3853 3924 0
-3854 3924 0
55 -3854 3925 0
-3855 3925 0
55 -3855 3926 0
-3856 3926 0
55 -3856 3927 0
-3857 3927 0
55 -3857 3928 0
-3858 3928 0
55 -3858 3929 0
-3859 3929 0
55 -3859 3930 0
-3860 3930 0
55 -3860 3931 0
-3861 3931 0
55 -3861 3932 0
-3862 3932 0
55 -3862 0
56 3933 0
-3863 3933 0
56 -3863 3934 0
-3864 3934 0
56 -3864 3935 0
-3865 3935 0
56 -3865 3936 0
-3866 3936 0
56 -3866 3937 0
-3867 3937 0
56 -3867 3938 0
-3868 3938 0
56 -3868 3939 0
-3869 3939 0
56 -3869 3940 0
-3870 3940 0
56 -3870 3941 0
-3871 3941 0
56 -3871 3942 0
-3872 3942 0
56 -3872 3943 0
-3873 3943 0
56 -3873 3944 0
-3874 3944 0
56 -3874 3945 0
-3875 3945 0
56 -3875 3946 0
-3876 3946 0
56 -3876 3947 0
-3877 3947 0
56 -3877 3948 0
-3878 3948 0
56 -3878 3949 0
-3879 3949 0
56 -3879 3950 0
-3880 3950 0
56 -3880 3951 0
-3881 3951 0
56 -3881 3952 0
-3882 3952 0
56 -3882 3953 0
-3883 3953 0
56 -3883 3954 0
-3884 3954 0
56 -3884 3955 0
-3885 3955 0
56 -3885 3956 0
-3886 3956 0
56 -3886 3957 0
-3887 3957 0
56 -3887 3958 0
-3888 3958 0
56 -3888 3959 0
-3889 3959 0
56 -3889 3960 0
-3890 3960 0
56 -3890 3961 0
-3891 3961 0
56 -3891 3962 0
-3892 3962 0
56 -3892 3963 0
-3893 3963 0
56 -3893 3964 0
-3894 3964 0
56 -3894 3965 0
-3895 3965 0
56 -3895 3966 0
-3896 3966 0
56 -3896 3967 0
-3897 3967 0
56 -3897 3968 0
-3898 3968 0
56 -3898 3969 0
-3899 3969 0
56 -3899 3970 0
-3900 3970 0
56 -3900 3971 0
-3901 3971 0
56 -3901 3972 0
-3902 3972 0
56 -3902 3973 0
-3903 3973 0
56 -3903 3974 0
-3904 3974 0
56 -3904 3975 0
-3905 3975 0
56 -3905 3976 0
-3906 3976 0
56 -3906 3977 0
-3907 3977 0
56 -3907 3978 0
-3908 3978 0
56 -3908 3979 0
-3909 3979 0
56 -3909 3980 0
-3910 3980 0
56 -3910 3981 0
-3911 3981 0
56 -3911 3982 0
-3912 3982 0
56 -3912 3983 0
-3913 3983 0
56 -3913 3984 0
-3914 3984 0
56 -3914 3985 0
-3915 3985 0
56 -3915 3986 0
-3916 3986 0
56 -3916 3987 0
-3917 3987 0
56 -3917 3988 0
-3918 3988 0
56 -3918 3989 0
-3919 3989 0
56 -3919 3990 0
-3920 3990 0
56 -3920 3991 0
-3921 3991 0
56 -3921 3992 0
-3922 3992 0
56 -3922 3993 0
-3923 3993 0
56 -3923 3994 0
-3924 3994 0
56 -3924 3995 0
-3925 3995 0
56 -3925 3996 0
-3926 3996 0
56 -3926 3997 0
-3927 3997 0
56 -3927 3998 0
-3928 3998 0
56 -3928 3999 0
-3929 3999 0
56 -3929 4000 0
-3930 4000 0
56 -3930 4001 0
-3931 4001 0
56 -3931 4002 0
-3932 4002 0
56 -3932 0
57 4003 0
-3933 4003 0
57 -3933 4004 0
-3934 4004 0
57 -3934 4005 0
-3935 4005 0
57 -3935 4006 0
-3936 4006 0
57 -3936 4007 0
-3937 4007 0
57 -3937 4008 0
-3938 4008 0
57 -3938 4009 0
-3939 4009 0
57 -3939 4010 0
-3940 4010 0
57 -3940 4011 0
-3941 4011 0
57 -3941 4012 0
-3942 4012 0
57 -3942 4013 0
-3943 4013 0
57 -3943 4014 0
-3944 4014 0
57 -3944 4015 0
-3945 4015 0
57 -3945 4016 0
-3946 4016 0
57 -3946 4017 0
-3947 4017 0
57 -3947 4018 0
-3948 4018 0
57 -3948 4019 0
-3949 4019 0
57 -3949 4020 0
-3950 4020 0
57 -3950 4021 0
-3951 4021 0
57 -3951 4022 0
-3952 4022 0
57 -3952 4023 0
-3953 4023 0
57 -3953 4024 0
-3954 4024 0
57 -3954 4025 0
-3955 4025 0
57 -3955 4026 0
-3956 4026 0
57 -3956 4027 0
-3957 4027 0
57 -3957 4028 0
-3958 4028 0
57 -3958 4029 0
-3959 4029 0
57 -3959 4030 0
-3960 4030 0
57 -3960 4031 0
-3961 4031 0
57 -3961 4032 0
-3962 4032 0
57 -3962 4033 0
-3963 4033 0
57 -3963 4034 0
-3964 4034 0
57 -3964 4035 0
-3965 4035 0
57 -3965 4036 0
-3966 4036 0
57 -3966 4037 0
-3967 4037 0
57 -3967 4038 0
-3968 4038 0
57 -3968 4039 0
-3969 4039 0
57 -3969 4040 0
-3970 4040 0
57 -3970 4041 0
-3971 4041 0
57 -3971 4042 0
-3972 4042 0
57 -3972 4043 0
-3973 4043 0
57 -3973 4044 0
-3974 4044 0
57 -3974 4045 0
-3975 4045 0
57 -3975 4046 0
-3976 4046 0
57 -3976 4047 0
-3977 4047 0
57 -3977 4048 0
-3978 4048 0
57 -3978 4049 0
-3979 4049 0
57 -3979 4050 0
-3980 4050 0
57 -3980 4051 0
-3981 4051 0
57 -3981 4052 0
-3982 4052 0
57 -3982 4053 0
-3983 4053 0
57 -3983 4054 0
-3984 4054 0
57 -3984 4055 0
-3985 4055 0
57 -3985 4056 0
-3986 4056 0
57 -3986 4057 0
-3987 4057 0
57 -3987 4058 0
-3988 4058 0
57 -3988 4059 0
-3989 4059 0
57 -3989 4060 0
-3990 4060 0
57 -3990 4061 0
-3991 4061 0
57 -3991 4062 0
-3992 4062 0
57 -3992 4063 0
-3993 4063 0
57 -3993 4064 0
-3994 4064 0
57 -3994 4065 0
-3995 4065 0
57 -3995 4066 0
-3996 4066 0
57 -3996 4067 0
-3997 4067 0
57 -3997 4068 0
-3998 4068 0
57 -3998 4069 0
-3999 4069 0
57 -3999 4070 0
-4000 4070 0
57 -4000 4071 0
-4001 4071 0
57 -4001 4072 0
-4002 4072 0
57 -4002 0
58 4073 0
-4003 4073 0
58 -4003 4074 0
-4004 4074 0
58 -4004 4075 0
-4005 4075 0
58 -4005 4076 0
-4006 4076 0
58 -4006 4077 0
-4007 4077 0
58 -4007 4078 0
-4008 4078 0
58 -4008 4079 0
-4009 4079 0
58 -4009 4080 0
-4010 4080 0
58 -4010 4081 0
-4011 4081 0
58 -4011 4082 0
-4012 4082 0
58 -4012 4083 0
-4013 4083 0
58 -4013 4084 0
-4014 4084 0
58 -4014 4085 0
-4015 4085 0
58 -4015 4086 0
-4016 4086 0
58 -4016 4087 0
-4017 4087 0
58 -4017 4088 0
-4018 4088 0
58 -4018 4089 0
-4019 4089 0
58 -4019 4090 0
-4020 4090 0
58 -4020 4091 0
-4021 4091 0
58 -4021 4092 0
-4022 4092 0
58 -4022 4093 0
-4023 4093 0
58 -4023 4094 0
-4024 4094 0
58 -4024 4095 0
-4025 4095 0
58 -4025 4096 0
-4026 4096 0
58 -4026 4097 0
-4027 4097 0
58 -4027 4098 0
-4028 4098 0
58 -4028 4099 0
-4029 4099 0
58 -4029 4100 0
-4030 4100 0
58 -4030 4101 0
-4031 4101 0
58 -4031 4102 0
-4032 4102 0
58 -4032 4103 0
-4033 4103 0
58 -4033 4104 0
-4034 4104 0
58 -4034 4105 0
-4035 4105 0
58 -4035 4106 0
-4036 4106 0
58 -4036 4107 0
-4037 4107 0
58 -4037 4108 0
-4038 4108 0
58 -4038 4109 0
-4039 4109 0
58 -4039 4110 0
-4040 4110 0
58 -4040 4111 0
-4041 4111 0
58 -4041 4112 0
-4042 4112 0
58 -4042 4113 0
-4043 4113 0
58 -4043 4114 0
-4044 4114 0
58 -4044 4115 0
-4045 4115 0
58 -4045 4116 0
-4046 4116 0
58 -4046 4117 0
-4047 4117 0
58 -4047 4118 0
-4048 4118 0
58 -4048 4119 0
-4049 4119 0
58 -4049 4120 0
-4050 4120 0
58 -4050 4121 0
-4051 4121 0
58 -4051 4122 0
-4052 4122 0
58 -4052 4123 0
-4053 4123 0
58 -4053 4124 0
-4054 4124 0
58 -4054 4125 0
-4055 4125 0
58 -4055 4126 0
-4056 4126 0
58 -4056 4127 0
-4057 4127 0
58 -4057 4128 0
-4058 4128 0
58 -4058 4129 0
-4059 4129 0
58 -4059 4130 0
-4060 4130 0
58 -4060 4131 0
-4061 4131 0
58 -4061 4132 0
-4062 4132 0
58 -4062 4133 0
-4063 4133 0
58 -4063 4134 0
-4064 4134 0
58 -4064 4135 0
-4065 4135 0
58 -4065 4136 0
-4066 4136 0
58 -4066 4137 0
-4067 4137 0
58 -4067 4138 0
-4068 4138 0
58 -4068 4139 0
-4069 4139 0
58 -4069 4140 0
-4070 4140 0
58 -4070 4141 0
-4071 4141 0
58 -4071 4142 0
-4072 4142 0
58 -4072 0
59 4143 0
-4073 4143 0
59 -4073 4144 0
-4074 4144 0
59 -4074 4145 0
-4075 4145 0
59 -4075 4146 0
-4076 4146 0
59 -4076 4147 0
-4077 4147 0
59 -4077 4148 0
-4078 4148 0
59 -4078 4149 0
-4079 4149 0
59 -4079 4150 0
-4080 4150 0
59 -4080 4151 0
-4081 4151 0
59 -4081 4152 0
-4082 4152 0
59 -4082 4153 0
-4083 4153 0
59 -4083 4154 0
-4084 4154 0
59 -4084 4155 0
-4085 4155 0
59 -4085 4156 0
-4086 4156 0
59 -4086 4157 0
-4087 4157 0
59 -4087 4158 0
-4088 4158 0
59 -4088 4159 0
-4089 4159 0
59 -4089 4160 0
-4090 4160 0
59 -4090 4161 0
-4091 4161 0
59 -4091 4162 0
-4092 4162 0
59 -4092 4163 0
-4093 4163 0
59 -4093 4164 0
-4094 4164 0
59 -4094 4165 0
-4095 4165 0
59 -4095 4166 0
-4096 4166 0
59 -4096 4167 0
-4097 4167 0
59 -4097 4168 0
-4098 4168 0
59 -4098 4169 0
-4099 4169 0
59 -4099 4170 0
-4100 4170 0
59 -4100 4171 0
-4101 4171 0
59 -4101 4172 0
-4102 4172 0
59 -4102 4173 0
-4103 4173 0
59 -4103 4174 0
-4104 4174 0
59 -4104 4175 0
-4105 4175 0
59 -4105 4176 0
-4106 4176 0
59 -4106 4177 0
-4107 4177 0
59 -4107 4178 0
-4108 4178 0
59 -4108 4179 0
-4109 4179 0
59 -4109 4180 0
-4110 4180 0
59 -4110 4181 0
-4111 4181 0
59 -4111 4182 0
-4112 4182 0
59 -4112 4183 0
-4113 4183 0
59 -4113 4184 0
-4114 4184 0
59 -4114 4185 0
-4115 4185 0
59 -4115 4186 0
-4116 4186 0
59 -4116 4187 0
-4117 4187 0
59 -4117 4188 0
-4118 4188 0
59 -4118 4189 0
-4119 4189 0
59 -4119 4190 0
-4120 4190 0
59 -4120 4191 0
-4121 4191 0
59 -4121 4192 0
-4122 4192 0
59 -4122 4193 0
-4123 4193 0
59 -4123 4194 0
-4124 4194 0
59 -4124 4195 0
-4125 4195 0
59 -4125 4196 0
-4126 4196 0
59 -4126 4197 0
-4127 4197 0
59 -4127 4198 0
-4128 4198 0
59 -4128 4199 0
-4129 4199 0
59 -4129 4200 0
-4130 4200 0
59 -4130 4201 0
-4131 4201 0
59 -4131 4202 0
-4132 4202 0
59 -4132 4203 0
-4133 4203 0
59 -4133 4204 0
-4134 4204 0
59 -4134 4205 0
-4135 4205 0
59 -4135 4206 0
-4136 4206 0
59 -4136 4207 0
-4137 4207 0
59 -4137 4208 0
-4138 4208 0
59 -4138 4209 0
-4139 4209 0
59 -4139 4210 0
-4140 4210 0
59 -4140 4211 0
-4141 4211 0
59 -4141 4212 0
-4142 4212 0
59 -4142 0
60 4213 0
-4143 4213 0
60 -4143 4214 0
-4144 4214 0
60 -4144 4215 0
-4145 4215 0
60 -4145 4216 0
-4146 4216 0
60 -4146 4217 0
-4147 4217 0
60 -4147 4218 0
-4148 4218 0
60 -4148 4219 0
-4149 4219 0
60 -4149 4220 0
-4150 4220 0
60 -4150 4221 0
-4151 4221 0
60 -4151 4222 0
-4152 4222 0
60 -4152 4223 0
-4153 4223 0
60 -4153 4224 0
-4154 4224 0
60 -4154 4225 0
-4155 4225 0
60 -4155 4226 0
-4156 4226 0
60 -4156 4227 0
-4157 4227 0
60 -4157 4228 0
-4158 4228 0
60 -4158 4229 0
-4159 4229 0
60 -4159 4230 0
-4160 4230 0
60 -4160 4231 0
-4161 4231 0
60 -4161 4232 0
-4162 4232 0
60 -4162 4233 0
-4163 4233 0
60 -4163 4234 0
-4164 4234 0
60 -4164 4235 0
-4165 4235 0
60 -4165 4236 0
-4166 4236 0
60 -4166 4237 0
-4167 4237 0
60 -4167 4238 0
-4168 4238 0
60 -4168 4239 0
-4169 4239 0
60 -4169 4240 0
-4170 4240 0
60 -4170 4241 0
-4171 4241 0
60 -4171 4242 0
-4172 4242 0
60 -4172 4243 0
-4173 4243 0
60 -4173 4244 0
-4174 4244 0
60 -4174 4245 0
-4175 4245 0
60 -4175 4246 0
-4176 4246 0
60 -4176 4247 0
-4177 4247 0
60 -4177 4248 0
-4178 4248 0
60 -4178 4249 0
-4179 4249 0
60 -4179 4250 0
-4180 4250 0
60 -4180 4251 0
-4181 4251 0
60 -4181 4252 0
-4182 4252 0
60 -4182 4253 0
-4183 4253 0
60 -4183 4254 0
-4184 4254 0
60 -4184 4255 0
-4185 4255 0
60 -4185 4256 0
-4186 4256 0
60 -4186 4257 0
-4187 4257 0
60 -4187 4258 0
-4188 4258 0
60 -4188 4259 0
-4189 4259 0
60 -4189 4260 0
-4190 4260 0
60 -4190 4261 0
-4191 4261 0
60 -4191 4262 0
-4192 4262 0
60 -4192 4263 0
-4193 4263 0
60 -4193 4264 0
-4194 4264 0
60 -4194 4265 0
-4195 4265 0
60 -4195 4266 0
-4196 4266 0
60 -4196 4267 0
-4197 4267 0
60 -4197 4268 0
-4198 4268 0
60 -4198 4269 0
-4199 4269 0
60 -4199 4270 0
-4200 4270 0
60 -4200 4271 0
-4201 4271 0
60 -4201 4272 0
-4202 4272 0
60 -4202 4273 0
-4203 4273 0
60 -4203 4274 0
-4204 4274 0
60 -4204 4275 0
-4205 4275 0
60 -4205 4276 0
-4206 4276 0
60 -4206 4277 0
-4207 4277 0
60 -4207 4278 0
-4208 4278 0
60 -4208 4279 0
-4209 4279 0
60 -4209 4280 0
-4210 4280 0
60 -4210 4281 0
-4211 4281 0
60 -4211 4282 0
-4212 4282 0
60 -4212 0
61 4283 0
-4213 4283 0
61 -4213 4284 0
-4214 4284 0
61 -4214 4285 0
-4215 4285 0
61 -4215 4286 0
-4216 4286 0
61 -4216 4287 0
-4217 4287 0
61 -4217 4288 0
-4218 4288 0
61 -4218 4289 0
-4219 4289 0
61 -4219 4290 0
-4220 4290 0
61 -4220 4291 0
-4221 4291 0
61 -4221 4292 0
-4222 4292 0
61 -4222 4293 0
-4223 4293 0
61 -4223 4294 0
-4224 4294 0
61 -4224 4295 0
-4225 4295 0
61 -4225 4296 0
-4226 4296 0
61 -4226 4297 0
-4227 4297 0
61 -4227 4298 0
-4228 4298 0
61 -4228 4299 0
-4229 4299 0
61 -4229 4300 0
-4230 4300 0
61 -4230 4301 0
-4231 4301 0
61 -4231 4302 0
-4232 4302 0
61 -4232 4303 0
-4233 4303 0
61 -4233 4304 0
-4234 4304 0
61 -4234 4305 0
-4235 4305 0
61 -4235 4306 0
-4236 4306 0
61 -4236 4307 0
-4237 4307 0
61 -4237 4308 0
-4238 4308 0
61 -4238 4309 0
-4239 4309 0
61 -4239 4310 0
-4240 4310 0
61 -4240 4311 0
-4241 4311 0
61 -4241 4312 0
-4242 4312 0
61 -4242 4313 0
-4243 4313 0
61 -4243 4314 0
-4244 4314 0
61 -4244 4315 0
-4245 4315 0
61 -4245 4316 0
-4246 4316 0
61 -4246 4317 0
-4247 4317 0
61 -4247 4318 0
-4248 4318 0
61 -4248 4319 0
-4249 4319 0
61 -4249 4320 0
-4250 4320 0
61 -4250 4321 0
-4251 4321 0
61 -4251 4322 0
-4252 4322 0
61 -4252 4323 0
-4253 4323 0
61 -4253 4324 0
-4254 4324 0
61 -4254 4325 0
-4255 4325 0
61 -4255 4326 0
-4256 4326 0
61 -4256 4327 0
-4257 4327 0
61 -4257 4328 0
-4258 4328 0
61 -4258 4329 0
-4259 4329 0
61 -4259 4330 0
-4260 4330 0
61 -4260 4331 0
-4261 4331 0
61 -4261 4332 0
-4262 4332 0
61 -4262 4333 0
-4263 4333 0
61 -4263 4334 0
-4264 4334 0
61 -4264 4335 0
-4265 4335 0
61 -4265 4336 0
-4266 4336 0
61 -4266 4337 0
-4267 4337 0
61 -4267 4338 0
-4268 4338 0
61 -4268 4339 0
-4269 4339 0
61 -4269 4340 0
-4270 4340 0
61 -4270 4341 0
-4271 4341 0
61 -4271 4342 0
-4272 4342 0
61 -4272 4343 0
-4273 4343 0
61 -4273 4344 0
-4274 4344 0
61 -4274 4345 0
-4275 4345 0
61 -4275 4346 0
-4276 4346 0
61 -4276 4347 0
-4277 4347 0
61 -4277 4348 0
-4278 4348 0
61 -4278 4349 0
-4279 4349 0
61 -4279 4350 0
-4280 4350 0
61 -4280 4351 0
-4281 4351 0
61 -4281 4352 0
-4282 4352 0
61 -4282 0
62 4353 0
-4283 4353 0
62 -4283 4354 0
-4284 4354 0
62 -4284 4355 0
-4285 4355 0
62 -4285 4356 0
-4286 4356 0
62 -4286 4357 0
-4287 4357 0
62 -4287 4358 0
-4288 4358 0
62 -4288 4359 0
-4289 4359 0
62 -4289 4360 0
-4290 4360 0
62 -4290 4361 0
-4291 4361 0
62 -4291 4362 0
-4292 4362 0
62 -4292 4363 0
-4293 4363 0
62 -4293 4364 0
-4294 4364 0
62 -4294 4365 0
-4295 4365 0
62 -4295 4366 0
-4296 4366 0
62 -4296 4367 0
-4297 4367 0
62 -4297 4368 0
-4298 4368 0
62 -4298 4369 0
-4299 4369 0
62 -4299 4370 0
-4300 4370 0
62 -4300 4371 0
-4301 4371 0
62 -4301 4372 0
-4302 4372 0
62 -4302 4373 0
-4303 4373 0
62 -4303 4374 0
-4304 4374 0
62 -4304 4375 0
-4305 4375 0
62 -4305 4376 0
-4306 4376 0
62 -4306 4377 0
-4307 4377 0
62 -4307 4378 0
-4308 4378 0
62 -4308 4379 0
-4309 4379 0
62 -4309 4380 0
-4310 4380 0
62 -4310 4381 0
-4311 4381 0
62 -4311 4382 0
-4312 4382 0
62 -4312 4383 0
-4313 4383 0
62 -4313 4384 0
-4314 4384 0
62 -4314 4385 0
-4315 4385 0
62 -4315 4386 0
-4316 4386 0
62 -4316 4387 0
-4317 4387 0
62 -4317 4388 0
-4318 4388 0
62 -4318 4389 0
-4319 4389 0
62 -4319 4390 0
-4320 4390 0
62 -4320 4391 0
-4321 4391 0
62 -4321 4392 0
-4322 4392 0
62 -4322 4393 0
-4323 4393 0
62 -4323 4394 0
-4324 4394 0
62 -4324 4395 0
-4325 4395 0
62 -4325 4396 0
-4326 4396 0
62 -4326 4397 0
-4327 4397 0
62 -4327 4398 0
-4328 4398 0
62 -4328 4399 0
-4329 4399 0
62 -4329 4400 0
-4330 4400 0
62 -4330 4401 0
-4331 4401 0
62 -4331 4402 0
-4332 4402 0
62 -4332 4403 0
-4333 4403 0
62 -4333 4404 0
-4334 4404 0
62 -4334 4405 0
-4335 4405 0
62 -4335 4406 0
-4336 4406 0
62 -4336 4407 0
-4337 4407 0
62 -4337 4408 0
-4338 4408 0
62 -4338 4409 0
-4339 4409 0
62 -4339 4410 0
-4340 4410 0
62 -4340 4411 0
-4341 4411 0
62 -4341 4412 0
-4342 4412 0
62 -4342 4413 0
-4343 4413 0
62 -4343 4414 0
-4344 4414 0
62 -4344 4415 0
-4345 4415 0
62 -4345 4416 0
-4346 4416 0
62 -4346 4417 0
-4347 4417 0
62 -4347 4418 0
-4348 4418 0
62 -4348 4419 0
-4349 4419 0
62 -4349 4420 0
-4350 4420 0
62 -4350 4421 0
-4351 4421 0
62 -4351 4422 0
-4352 4422 0
62 -4352 0
63 4423 0
-4353 4423 0
63 -4353 4424 0
-4354 4424 0
63 -4354 4425 0
-4355 4425 0
63 -4355 4426 0
-4356 4426 0
63 -4356 4427 0
-4357 4427 0
63 -4357 4428 0
-4358 4428 0
63 -4358 4429 0
-4359 4429 0
63 -4359 4430 0
-4360 4430 0
63 -4360 4431 0
-4361 4431 0
63 -4361 4432 0
-4362 4432 0
63 -4362 4433 0
-4363 4433 0
63 -4363 4434 0
-4364 4434 0
63 -4364 4435 0
-4365 4435 0
63 -4365 4436 0
-4366 4436 0
63 -4366 4437 0
-4367 4437 0
63 -4367 4438 0
-4368 4438 0
63 -4368 4439 0
-4369 4439 0
63 -4369 4440 0
-4370 4440 0
63 -4370 4441 0
-4371 4441 0
63 -4371 4442 0
-4372 4442 0
63 -4372 4443 0
-4373 4443 0
63 -4373 4444 0
-4374 4444 0
63 -4374 4445 0
-4375 4445 0
63 -4375 4446 0
-4376 4446 0
63 -4376 4447 0
-4377 4447 0
63 -4377 4448 0
-4378 4448 0
63 -4378 4449 0
-4379 4449 0
63 -4379 4450 0
-4380 4450 0
63 -4380 4451 0
-4381 4451 0
63 -4381 4452 0
-4382 4452 0
63 -4382 4453 0
-4383 4453 0
63 -4383 4454 0
-4384 4454 0
63 -4384 4455 0
-4385 4455 0
63 -4385 4456 0
-4386 4456 0
63 -4386 4457 0
-4387 4457 0
63 -4387 4458 0
-4388 4458 0
63 -4388 4459 0
-4389 4459 0
63 -4389 4460 0
-4390 4460 0
63 -4390 4461 0
-4391 4461 0
63 -4391 4462 0
-4392 4462 0
63 -4392 4463 0
-4393 4463 0
63 -4393 4464 0
-4394 4464 0
63 -4394 4465 0
-4395 4465 0
63 -4395 4466 0
-4396 4466 0
63 -4396 4467 0
-4397 4467 0
63 -4397 4468 0
-4398 4468 0
63 -4398 4469 0
-4399 4469 0
63 -4399 4470 0
-4400 4470 0
63 -4400 4471 0
-4401 4471 0
63 -4401 4472 0
-4402 4472 0
63 -4402 4473 0
-4403 4473 0
63 -4403 4474 0
-4404 4474 0
63 -4404 4475 0
-4405 4475 0
63 -4405 4476 0
-4406 4476 0
63 -4406 4477 0
-4407 4477 0
63 -4407 4478 0
-4408 4478 0
63 -4408 4479 0
-4409 4479 0
63 -4409 4480 0
-4410 4480 0
63 -4410 4481 0
-4411 4481 0
63 -4411 4482 0
-4412 4482 0
63 -4412 4483 0
-4413 4483 0
63 -4413 4484 0
-4414 4484 0
63 -4414 4485 0
-4415 4485 0
63 -4415 4486 0
-4416 4486 0
63 -4416 4487 0
-4417 4487 0
63 -4417 4488 0
-4418 4488 0
63 -4418 4489 0
-4419 4489 0
63 -4419 4490 0
-4420 4490 0
63 -4420 4491 0
-4421 4491 0
63 -4421 4492 0
-4422 4492 0
63 -4422 0
64 4493 0
-4423 4493 0
64 -4423 4494 0
-4424 4494 0
64 -4424 4495 0
-4425 4495 0
64 -4425 4496 0
-4426 4496 0
64 -4426 4497 0
-4427 4497 0
64 -4427 4498 0
-4428 4498 0
64 -4428 4499 0
-4429 4499 0
64 -4429 4500 0
-4430 4500 0
64 -4430 4501 0
-4431 4501 0
64 -4431 4502 0
-4432 4502 0
64 -4432 4503 0
-4433 4503 0
64 -4433 4504 0
-4434 4504 0
64 -4434 4505 0
-4435 4505 0
64 -4435 4506 0
-4436 4506 0
64 -4436 4507 0
-4437 4507 0
64 -4437 4508 0
-4438 4508 0
64 -4438 4509 0
-4439 4509 0
64 -4439 4510 0
-4440 4510 0
64 -4440 4511 0
-4441 4511 0
64 -4441 4512 0
-4442 4512 0
64 -4442 4513 0
-4443 4513 0
64 -4443 4514 0
-4444 4514 0
64 -4444 4515 0
-4445 4515 0
64 -4445 4516 0
-4446 4516 0
64 -4446 4517 0
-4447 4517 0
64 -4447 4518 0
-4448 4518 0
64 -4448 4519 0
-4449 4519 0
64 -4449 4520 0
-4450 4520 0
64 -4450 4521 0
-4451 4521 0
64 -4451 4522 0
-4452 4522 0
64 -4452 4523 0
-4453 4523 0
64 -4453 4524 0
-4454 4524 0
64 -4454 4525 0
-4455 4525 0
64 -4455 4526 0
-4456 4526 0
64 -4456 4527 0
-4457 4527 0
64 -4457 4528 0
-4458 4528 0
64 -4458 4529 0
-4459 4529 0
64 -4459 4530 0
-4460 4530 0
64 -4460 4531 0
-4461 4531 0
64 -4461 4532 0
-4462 4532 0
64 -4462 4533 0
-4463 4533 0
64 -4463 4534 0
-4464 4534 0
64 -4464 4535 0
-4465 4535 0
64 -4465 4536 0
-4466 4536 0
64 -4466 4537 0
-4467 4537 0
64 -4467 4538 0
-4468 4538 0
64 -4468 4539 0
-4469 4539 0
64 -4469 4540 0
-4470 4540 0
64 -4470 4541 0
-4471 4541 0
64 -4471 4542 0
-4472 4542 0
64 -4472 4543 0
-4473 4543 0
64 -4473 4544 0
-4474 4544 0
64 -4474 4545 0
-4475 4545 0
64 -4475 4546 0
-4476 4546 0
64 -4476 4547 0
-4477 4547 0
64 -4477 4548 0
-4478 4548 0
64 -4478 4549 0
-4479 4549 0
64 -4479 4550 0
-4480 4550 0
64 -4480 4551 0
-4481 4551 0
64 -4481 4552 0
-4482 4552 0
64 -4482 4553 0
-4483 4553 0
64 -4483 4554 0
-4484 4554 0
64 -4484 4555 0
-4485 4555 0
64 -4485 4556 0
-4486 4556 0
64 -4486 4557 0
-4487 4557 0
64 -4487 4558 0
-4488 4558 0
64 -4488 4559 0
-4489 4559 0
64 -4489 4560 0
-4490 4560 0
64 -4490 4561 0
-4491 4561 0
64 -4491 4562 0
-4492 4562 0
64 -4492 0
65 4563 0
-4493 4563 0
65 -4493 4564 0
-4494 4564 0
65 -4494 4565 0
-4495 4565 0
65 -4495 4566 0
-4496 4566 0
65 -4496 4567 0
-4497 4567 0
65 -4497 4568 0
-4498 4568 0
65 -4498 4569 0
-4499 4569 0
65 -4499 4570 0
-4500 4570 0
65 -4500 4571 0
-4501 4571 0
65 -4501 4572 0
-4502 4572 0
65 -4502 4573 0
-4503 4573 0
65 -4503 4574 0
-4504 4574 0
65 -4504 4575 0
-4505 4575 0
65 -4505 4576 0
-4506 4576 0
65 -4506 4577 0
-4507 4577 0
65 -4507 4578 0
-4508 4578 0
65 -4508 4579 0
-4509 4579 0
65 -4509 4580 0
-4510 4580 0
65 -4510 4581 0
-4511 4581 0
65 -4511 4582 0
-4512 4582 0
65 -4512 4583 0
-4513 4583 0
65 -4513 4584 0
-4514 4584 0
65 -4514 4585 0
-4515 4585 0
65 -4515 4586 0
-4516 4586 0
65 -4516 4587 0
-4517 4587 0
65 -4517 4588 0
-4518 4588 0
65 -4518 4589 0
-4519 4589 0
65 -4519 4590 0
-4520 4590 0
65 -4520 4591 0
-4521 4591 0
65 -4521 4592 0
-4522 4592 0
65 -4522 4593 0
-4523 4593 0
65 -4523 4594 0
-4524 4594 0
65 -4524 4595 0
-4525 4595 0
65 -4525 4596 0
-4526 4596 0
65 -4526 4597 0
-4527 4597 0
65 -4527 4598 0
-4528 4598 0
65 -4528 4599 0
-4529 4599 0
65 -4529 4600 0
-4530 4600 0
65 -4530 4601 0
-4531 4601 0
65 -4531 4602 0
-4532 4602 0
65 -4532 4603 0
-4533 4603 0
65 -4533 4604 0
-4534 4604 0
65 -4534 4605 0
-4535 4605 0
65 -4535 4606 0
-4536 4606 0
65 -4536 4607 0
-4537 4607 0
65 -4537 4608 0
-4538 4608 0
65 -4538 4609 0
-4539 4609 0
65 -4539 4610 0
-4540 4610 0
65 -4540 4611 0
-4541 4611 0
65 -4541 4612 0
-4542 4612 0
65 -4542 4613 0
-4543 4613 0
65 -4543 4614 0
-4544 4614 0
65 -4544 4615 0
-4545 4615 0
65 -4545 4616 0
-4546 4616 0
65 -4546 4617 0
-4547 4617 0
65 -4547 4618 0
-4548 4618 0
65 -4548 4619 0
-4549 4619 0
65 -4549 4620 0
-4550 4620 0
65 -4550 4621 0
-4551 4621 0
65 -4551 4622 0
-4552 4622 0
65 -4552 4623 0
-4553 4623 0
65 -4553 4624 0
-4554 4624 0
65 -4554 4625 0
-4555 4625 0
65 -4555 4626 0
-4556 4626 0
65 -4556 4627 0
-4557 4627 0
65 -4557 4628 0
-4558 4628 0
65 -4558 4629 0
-4559 4629 0
65 -4559 4630 0
-4560 4630 0
65 -4560 4631 0
-4561 4631 0
65 -4561 4632 0
-4562 4632 0
65 -4562 0
66 4633 0
-4563 4633 0
66 -4563 4634 0
-4564 4634 0
66 -4564 4635 0
-4565 4635 0
66 -4565 4636 0
-4566 4636 0
66 -4566 4637 0
-4567 4637 0
66 -4567 4638 0
-4568 4638 0
66 -4568 4639 0
-4569 4639 0
66 -4569 4640 0
-4570 4640 0
66 -4570 4641 0
-4571 4641 0
66 -4571 4642 0
-4572 4642 0
66 -4572 4643 0
-4573 4643 0
66 -4573 4644 0
-4574 4644 0
66 -4574 4645 0
-4575 4645 0
66 -4575 4646 0
-4576 4646 0
66 -4576 4647 0
-4577 4647 0
66 -4577 4648 0
-4578 4648 0
66 -4578 4649 0
-4579 4649 0
66 -4579 4650 0
-4580 4650 0
66 -4580 4651 0
-4581 4651 0
66 -4581 4652 0
-4582 4652 0
66 -4582 4653 0
-4583 4653 0
66 -4583 4654 0
-4584 4654 0
66 -4584 4655 0
-4585 4655 0
66 -4585 4656 0
-4586 4656 0
66 -4586 4657 0
-4587 4657 0
66 -4587 4658 0
-4588 4658 0
66 -4588 4659 0
-4589 4659 0
66 -4589 4660 0
-4590 4660 0
66 -4590 4661 0
-4591 4661 0
66 -4591 4662 0
-4592 4662 0
66 -4592 4663 0
-4593 4663 0
66 -4593 4664 0
-4594 4664 0
66 -4594 4665 0
-4595 4665 0
66 -4595 4666 0
-4596 4666 0
66 -4596 4667 0
-4597 4667 0
66 -4597 4668 0
-4598 4668 0
66 -4598 4669 0
-4599 4669 0
66 -4599 4670 0
-4600 4670 0
66 -4600 4671 0
-4601 4671 0
66 -4601 4672 0
-4602 4672 0
66 -4602 4673 0
-4603 4673 0
66 -4603 4674 0
-4604 4674 0
66 -4604 4675 0
-4605 4675 0
66 -4605 4676 0
-4606 4676 0
66 -4606 4677 0
-4607 4677 0
66 -4607 4678 0
-4608 4678 0
66 -4608 4679 0
-4609 4679 0
66 -4609 4680 0
-4610 4680 0
66 -4610 4681 0
-4611 4681 0
66 -4611 4682 0
-4612 4682 0
66 -4612 4683 0
-4613 4683 0
66 -4613 4684 0
-4614 4684 0
66 -4614 4685 0
-4615 4685 0
66 -4615 4686 0
-4616 4686 0
66 -4616 4687 0
-4617 4687 0
66 -4617 4688 0
-4618 4688 0
66 -4618 4689 0
-4619 4689 0
66 -4619 4690 0
-4620 4690 0
66 -4620 4691 0
-4621 4691 0
66 -4621 4692 0
-4622 4692 0
66 -4622 4693 0
-4623 4693 0
66 -4623 4694 0
-4624 4694 0
66 -4624 4695 0
-4625 4695 0
66 -4625 4696 0
-4626 4696 0
66 -4626 4697 0
-4627 4697 0
66 -4627 4698 0
-4628 4698 0
66 -4628 4699 0
-4629 4699 0
66 -4629 4700 0
-4630 4700 0
66 -4630 4701 0
-4631 4701 0
66 -4631 4702 0
-4632 4702 0
66 -4632 0
67 4703 0
-4633 4703 0
67 -4633 4704 0
-4634 4704 0
67 -4634 4705 0
-4635 4705 0
67 -4635 4706 0
-4636 4706 0
67 -4636 4707 0
-4637 4707 0
67 -4637 4708 0
-4638 4708 0
67 -4638 4709 0
-4639 4709 0
67 -4639 4710 0
-4640 4710 0
67 -4640 4711 0
-4641 4711 0
67 -4641 4712 0
-4642 4712 0
67 -4642 4713 0
-4643 4713 0
67 -4643 4714 0
-4644 4714 0
67 -4644 4715 0
-4645 4715 0
67 -4645 4716 0
-4646 4716 0
67 -4646 4717 0
-4647 4717 0
67 -4647 4718 0
-4648 4718 0
67 -4648 4719 0
-4649 4719 0
67 -4649 4720 0
-4650 4720 0
67 -4650 4721 0
-4651 4721 0
67 -4651 4722 0
-4652 4722 0
67 -4652 4723 0
-4653 4723 0
67 -4653 4724 0
-4654 4724 0
67 -4654 4725 0
-4655 4725 0
67 -4655 4726 0
-4656 4726 0
67 -4656 4727 0
-4657 4727 0
67 -4657 4728 0
-4658 4728 0
67 -4658 4729 0
-4659 4729 0
67 -4659 4730 0
-4660 4730 0
67 -4660 4731 0
-4661 4731 0
67 -4661 4732 0
-4662 4732 0
67 -4662 4733 0
-4663 4733 0
67 -4663 4734 0
-4664 4734 0
67 -4664 4735 0
-4665 4735 0
67 -4665 4736 0
-4666 4736 0
67 -4666 4737 0
-4667 4737 0
67 -4667 4738 0
-4668 4738 0
67 -4668 4739 0
-4669 4739 0
67 -4669 4740 0
-4670 4740 0
67 -4670 4741 0
-4671 4741 0
67 -4671 4742 0
-4672 4742 0
67 -4672 4743 0
-4673 4743 0
67 -4673 4744 0
-4674 4744 0
67 -4674 4745 0
-4675 4745 0
67 -4675 4746 0
-4676 4746 0
67 -4676 4747 0
-4677 4747 0
67 -4677 4748 0
-4678 4748 0
67 -4678 4749 0
-4679 4749 0
67 -4679 4750 0
-4680 4750 0
67 -4680 4751 0
-4681 4751 0
67 -4681 4752 0
-4682 4752 0
67 -4682 4753 0
-4683 4753 0
67 -4683 4754 0
-4684 4754 0
67 -4684 4755 0
-4685 4755 0
67 -4685 4756 0
-4686 4756 0
67 -4686 4757 0
-4687 4757 0
67 -4687 4758 0
-4688 4758 0
67 -4688 4759 0
-4689 4759 0
67 -4689 4760 0
-4690 4760 0
67 -4690 4761 0
-4691 4761 0
67 -4691 4762 0
-4692 4762 0
67 -4692 4763 0
-4693 4763 0
67 -4693 4764 0
-4694 4764 0
67 -4694 4765 0
-4695 4765 0
67 -4695 4766 0
-4696 4766 0
67 -4696 4767 0
-4697 4767 0
67 -4697 4768 0
-4698 4768 0
67 -4698 4769 0
-4699 4769 0
67 -4699 4770 0
-4700 4770 0
67 -4700 4771 0
-4701 4771 0
67 -4701 4772 0
-4702 4772 0
67 -4702 0
68 4773 0
-4703 4773 0
68 -4703 4774 0
-4704 4774 0
68 -4704 4775 0
-4705 4775 0
68 -4705 4776 0
-4706 4776 0
68 -4706 4777 0
-4707 4777 0
68 -4707 4778 0
-4708 4778 0
68 -4708 4779 0
-4709 4779 0
68 -4709 4780 0
-4710 4780 0
68 -4710 4781 0
-4711 4781 0
68 -4711 4782 0
-4712 4782 0
68 -4712 4783 0
-4713 4783 0
68 -4713 4784 0
-4714 4784 0
68 -4714 4785 0
-4715 4785 0
68 -4715 4786 0
-4716 4786 0
68 -4716 4787 0
-4717 4787 0
68 -4717 4788 0
-4718 4788 0
68 -4718 4789 0
-4719 4789 0
68 -4719 4790 0
-4720 4790 0
68 -4720 4791 0
-4721 4791 0
68 -4721 4792 0
-4722 4792 0
68 -4722 4793 0
-4723 4793 0
68 -4723 4794 0
-4724 4794 0
68 -4724 4795 0
-4725 4795 0
68 -4725 4796 0
-4726 4796 0
68 -4726 4797 0
-4727 4797 0
68 -4727 4798 0
-4728 4798 0
68 -4728 4799 0
-4729 4799 0
68 -4729 4800 0
-4730 4800 0
68 -4730 4801 0
-4731 4801 0
68 -4731 4802 0
-4732 4802 0
68 -4732 4803 0
-4733 4803 0
68 -4733 4804 0
-4734 4804 0
68 -4734 4805 0
-4735 4805 0
68 -4735 4806 0
-4736 4806 0
68 -4736 4807 0
-4737 4807 0
68 -4737 4808 0
-4738 4808 0
68 -4738 4809 0
-4739 4809 0
68 -4739 4810 0
-4740 4810 0
68 -4740 4811 0
-4741 4811 0
68 -4741 4812 0
-4742 4812 0
68 -4742 4813 0
-4743 4813 0
68 -4743 4814 0
-4744 4814 0
68 -4744 4815 0
-4745 4815 0
68 -4745 4816 0
-4746 4816 0
68 -4746 4817 0
-4747 4817 0
68 -4747 4818 0
-4748 4818 0
68 -4748 4819 0
-4749 4819 0
68 -4749 4820 0
-4750 4820 0
68 -4750 4821 0
-4751 4821 0
68 -4751 4822 0
-4752 4822 0
68 -4752 4823 0
-4753 4823 0
68 -4753 4824 0
-4754 4824 0
68 -4754 4825 0
-4755 4825 0
68 -4755 4826 0
-4756 4826 0
68 -4756 4827 0
-4757 4827 0
68 -4757 4828 0
-4758 4828 0
68 -4758 4829 0
-4759 4829 0
68 -4759 4830 0
-4760 4830 0
68 -4760 4831 0
-4761 4831 0
68 -4761 4832 0
-4762 4832 0
68 -4762 4833 0
-4763 4833 0
68 -4763 4834 0
-4764 4834 0
68 -4764 4835 0
-4765 4835 0
68 -4765 4836 0
-4766 4836 0
68 -4766 4837 0
-4767 4837 0
68 -4767 4838 0
-4768 4838 0
68 -4768 4839 0
-4769 4839 0
68 -4769 4840 0
-4770 4840 0
68 -4770 4841 0
-4771 4841 0
68 -4771 4842 0
-4772 4842 0
68 -4772 0
69 4843 0
-4773 4843 0
69 -4773 4844 0
-4774 4844 0
69 -4774 4845 0
-4775 4845 0
69 -4775 4846 0
-4776 4846 0
69 -4776 4847 0
-4777 4847 0
69 -4777 4848 0
-4778 4848 0
69 -4778 4849 0
-4779 4849 0
69 -4779 4850 0
-4780 4850 0
69 -4780 4851 0
-4781 4851 0
69 -4781 4852 0
-4782 4852 0
69 -4782 4853 0
-4783 4853 0
69 -4783 4854 0
-4784 4854 0
69 -4784 4855 0
-4785 4855 0
69 -4785 4856 0
-4786 4856 0
69 -4786 4857 0
-4787 4857 0
69 -4787 4858 0
-4788 4858 0
69 -4788 4859 0
-4789 4859 0
69 -4789 4860 0
-4790 4860 0
69 -4790 4861 0
-4791 4861 0
69 -4791 4862 0
-4792 4862 0
69 -4792 4863 0
-4793 4863 0
69 -4793 4864 0
-4794 4864 0
69 -4794 4865 0
-4795 4865 0
69 -4795 4866 0
-4796 4866 0
69 -4796 4867 0
-4797 4867 0
69 -4797 4868 0
-4798 4868 0
69 -4798 4869 0
-4799 4869 0
69 -4799 4870 0
-4800 4870 0
69 -4800 4871 0
-4801 4871 0
69 -4801 4872 0
-4802 4872 0
69 -4802 4873 0
-4803 4873 0
69 -4803 4874 0
-4804 4874 0
69 -4804 4875 0
-4805 4875 0
69 -4805 4876 0
-4806 4876 0
69 -4806 4877 0
-4807 4877 0
69 -4807 4878 0
-4808 4878 0
69 -4808 4879 0
-4809 4879 0
69 -4809 4880 0
-4810 4880 0
69 -4810 4881 0
-4811 4881 0
69 -4811 4882 0
-4812 4882 0
69 -4812 4883 0
-4813 4883 0
69 -4813 4884 0
-4814 4884 0
69 -4814 4885 0
-4815 4885 0
69 -4815 4886 0
-4816 4886 0
69 -4816 4887 0
-4817 4887 0
69 -4817 4888 0
-4818 4888 0
69 -4818 4889 0
-4819 4889 0
69 -4819 4890 0
-4820 4890 0
69 -4820 4891 0
-4821 4891 0
69 -4821 4892 0
-4822 4892 0
69 -4822 4893 0
-4823 4893 0
69 -4823 4894 0
-4824 4894 0
69 -4824 4895 0
-4825 4895 0
69 -4825 4896 0
-4826 4896 0
69 -4826 4897 0
-4827 4897 0
69 -4827 4898 0
-4828 4898 0
69 -4828 4899 0
-4829 4899 0
69 -4829 4900 0
-4830 4900 0
69 -4830 4901 0
-4831 4901 0
69 -4831 4902 0
-4832 4902 0
69 -4832 4903 0
-4833 4903 0
69 -4833 4904 0
-4834 4904 0
69 -4834 4905 0
-4835 4905 0
69 -4835 4906 0
-4836 4906 0
69 -4836 4907 0
-4837 4907 0
69 -4837 4908 0
-4838 4908 0
69 -4838 4909 0
-4839 4909 0
69 -4839 4910 0
-4840 4910 0
69 -4840 4911 0
-4841 4911 0
69 -4841 4912 0
-4842 4912 0
69 -4842 0
70 4913 0
-4843 4913 0
70 -4843 4914 0
-4844 4914 0
70 -4844 4915 0
-4845 4915 0
70 -4845 4916 0
-4846 4916 0
70 -4846 4917 0
-4847 4917 0
70 -4847 4918 0
-4848 4918 0
70 -4848 4919 0
-4849 4919 0
70 -4849 4920 0
-4850 4920 0
70 -4850 4921 0
-4851 4921 0
70 -4851 4922 0
-4852 4922 0
70 -4852 4923 0
-4853 4923 0
70 -4853 4924 0
-4854 4924 0
70 -4854 4925 0
-4855 4925 0
70 -4855 4926 0
-4856 4926 0
70 -4856 4927 0
-4857 4927 0
70 -4857 4928 0
-4858 4928 0
70 -4858 4929 0
-4859 4929 0
70 -4859 4930 0
-4860 4930 0
70 -4860 4931 0
-4861 4931 0
70 -4861 4932 0
-4862 4932 0
70 -4862 4933 0
-4863 4933 0
70 -4863 4934 0
-4864 4934 0
70 -4864 4935 0
-4865 4935 0
70 -4865 4936 0
-4866 4936 0
70 -4866 4937 0
-4867 4937 0
70 -4867 4938 0
-4868 4938 0
70 -4868 4939 0
-4869 4939 0
70 -4869 4940 0
-4870 4940 0
70 -4870 4941 0
-4871 4941 0
70 -4871 4942 0
-4872 4942 0
70 -4872 4943 0
-4873 4943 0
70 -4873 4944 0
-4874 4944 0
70 -4874 4945 0
-4875 4945 0
70 -4875 4946 0
-4876 4946 0
70 -4876 4947 0
-4877 4947 0
70 -4877 4948 0
-4878 4948 0
70 -4878 4949 0
-4879 4949 0
70 -4879 4950 0
-4880 4950 0
70 -4880 4951 0
-4881 4951 0
70 -4881 4952 0
-4882 4952 0
70 -4882 4953 0
-4883 4953 0
70 -4883 4954 0
-4884 4954 0
70 -4884 4955 0
-4885 4955 0
70 -4885 4956 0
-4886 4956 0
70 -4886 4957 0
-4887 4957 0
70 -4887 4958 0
-4888 4958 0
70 -4888 4959 0
-4889 4959 0
70 -4889 4960 0
-4890 4960 0
70 -4890 4961 0
-4891 4961 0
70 -4891 4962 0
-4892 4962 0
70 -4892 4963 0
-4893 4963 0
70 -4893 4964 0
-4894 4964 0
70 -4894 4965 0
-4895 4965 0
70 -4895 4966 0
-4896 4966 0
70 -4896 4967 0
-4897 4967 0
70 -4897 4968 0
-4898 4968 0
70 -4898 4969 0
-4899 4969 0
70 -4899 4970 0
-4900 4970 0
70 -4900 4971 0
-4901 4971 0
70 -4901 4972 0
-4902 4972 0
70 -4902 4973 0
-4903 4973 0
70 -4903 4974 0
-4904 4974 0
70 -4904 4975 0
-4905 4975 0
70 -4905 4976 0
-4906 4976 0
70 -4906 4977 0
-4907 4977 0
70 -4907 4978 0
-4908 4978 0
70 -4908 4979 0
-4909 4979 0
70 -4909 4980 0
-4910 4980 0
70 -4910 4981 0
-4911 4981 0
70 -4911 4982 0
-4912 4982 0
70 -4912 0
71 4983 0
-4913 4983 0
71 -4913 4984 0
-4914 4984 0
71 -4914 4985 0
-4915 4985 0
71 -4915 4986 0
-4916 4986 0
71 -4916 4987 0
-4917 4987 0
71 -4917 4988 0
-4918 4988 0
71 -4918 4989 0
-4919 4989 0
71 -4919 4990 0
-4920 4990 0
71 -4920 4991 0
-4921 4991 0
71 -4921 4992 0
-4922 4992 0
71 -4922 4993 0
-4923 4993 0
71 -4923 4994 0
-4924 4994 0
71 -4924 4995 0
-4925 4995 0
71 -4925 4996 0
-4926 4996 0
71 -4926 4997 0
-4927 4997 0
71 -4927 4998 0
-4928 4998 0
71 -4928 4999 0
-4929 4999 0
71 -4929 5000 0
-4930 5000 0
71 -4930 5001 0
-4931 5001 0
71 -4931 5002 0
-4932 5002 0
71 -4932 5003 0
-4933 5003 0
71 -4933 5004 0
-4934 5004 0
71 -4934 5005 0
-4935 5005 0
71 -4935 5006 0
-4936 5006 0
71 -4936 5007 0
-4937 5007 0
71 -4937 5008 0
-4938 5008 0
71 -4938 5009 0
-4939 5009 0
71 -4939 5010 0
-4940 5010 0
71 -4940 5011 0
-4941 5011 0
71 -4941 5012 0
-4942 5012 0
71 -4942 5013 0
-4943 5013 0
71 -4943 5014 0
-4944 5014 0
71 -4944 5015 0
-4945 5015 0
71 -4945 5016 0
-4946 5016 0
71 -4946 5017 0
-4947 5017 0
71 -4947 5018 0
-4948 5018 0
71 -4948 5019 0
-4949 5019 0
71 -4949 5020 0
-4950 5020 0
71 -4950 5021 0
-4951 5021 0
71 -4951 5022 0
-4952 5022 0
71 -4952 5023 0
-4953 5023 0
71 -4953 5024 0
-4954 5024 0
71 -4954 5025 0
-4955 5025 0
71 -4955 5026 0
-4956 5026 0
71 -4956 5027 0
-4957 5027 0
71 -4957 5028 0
-4958 5028 0
71 -4958 5029 0
-4959 5029 0
71 -4959 5030 0
-4960 5030 0
71 -4960 5031 0
-4961 5031 0
71 -4961 5032 0
-4962 5032 0
71 -4962 5033 0
-4963 5033 0
71 -4963 5034 0
-4964 5034 0
71 -4964 5035 0
-4965 5035 0
71 -4965 5036 0
-4966 5036 0
71 -4966 5037 0
-4967 5037 0
71 -4967 5038 0
-4968 5038 0
71 -4968 5039 0
-4969 5039 0
71 -4969 5040 0
-4970 5040 0
71 -4970 5041 0
-4971 5041 0
71 -4971 5042 0
-4972 5042 0
71 -4972 5043 0
-4973 5043 0
71 -4973 5044 0
-4974 5044 0
71 -4974 5045 0
-4975 5045 0
71 -4975 5046 0
-4976 5046 0
71 -4976 5047 0
-4977 5047 0
71 -4977 5048 0
-4978 5048 0
71 -4978 5049 0
-4979 5049 0
71 -4979 5050 0
-4980 5050 0
71 -4980 5051 0
-4981 5051 0
71 -4981 5052 0
-4982 5052 0
71 -4982 0
72 5053 0
-4983 5053 0
72 -4983 5054 0
-4984 5054 0
72 -4984 5055 0
-4985 5055 0
72 -4985 5056 0
-4986 5056 0
72 -4986 5057 0
-4987 5057 0
72 -4987 5058 0
-4988 5058 0
72 -4988 5059 0
-4989 5059 0
72 -4989 5060 0
-4990 5060 0
72 -4990 5061 0
-4991 5061 0
72 -4991 5062 0
-4992 5062 0
72 -4992 5063 0
-4993 5063 0
72 -4993 5064 0
-4994 5064 0
72 -4994 5065 0
-4995 5065 0
72 -4995 5066 0
-4996 5066 0
72 -4996 5067 0
-4997 5067 0
72 -4997 5068 0
-4998 5068 0
72 -4998 5069 0
-4999 5069 0
72 -4999 5070 0
-5000 5070 0
72 -5000 5071 0
-5001 5071 0
72 -5001 5072 0
-5002 5072 0
72 -5002 5073 0
-5003 5073 0
72 -5003 5074 0
-5004 5074 0
72 -5004 5075 0
-5005 5075 0
72 -5005 5076 0
-5006 5076 0
72 -5006 5077 0
-5007 5077 0
72 -5007 5078 0
-5008 5078 0
72 -5008 5079 0
-5009 5079 0
72 -5009 5080 0
-5010 5080 0
72 -5010 5081 0
-5011 5081 0
72 -5011 5082 0
-5012 5082 0
72 -5012 5083 0
-5013 5083 0
72 -5013 5084 0
-5014 5084 0
72 -5014 5085 0
-5015 5085 0
72 -5015 5086 0
-5016 5086 0
72 -5016 5087 0
-5017 5087 0
72 -5017 5088 0
-5018 5088 0
72 -5018 5089 0
-5019 5089 0
72 -5019 5090 0
-5020 5090 0
72 -5020 5091 0
-5021 5091 0
72 -5021 5092 0
-5022 5092 0
72 -5022 5093 0
-5023 5093 0
72 -5023 5094 0
-5024 5094 0
72 -5024 5095 0
-5025 5095 0
72 -5025 5096 0
-5026 5096 0
72 -5026 5097 0
-5027 5097 0
72 -5027 5098 0
-5028 5098 0
72 -5028 5099 0
-5029 5099 0
72 -5029 5100 0
-5030 5100 0
72 -5030 5101 0
-5031 5101 0
72 -5031 5102 0
-5032 5102 0
72 -5032 5103 0
-5033 5103 0
72 -5033 5104 0
-5034 5104 0
72 -5034 5105 0
-5035 5105 0
72 -5035 5106 0
-5036 5106 0
72 -5036 5107 0
-5037 5107 0
72 -5037 5108 0
-5038 5108 0
72 -5038 5109 0
-5039 5109 0
72 -5039 5110 0
-5040 5110 0
72 -5040 5111 0
-5041 5111 0
72 -5041 5112 0
-5042 5112 0
72 -5042 5113 0
-5043 5113 0
72 -5043 5114 0
-5044 5114 0
72 -5044 5115 0
-5045 5115 0
72 -5045 5116 0
-5046 5116 0
72 -5046 5117 0
-5047 5117 0
72 -5047 5118 0
-5048 5118 0
72 -5048 5119 0
-5049 5119 0
72 -5049 5120 0
-5050 5120 0
72 -5050 5121 0
-5051 5121 0
72 -5051 5122 0
-5052 5122 0
72 -5052 0
73 5123 0
-5053 5123 0
73 -5053 5124 0
-5054 5124 0
73 -5054 5125 0
-5055 5125 0
73 -5055 5126 0
-5056 5126 0
73 -5056 5127 0
-5057 5127 0
73 -5057 5128 0
-5058 5128 0
73 -5058 5129 0
-5059 5129 0
73 -5059 5130 0
-5060 5130 0
73 -5060 5131 0
-5061 5131 0
73 -5061 5132 0
-5062 5132 0
73 -5062 5133 0
-5063 5133 0
73 -5063 5134 0
-5064 5134 0
73 -5064 5135 0
-5065 5135 0
73 -5065 5136 0
-5066 5136 0
73 -5066 5137 0
-5067 5137 0
73 -5067 5138 0
-5068 5138 0
73 -5068 5139 0
-5069 5139 0
73 -5069 5140 0
-5070 5140 0
73 -5070 5141 0
-5071 5141 0
73 -5071 5142 0
-5072 5142 0
73 -5072 5143 0
-5073 5143 0
73 -5073 5144 0
-5074 5144 0
73 -5074 5145 0
-5075 5145 0
73 -5075 5146 0
-5076 5146 0
73 -5076 5147 0
-5077 5147 0
73 -5077 5148 0
-5078 5148 0
73 -5078 5149 0
-5079 5149 0
73 -5079 5150 0
-5080 5150 0
73 -5080 5151 0
-5081 5151 0
73 -5081 5152 0
-5082 5152 0
73 -5082 5153 0
-5083 5153 0
73 -5083 5154 0
-5084 5154 0
73 -5084 5155 0
-5085 5155 0
73 -5085 5156 0
-5086 5156 0
73 -5086 5157 0
-5087 5157 0
73 -5087 5158 0
-5088 5158 0
73 -5088 5159 0
-5089 5159 0
73 -5089 5160 0
-5090 5160 0
73 -5090 5161 0
-5091 5161 0
73 -5091 5162 0
-5092 5162 0
73 -5092 5163 0
-5093 5163 0
73 -5093 5164 0
-5094 5164 0
73 -5094 5165 0
-5095 5165 0
73 -5095 5166 0
-5096 5166 0
73 -5096 5167 0
-5097 5167 0
73 -5097 5168 0
-5098 5168 0
73 -5098 5169 0
-5099 5169 0
73 -5099 5170 0
-5100 5170 0
73 -5100 5171 0
-5101 5171 0
73 -5101 5172 0
-5102 5172 0
73 -5102 5173 0
-5103 5173 0
73 -5103 5174 0
-5104 5174 0
73 -5104 5175 0
-5105 5175 0
73 -5105 5176 0
-5106 5176 0
73 -5106 5177 0
-5107 5177 0
73 -5107 5178 0
-5108 5178 0
73 -5108 5179 0
-5109 5179 0
73 -5109 5180 0
-5110 5180 0
73 -5110 5181 0
-5111 5181 0
73 -5111 5182 0
-5112 5182 0
73 -5112 5183 0
-5113 5183 0
73 -5113 5184 0
-5114 5184 0
73 -5114 5185 0
-5115 5185 0
73 -5115 5186 0
-5116 5186 0
73 -5116 5187 0
-5117 5187 0
73 -5117 5188 0
-5118 5188 0
73 -5118 5189 0
-5119 5189 0
73 -5119 5190 0
-5120 5190 0
73 -5120 5191 0
-5121 5191 0
73 -5121 5192 0
-5122 5192 0
73 -5122 0
74 5193 0
-5123 5193 0
74 -5123 5194 0
-5124 5194 0
74 -5124 5195 0
-5125 5195 0
74 -5125 5196 0
-5126 5196 0
74 -5126 5197 0
-5127 5197 0
74 -5127 5198 0
-5128 5198 0
74 -5128 5199 0
-5129 5199 0
74 -5129 5200 0
-5130 5200 0
74 -5130 5201 0
-5131 5201 0
74 -5131 5202 0
-5132 5202 0
74 -5132 5203 0
-5133 5203 0
74 -5133 5204 0
-5134 5204 0
74 -5134 5205 0
-5135 5205 0
74 -5135 5206 0
-5136 5206 0
74 -5136 5207 0
-5137 5207 0
74 -5137 5208 0
-5138 5208 0
74 -5138 5209 0
-5139 5209 0
74 -5139 5210 0
-5140 5210 0
74 -5140 5211 0
-5141 5211 0
74 -5141 5212 0
-5142 5212 0
74 -5142 5213 0
-5143 5213 0
74 -5143 5214 0
-5144 5214 0
74 -5144 5215 0
-5145 5215 0
74 -5145 5216 0
-5146 5216 0
74 -5146 5217 0
-5147 5217 0
74 -5147 5218 0
-5148 5218 0
74 -5148 5219 0
-5149 5219 0
74 -5149 5220 0
-5150 5220 0
74 -5150 5221 0
-5151 5221 0
74 -5151 5222 0
-5152 5222 0
74 -5152 5223 0
-5153 5223 0
74 -5153 5224 0
-5154 5224 0
74 -5154 5225 0
-5155 5225 0
74 -5155 5226 0
-5156 5226 0
74 -5156 5227 0
-5157 5227 0
74 -5157 5228 0
-5158 5228 0
74 -5158 5229 0
-5159 5229 0
74 -5159 5230 0
-5160 5230 0
74 -5160 5231 0
-5161 5231 0
74 -5161 5232 0
-5162 5232 0
74 -5162 5233 0
-5163 5233 0
74 -5163 5234 0
-5164 5234 0
74 -5164 5235 0
-5165 5235 0
74 -5165 5236 0
-5166 5236 0
74 -5166 5237 0
-5167 5237 0
74 -5167 5238 0
-5168 5238 0
74 -5168 5239 0
-5169 5239 0
74 -5169 5240 0
-5170 5240 0
74 -5170 5241 0
-5171 5241 0
74 -5171 5242 0
-5172 5242 0
74 -5172 5243 0
-5173 5243 0
74 -5173 5244 0
-5174 5244 0
74 -5174 5245 0
-5175 5245 0
74 -5175 5246 0
-5176 5246 0
74 -5176 5247 0
-5177 5247 0
74 -5177 5248 0
-5178 5248 0
74 -5178 5249 0
-5179 5249 0
74 -5179 5250 0
-5180 5250 0
74 -5180 5251 0
-5181 5251 0
74 -5181 5252 0
-5182 5252 0
74 -5182 5253 0
-5183 5253 0
74 -5183 5254 0
-5184 5254 0
74 -5184 5255 0
-5185 5255 0
74 -5185 5256 0
-5186 5256 0
74 -5186 5257 0
-5187 5257 0
74 -5187 5258 0
-5188 5258 0
74 -5188 5259 0
-5189 5259 0
74 -5189 5260 0
-5190 5260 0
74 -5190 5261 0
-5191 5261 0
74 -5191 5262 0
-5192 5262 0
74 -5192 0
75 5263 0
-5193 5263 0
75 -5193 5264 0
-5194 5264 0
75 -5194 5265 0
-5195 5265 0
75 -5195 5266 0
-5196 5266 0
75 -5196 5267 0
-5197 5267 0
75 -5197 5268 0
-5198 5268 0
75 -5198 5269 0
-5199 5269 0
75 -5199 5270 0
-5200 5270 0
75 -5200 5271 0
-5201 5271 0
75 -5201 5272 0
-5202 5272 0
75 -5202 5273 0
-5203 5273 0
75 -5203 5274 0
-5204 5274 0
75 -5204 5275 0
-5205 5275 0
75 -5205 5276 0
-5206 5276 0
75 -5206 5277 0
-5207 5277 0
75 -5207 5278 0
-5208 5278 0
75 -5208 5279 0
-5209 5279 0
75 -5209 5280 0
-5210 5280 0
75 -5210 5281 0
-5211 5281 0
75 -5211 5282 0
-5212 5282 0
75 -5212 5283 0
-5213 5283 0
75 -5213 5284 0
-5214 5284 0
75 -5214 5285 0
-5215 5285 0
75 -5215 5286 0
-5216 5286 0
75 -5216 5287 0
-5217 5287 0
75 -5217 5288 0
-5218 5288 0
75 -5218 5289 0
-5219 5289 0
75 -5219 5290 0
-5220 5290 0
75 -5220 5291 0
-5221 5291 0
75 -5221 5292 0
-5222 5292 0
75 -5222 5293 0
-5223 5293 0
75 -5223 5294 0
-5224 5294 0
75 -5224 5295 0
-5225 5295 0
75 -5225 5296 0
-5226 5296 0
75 -5226 5297 0
-5227 5297 0
75 -5227 5298 0
-5228 5298 0
75 -5228 5299 0
-5229 5299 0
75 -5229 5300 0
-5230 5300 0
75 -5230 5301 0
-5231 5301 0
75 -5231 5302 0
-5232 5302 0
75 -5232 5303 0
-5233 5303 0
75 -5233 5304 0
-5234 5304 0
75 -5234 5305 0
-5235 5305 0
75 -5235 5306 0
-5236 5306 0
75 -5236 5307 0
-5237 5307 0
75 -5237 5308 0
-5238 5308 0
75 -5238 5309 0
-5239 5309 0
75 -5239 5310 0
-5240 5310 0
75 -5240 5311 0
-5241 5311 0
75 -5241 5312 0
-5242 5312 0
75 -5242 5313 0
-5243 5313 0
75 -5243 5314 0
-5244 5314 0
75 -5244 5315 0
-5245 5315 0
75 -5245 5316 0
-5246 5316 0
75 -5246 5317 0
-5247 5317 0
75 -5247 5318 0
-5248 5318 0
75 -5248 5319 0
-5249 5319 0
75 -5249 5320 0
-5250 5320 0
75 -5250 5321 0
-5251 5321 0
75 -5251 5322 0
-5252 5322 0
75 -5252 5323 0
-5253 5323 0
75 -5253 5324 0
-5254 5324 0
75 -5254 5325 0
-5255 5325 0
75 -5255 5326 0
-5256 5326 0
75 -5256 5327 0
-5257 5327 0
75 -5257 5328 0
-5258 5328 0
75 -5258 5329 0
-5259 5329 0
75 -5259 5330 0
-5260 5330 0
75 -5260 5331 0
-5261 5331 0
75 -5261 5332 0
-5262 5332 0
75 -5262 0
76 5333 0
-5263 5333 0
76 -5263 5334 0
-5264 5334 0
76 -5264 5335 0
-5265 5335 0
76 -5265 5336 0
-5266 5336 0
76 -5266 5337 0
-5267 5337 0
76 -5267 5338 0
-5268 5338 0
76 -5268 5339 0
-5269 5339 0
76 -5269 5340 0
-5270 5340 0
76 -5270 5341 0
-5271 5341 0
76 -5271 5342 0
-5272 5342 0
76 -5272 5343 0
-5273 5343 0
76 -5273 5344 0
-5274 5344 0
76 -5274 5345 0
-5275 5345 0
76 -5275 5346 0
-5276 5346 0
76 -5276 5347 0
-5277 5347 0
76 -5277 5348 0
-5278 5348 0
76 -5278 5349 0
-5279 5349 0
76 -5279 5350 0
-5280 5350 0
76 -5280 5351 0
-5281 5351 0
76 -5281 5352 0
-5282 5352 0
76 -5282 5353 0
-5283 5353 0
76 -5283 5354 0
-5284 5354 0
76 -5284 5355 0
-5285 5355 0
76 -5285 5356 0
-5286 5356 0
76 -5286 5357 0
-5287 5357 0
76 -5287 5358 0
-5288 5358 0
76 -5288 5359 0
-5289 5359 0
76 -5289 5360 0
-5290 5360 0
76 -5290 5361 0
-5291 5361 0
76 -5291 5362 0
-5292 5362 0
76 -5292 5363 0
-5293 5363 0
76 -5293 5364 0
-5294 5364 0
76 -5294 5365 0
-5295 5365 0
76 -5295 5366 0
-5296 5366 0
76 -5296 5367 0
-5297 5367 0
76 -5297 5368 0
-5298 5368 0
76 -5298 5369 0
-5299 5369 0
76 -5299 5370 0
-5300 5370 0
76 -5300 5371 0
-5301 5371 0
76 -5301 5372 0
-5302 5372 0
76 -5302 5373 0
-5303 5373 0
76 -5303 5374 0
-5304 5374 0
76 -5304 5375 0
-5305 5375 0
76 -5305 5376 0
-5306 5376 0
76 -5306 5377 0
-5307 5377 0
76 -5307 5378 0
-5308 5378 0
76 -5308 5379 0
-5309 5379 0
76 -5309 5380 0
-5310 5380 0
76 -5310 5381 0
-5311 5381 0
76 -5311 5382 0
-5312 5382 0
76 -5312 5383 0
-5313 5383 0
76 -5313 5384 0
-5314 5384 0
76 -5314 5385 0
-5315 5385 0
76 -5315 5386 0
-5316 5386 0
76 -5316 5387 0
-5317 5387 0
76 -5317 5388 0
-5318 5388 0
76 -5318 5389 0
-5319 5389 0
76 -5319 5390 0
-5320 5390 0
76 -5320 5391 0
-5321 5391 0
76 -5321 5392 0
-5322 5392 0
76 -5322 5393 0
-5323 5393 0
76 -5323 5394 0
-5324 5394 0
76 -5324 5395 0
-5325 5395 0
76 -5325 5396 0
-5326 5396 0
76 -5326 5397 0
-5327 5397 0
76 -5327 5398 0
-5328 5398 0
76 -5328 5399 0
-5329 5399 0
76 -5329 5400 0
-5330 5400 0
76 -5330 5401 0
-5331 5401 0
76 -5331 5402 0
-5332 5402 0
76 -5332 0
77 5403 0
-5333 5403 0
77 -5333 5404 0
-5334 5404 0
77 -5334 5405 0
-5335 5405 0
77 -5335 5406 0
-5336 5406 0
77 -5336 5407 0
-5337 5407 0
77 -5337 5408 0
-5338 5408 0
77 -5338 5409 0
-5339 5409 0
77 -5339 5410 0
-5340 5410 0
77 -5340 5411 0
-5341 5411 0
77 -5341 5412 0
-5342 5412 0
77 -5342 5413 0
-5343 5413 0
77 -5343 5414 0
-5344 5414 0
77 -5344 5415 0
-5345 5415 0
77 -5345 5416 0
-5346 5416 0
77 -5346 5417 0
-5347 5417 0
77 -5347 5418 0
-5348 5418 0
77 -5348 5419 0
-5349 5419 0
77 -5349 5420 0
-5350 5420 0
77 -5350 5421 0
-5351 5421 0
77 -5351 5422 0
-5352 5422 0
77 -5352 5423 0
-5353 5423 0
77 -5353 5424 0
-5354 5424 0
77 -5354 5425 0
-5355 5425 0
77 -5355 5426 0
-5356 5426 0
77 -5356 5427 0
-5357 5427 0
77 -5357 5428 0
-5358 5428 0
77 -5358 5429 0
-5359 5429 0
77 -5359 5430 0
-5360 5430 0
77 -5360 5431 0
-5361 5431 0
77 -5361 5432 0
-5362 5432 0
77 -5362 5433 0
-5363 5433 0
77 -5363 5434 0
-5364 5434 0
77 -5364 5435 0
-5365 5435 0
77 -5365 5436 0
-5366 5436 0
77 -5366 5437 0
-5367 5437 0
77 -5367 5438 0
-5368 5438 0
77 -5368 5439 0
-5369 5439 0
77 -5369 5440 0
-5370 5440 0
77 -5370 5441 0
-5371 5441 0
77 -5371 5442 0
-5372 5442 0
77 -5372 5443 0
-5373 5443 0
77 -5373 5444 0
-5374 5444 0
77 -5374 5445 0
-5375 5445 0
77 -5375 5446 0
-5376 5446 0
77 -5376 5447 0
-5377 5447 0
77 -5377 5448 0
-5378 5448 0
77 -5378 5449 0
-5379 5449 0
77 -5379 5450 0
-5380 5450 0
77 -5380 5451 0
-5381 5451 0
77 -5381 5452 0
-5382 5452 0
77 -5382 5453 0
-5383 5453 0
77 -5383 5454 0
-5384 5454 0
77 -5384 5455 0
-5385 5455 0
77 -5385 5456 0
-5386 5456 0
77 -5386 5457 0
-5387 5457 0
77 -5387 5458 0
-5388 5458 0
77 -5388 5459 0
-5389 5459 0
77 -5389 5460 0
-5390 5460 0
77 -5390 5461 0
-5391 5461 0
77 -5391 5462 0
-5392 5462 0
77 -5392 5463 0
-5393 5463 0
77 -5393 5464 0
-5394 5464 0
77 -5394 5465 0
-5395 5465 0
77 -5395 5466 0
-5396 5466 0
77 -5396 5467 0
-5397 5467 0
77 -5397 5468 0
-5398 5468 0
77 -5398 5469 0
-5399 5469 0
77 -5399 5470 0
-5400 5470 0
77 -5400 5471 0
-5401 5471 0
77 -5401 5472 0
-5402 5472 0
77 -5402 0
78 5473 0
-5403 5473 0
78 -5403 5474 0
-5404 5474 0
78 -5404 5475 0
-5405 5475 0
78 -5405 5476 0
-5406 5476 0
78 -5406 5477 0
-5407 5477 0
78 -5407 5478 0
-5408 5478 0
78 -5408 5479 0
-5409 5479 0
78 -5409 5480 0
-5410 5480 0
78 -5410 5481 0
-5411 5481 0
78 -5411 5482 0
-5412 5482 0
78 -5412 5483 0
-5413 5483 0
78 -5413 5484 0
-5414 5484 0
78 -5414 5485 0
-5415 5485 0
78 -5415 5486 0
-5416 5486 0
78 -5416 5487 0
-5417 5487 0
78 -5417 5488 0
-5418 5488 0
78 -5418 5489 0
-5419 5489 0
78 -5419 5490 0
-5420 5490 0
78 -5420 5491 0
-5421 5491 0
78 -5421 5492 0
-5422 5492 0
78 -5422 5493 0
-5423 5493 0
78 -5423 5494 0
-5424 5494 0
78 -5424 5495 0
-5425 5495 0
78 -5425 5496 0
-5426 5496 0
78 -5426 5497 0
-5427 5497 0
78 -5427 5498 0
-5428 5498 0
78 -5428 5499 0
-5429 5499 0
78 -5429 5500 0
-5430 5500 0
78 -5430 5501 0
-5431 5501 0
78 -5431 5502 0
-5432 5502 0
78 -5432 5503 0
-5433 5503 0
78 -5433 5504 0
-5434 5504 0
78 -5434 5505 0
-5435 5505 0
78 -5435 5506 0
-5436 5506 0
78 -5436 5507 0
-5437 5507 0
78 -5437 5508 0
-5438 5508 0
78 -5438 5509 0
-5439 5509 0
78 -5439 5510 0
-5440 5510 0
78 -5440 5511 0
-5441 5511 0
78 -5441 5512 0
-5442 5512 0
78 -5442 5513 0
-5443 5513 0
78 -5443 5514 0
-5444 5514 0
78 -5444 5515 0
-5445 5515 0
78 -5445 5516 0
-5446 5516 0
78 -5446 5517 0
-5447 5517 0
78 -5447 5518 0
-5448 5518 0
78 -5448 5519 0
-5449 5519 0
78 -5449 5520 0
-5450 5520 0
78 -5450 5521 0
-5451 5521 0
78 -5451 5522 0
-5452 5522 0
78 -5452 5523 0
-5453 5523 0
78 -5453 5524 0
-5454 5524 0
78 -5454 5525 0
-5455 5525 0
78 -5455 5526 0
-5456 5526 0
78 -5456 5527 0
-5457 5527 0
78 -5457 5528 0
-5458 5528 0
78 -5458 5529 0
-5459 5529 0
78 -5459 5530 0
-5460 5530 0
78 -5460 5531 0
-5461 5531 0
78 -5461 5532 0
-5462 5532 0
78 -5462 5533 0
-5463 5533 0
78 -5463 5534 0
-5464 5534 0
78 -5464 5535 0
-5465 5535 0
78 -5465 5536 0
-5466 5536 0
78 -5466 5537 0
-5467 5537 0
78 -5467 5538 0
-5468 5538 0
78 -5468 5539 0
-5469 5539 0
78 -5469 5540 0
-5470 5540 0
78 -5470 5541 0
-5471 5541 0
78 -5471 5542 0
-5472 5542 0
78 -5472 0
79 5543 0
-5473 5543 0
79 -5473 5544 0
-5474 5544 0
79 -5474 5545 0
-5475 5545 0
79 -5475 5546 0
-5476 5546 0
79 -5476 5547 0
-5477 5547 0
79 -5477 5548 0
-5478 5548 0
79 -5478 5549 0
-5479 5549 0
79 -5479 5550 0
-5480 5550 0
79 -5480 5551 0
-5481 5551 0
79 -5481 5552 0
-5482 5552 0
79 -5482 5553 0
-5483 5553 0
79 -5483 5554 0
-5484 5554 0
79 -5484 5555 0
-5485 5555 0
79 -5485 5556 0
-5486 5556 0
79 -5486 5557 0
-5487 5557 0
79 -5487 5558 0
-5488 5558 0
79 -5488 5559 0
-5489 5559 0
79 -5489 5560 0
-5490 5560 0
79 -5490 5561 0
-5491 5561 0
79 -5491 5562 0
-5492 5562 0
79 -5492 5563 0
-5493 5563 0
79 -5493 5564 0
-5494 5564 0
79 -5494 5565 0
-5495 5565 0
79 -5495 5566 0
-5496 5566 0
79 -5496 5567 0
-5497 5567 0
79 -5497 5568 0
-5498 5568 0
79 -5498 5569 0
-5499 5569 0
79 -5499 5570 0
-5500 5570 0
79 -5500 5571 0
-5501 5571 0
79 -5501 5572 0
-5502 5572 0
79 -5502 5573 0
-5503 5573 0
79 -5503 5574 0
-5504 5574 0
79 -5504 5575 0
-5505 5575 0
79 -5505 5576 0
-5506 5576 0
79 -5506 5577 0
-5507 5577 0
79 -5507 5578 0
-5508 5578 0
79 -5508 5579 0
-5509 5579 0
79 -5509 5580 0
-5510 5580 0
79 -5510 5581 0
-5511 5581 0
79 -5511 5582 0
-5512 5582 0
79 -5512 5583 0
-5513 5583 0
79 -5513 5584 0
-5514 5584 0
79 -5514 5585 0
-5515 5585 0
79 -5515 5586 0
-5516 5586 0
79 -5516 5587 0
-5517 5587 0
79 -5517 5588 0
-5518 5588 0
79 -5518 5589 0
-5519 5589 0
79 -5519 5590 0
-5520 5590 0
79 -5520 5591 0
-5521 5591 0
79 -5521 5592 0
-5522 5592 0
79 -5522 5593 0
-5523 5593 0
79 -5523 5594 0
-5524 5594 0
79 -5524 5595 0
-5525 5595 0
79 -5525 5596 0
-5526 5596 0
79 -5526 5597 0
-5527 5597 0
79 -5527 5598 0
-5528 5598 0
79 -5528 5599 0
-5529 5599 0
79 -5529 5600 0
-5530 5600 0
79 -5530 5601 0
-5531 5601 0
79 -5531 5602 0
-5532 5602 0
79 -5532 5603 0
-5533 5603 0
79 -5533 5604 0
-5534 5604 0
79 -5534 5605 0
-5535 5605 0
79 -5535 5606 0
-5536 5606 0
79 -5536 5607 0
-5537 5607 0
79 -5537 5608 0
-5538 5608 0
79 -5538 5609 0
-5539 5609 0
79 -5539 5610 0
-5540 5610 0
79 -5540 5611 0
-5541 5611 0
79 -5541 5612 0
-5542 5612 0
79 -5542 0
80 5613 0
-5543 5613 0
80 -5543 5614 0
-5544 5614 0
80 -5544 5615 0
-5545 5615 0
80 -5545 5616 0
-5546 5616 0
80 -5546 5617 0
-5547 5617 0
80 -5547 5618 0
-5548 5618 0
80 -5548 5619 0
-5549 5619 0
80 -5549 5620 0
-5550 5620 0
80 -5550 5621 0
-5551 5621 0
80 -5551 5622 0
-5552 5622 0
80 -5552 5623 0
-5553 5623 0
80 -5553 5624 0
-5554 5624 0
80 -5554 5625 0
-5555 5625 0
80 -5555 5626 0
-5556 5626 0
80 -5556 5627 0
-5557 5627 0
80 -5557 5628 0
-5558 5628 0
80 -5558 5629 0
-5559 5629 0
80 -5559 5630 0
-5560 5630 0
80 -5560 5631 0
-5561 5631 0
80 -5561 5632 0
-5562 5632 0
80 -5562 5633 0
-5563 5633 0
80 -5563 5634 0
-5564 5634 0
80 -5564 5635 0
-5565 5635 0
80 -5565 5636 0
-5566 5636 0
80 -5566 5637 0
-5567 5637 0
80 -5567 5638 0
-5568 5638 0
80 -5568 5639 0
-5569 5639 0
80 -5569 5640 0
-5570 5640 0
80 -5570 5641 0
-5571 5641 0
80 -5571 5642 0
-5572 5642 0
80 -5572 5643 0
-5573 5643 0
80 -5573 5644 0
-5574 5644 0
80 -5574 5645 0
-5575 5645 0
80 -5575 5646 0
-5576 5646 0
80 -5576 5647 0
-5577 5647 0
80 -5577 5648 0
-5578 5648 0
80 -5578 5649 0
-5579 5649 0
80 -5579 5650 0
-5580 5650 0
80 -5580 5651 0
-5581 5651 0
80 -5581 5652 0
-5582 5652 0
80 -5582 5653 0
-5583 5653 0
80 -5583 5654 0
-5584 5654 0
80 -5584 5655 0
-5585 5655 0
80 -5585 5656 0
-5586 5656 0
80 -5586 5657 0
-5587 5657 0
80 -5587 5658 0
-5588 5658 0
80 -5588 5659 0
-5589 5659 0
80 -5589 5660 0
-5590 5660 0
80 -5590 5661 0
-5591 5661 0
80 -5591 5662 0
-5592 5662 0
80 -5592 5663 0
-5593 5663 0
80 -5593 5664 0
-5594 5664 0
80 -5594 5665 0
-5595 5665 0
80 -5595 5666 0
-5596 5666 0
80 -5596 5667 0
-5597 5667 0
80 -5597 5668 0
-5598 5668 0
80 -5598 5669 0
-5599 5669 0
80 -5599 5670 0
-5600 5670 0
80 -5600 5671 0
-5601 5671 0
80 -5601 5672 0
-5602 5672 0
80 -5602 5673 0
-5603 5673 0
80 -5603 5674 0
-5604 5674 0
80 -5604 5675 0
-5605 5675 0
80 -5605 5676 0
-5606 5676 0
80 -5606 5677 0
-5607 5677 0
80 -5607 5678 0
-5608 5678 0
80 -5608 5679 0
-5609 5679 0
80 -5609 5680 0
-5610 5680 0
80 -5610 5681 0
-5611 5681 0
80 -5611 5682 0
-5612 5682 0
80 -5612 0
81 5683 0
-5613 5683 0
81 -5613 5684 0
-5614 5684 0
81 -5614 5685 0
-5615 5685 0
81 -5615 5686 0
-5616 5686 0
81 -5616 5687 0
-5617 5687 0
81 -5617 5688 0
-5618 5688 0
81 -5618 5689 0
-5619 5689 0
81 -5619 5690 0
-5620 5690 0
81 -5620 5691 0
-5621 5691 0
81 -5621 5692 0
-5622 5692 0
81 -5622 5693 0
-5623 5693 0
81 -5623 5694 0
-5624 5694 0
81 -5624 5695 0
-5625 5695 0
81 -5625 5696 0
-5626 5696 0
81 -5626 5697 0
-5627 5697 0
81 -5627 5698 0
-5628 5698 0
81 -5628 5699 0
-5629 5699 0
81 -5629 5700 0
-5630 5700 0
81 -5630 5701 0
-5631 5701 0
81 -5631 5702 0
-5632 5702 0
81 -5632 5703 0
-5633 5703 0
81 -5633 5704 0
-5634 5704 0
81 -5634 5705 0
-5635 5705 0
81 -5635 5706 0
-5636 5706 0
81 -5636 5707 0
-5637 5707 0
81 -5637 5708 0
-5638 5708 0
81 -5638 5709 0
-5639 5709 0
81 -5639 5710 0
-5640 5710 0
81 -5640 5711 0
-5641 5711 0
81 -5641 5712 0
-5642 5712 0
81 -5642 5713 0
-5643 5713 0
81 -5643 5714 0
-5644 5714 0
81 -5644 5715 0
-5645 5715 0
81 -5645 5716 0
-5646 5716 0
81 -5646 5717 0
-5647 5717 0
81 -5647 5718 0
-5648 5718 0
81 -5648 5719 0
-5649 5719 0
81 -5649 5720 0
-5650 5720 0
81 -5650 5721 0
-5651 5721 0
81 -5651 5722 0
-5652 5722 0
81 -5652 5723 0
-5653 5723 0
81 -5653 5724 0
-5654 5724 0
81 -5654 5725 0
-5655 5725 0
81 -5655 5726 0
-5656 5726 0
81 -5656 5727 0
-5657 5727 0
81 -5657 5728 0
-5658 5728 0
81 -5658 5729 0
-5659 5729 0
81 -5659 5730 0
-5660 5730 0
81 -5660 5731 0
-5661 5731 0
81 -5661 5732 0
-5662 5732 0
81 -5662 5733 0
-5663 5733 0
81 -5663 5734 0
-5664 5734 0
81 -5664 5735 0
-5665 5735 0
81 -5665 5736 0
-5666 5736 0
81 -5666 5737 0
-5667 5737 0
81 -5667 5738 0
-5668 5738 0
81 -5668 5739 0
-5669 5739 0
81 -5669 5740 0
-5670 5740 0
81 -5670 5741 0
-5671 5741 0
81 -5671 5742 0
-5672 5742 0
81 -5672 5743 0
-5673 5743 0
81 -5673 5744 0
-5674 5744 0
81 -5674 5745 0
-5675 5745 0
81 -5675 5746 0
-5676 5746 0
81 -5676 5747 0
-5677 5747 0
81 -5677 5748 0
-5678 5748 0
81 -5678 5749 0
-5679 5749 0
81 -5679 5750 0
-5680 5750 0
81 -5680 5751 0
-5681 5751 0
81 -5681 5752 0
-5682 5752 0
81 -5682 0
82 5753 0
-5683 5753 0
82 -5683 5754 0
-5684 5754 0
82 -5684 5755 0
-5685 5755 0
82 -5685 5756 0
-5686 5756 0
82 -5686 5757 0
-5687 5757 0
82 -5687 5758 0
-5688 5758 0
82 -5688 5759 0
-5689 5759 0
82 -5689 5760 0
-5690 5760 0
82 -5690 5761 0
-5691 5761 0
82 -5691 5762 0
-5692 5762 0
82 -5692 5763 0
-5693 5763 0
82 -5693 5764 0
-5694 5764 0
82 -5694 5765 0
-5695 5765 0
82 -5695 5766 0
-5696 5766 0
82 -5696 5767 0
-5697 5767 0
82 -5697 5768 0
-5698 5768 0
82 -5698 5769 0
-5699 5769 0
82 -5699 5770 0
-5700 5770 0
82 -5700 5771 0
-5701 5771 0
82 -5701 5772 0
-5702 5772 0
82 -5702 5773 0
-5703 5773 0
82 -5703 5774 0
-5704 5774 0
82 -5704 5775 0
-5705 5775 0
82 -5705 5776 0
-5706 5776 0
82 -5706 5777 0
-5707 5777 0
82 -5707 5778 0
-5708 5778 0
82 -5708 5779 0
-5709 5779 0
82 -5709 5780 0
-5710 5780 0
82 -5710 5781 0
-5711 5781 0
82 -5711 5782 0
-5712 5782 0
82 -5712 5783 0
-5713 5783 0
82 -5713 5784 0
-5714 5784 0
82 -5714 5785 0
-5715 5785 0
82 -5715 5786 0
-5716 5786 0
82 -5716 5787 0
-5717 5787 0
82 -5717 5788 0
-5718 5788 0
82 -5718 5789 0
-5719 5789 0
82 -5719 5790 0
-5720 5790 0
82 -5720 5791 0
-5721 5791 0
82 -5721 5792 0
-5722 5792 0
82 -5722 5793 0
-5723 5793 0
82 -5723 5794 0
-5724 5794 0
82 -5724 5795 0
-5725 5795 0
82 -5725 5796 0
-5726 5796 0
82 -5726 5797 0
-5727 5797 0
82 -5727 5798 0
-5728 5798 0
82 -5728 5799 0
-5729 5799 0
82 -5729 5800 0
-5730 5800 0
82 -5730 5801 0
-5731 5801 0
82 -5731 5802 0
-5732 5802 0
82 -5732 5803 0
-5733 5803 0
82 -5733 5804 0
-5734 5804 0
82 -5734 5805 0
-5735 5805 0
82 -5735 5806 0
-5736 5806 0
82 -5736 5807 0
-5737 5807 0
82 -5737 5808 0
-5738 5808 0
82 -5738 5809 0
-5739 5809 0
82 -5739 5810 0
-5740 5810 0
82 -5740 5811 0
-5741 5811 0
82 -5741 5812 0
-5742 5812 0
82 -5742 5813 0
-5743 5813 0
82 -5743 5814 0
-5744 5814 0
82 -5744 5815 0
-5745 5815 0
82 -5745 5816 0
-5746 5816 0
82 -5746 5817 0
-5747 5817 0
82 -5747 5818 0
-5748 5818 0
82 -5748 5819 0
-5749 5819 0
82 -5749 5820 0
-5750 5820 0
82 -5750 5821 0
-5751 5821 0
82 -5751 5822 0
-5752 5822 0
82 -5752 0
