c tt3 packing >= 10 in tournament n=9 bits=101110001111000111000101111111111101 m_TT3=54
p cnf 2430 5058
-1 -2 0
-1 -3 0
-1 -4 0
-1 -5 0
-1 -6 0
-1 -7 0
-1 -13 0
-1 -14 0
-1 -19 0
-1 -25 0
-1 -26 0
-2 -3 0
-2 -4 0
-2 -5 0
-2 -6 0
-2 -8 0
-2 -13 0
-2 -15 0
-2 -20 0
-2 -25 0
-2 -27 0
-3 -4 0
-3 -5 0
-3 -6 0
-3 -9 0
-3 -14 0
-3 -15 0
-3 -21 0
-3 -26 0
-3 -27 0
-4 -5 0
-4 -6 0
-4 -10 0
-4 -16 0
-4 -17 0
-4 -22 0
-4 -28 0
-4 -29 0
-5 -6 0
-5 -11 0
-5 -16 0
-5 -18 0
-5 -23 0
-5 -28 0
-5 -30 0
-6 -12 0
-6 -17 0
-6 -18 0
-6 -24 0
-6 -29 0
-6 -30 0
-7 -8 0
-7 -9 0
-7 -10 0
-7 -11 0
-7 -12 0
-7 -13 0
-7 -14 0
-7 -19 0
-7 -31 0
-7 -32 0
-8 -9 0
-8 -10 0
-8 -11 0
-8 -12 0
-8 -13 0
-8 -15 0
-8 -20 0
-8 -31 0
-8 -33 0
-9 -10 0
-9 -11 0
-9 -12 0
-9 -14 0
-9 -15 0
-9 -21 0
-9 -32 0
-9 -33 0
-10 -11 0
-10 -12 0
-10 -16 0
-10 -17 0
-10 -22 0
-10 -34 0
-10 -35 0
-11 -12 0
-11 -16 0
-11 -18 0
-11 -23 0
-11 -34 0
-11 -36 0
-12 -17 0
-12 -18 0
-12 -24 0
-12 -35 0
-12 -36 0
-13 -14 0
-13 -15 0
-13 -25 0
-13 -31 0
-13 -37 0
-13 -38 0
-13 -39 0
-14 -15 0
-14 -26 0
-14 -32 0
-14 -40 0
-14 -41 0
-14 -42 0
-15 -27 0
-15 -33 0
-15 -46 0
-15 -47 0
-15 -48 0
-16 -17 0
-16 -18 0
-16 -28 0
-16 -34 0
-16 -43 0
-16 -49 0
-16 -52 0
-17 -18 0
-17 -29 0
-17 -35 0
-17 -44 0
-17 -50 0
-17 -53 0
-18 -30 0
-18 -36 0
-18 -45 0
-18 -51 0
-18 -54 0
-19 -20 0
-19 -21 0
-19 -22 0
-19 -23 0
-19 -24 0
-19 -25 0
-19 -26 0
-19 -31 0
-19 -32 0
-20 -21 0
-20 -22 0
-20 -23 0
-20 -24 0
-20 -25 0
-20 -27 0
-20 -31 0
-20 -33 0
-21 -22 0
-21 -23 0
-21 -24 0
-21 -26 0
-21 -27 0
-21 -32 0
-21 -33 0
-22 -23 0
-22 -24 0
-22 -28 0
-22 -29 0
-22 -34 0
-22 -35 0
-23 -24 0
-23 -28 0
-23 -30 0
-23 -34 0
-23 -36 0
-24 -29 0
-24 -30 0
-24 -35 0
-24 -36 0
-25 -26 0
-25 -27 0
-25 -31 0
-25 -37 0
-25 -38 0
-25 -39 0
-26 -27 0
-26 -32 0
-26 -40 0
-26 -41 0
-26 -42 0
-27 -33 0
-27 -46 0
-27 -47 0
-27 -48 0
-28 -29 0
-28 -30 0
-28 -34 0
-28 -43 0
-28 -49 0
-28 -52 0
-29 -30 0
-29 -35 0
-29 -44 0
-29 -50 0
-29 -53 0
-30 -36 0
-30 -45 0
-30 -51 0
-30 -54 0
-31 -32 0
-31 -33 0
-31 -37 0
-31 -38 0
-31 -39 0
-32 -33 0
-32 -40 0
-32 -41 0
-32 -42 0
-33 -46 0
-33 -47 0
-33 -48 0
-34 -35 0
-34 -36 0
-34 -43 0
-34 -49 0
-34 -52 0
-35 -36 0
-35 -44 0
-35 -50 0
-35 -53 0
-36 -45 0
-36 -51 0
-36 -54 0
-37 -38 0
-37 -39 0
-37 -40 0
-37 -43 0
-37 -44 0
-37 -46 0
-37 -49 0
-37 -50 0
-38 -39 0
-38 -41 0
-38 -43 0
-38 -45 0
-38 -47 0
-38 -49 0
-38 -51 0
-39 -42 0
-39 -44 0
-39 -45 0
-39 -48 0
-39 -50 0
-39 -51 0
-40 -41 0
-40 -42 0
-40 -43 0
-40 -44 0
-40 -46 0
-40 -52 0
-40 -53 0
-41 -42 0
-41 -43 0
-41 -45 0
-41 -47 0
-41 -52 0
-41 -54 0
-42 -44 0
-42 -45 0
-42 -48 0
-42 -53 0
-42 -54 0
-43 -44 0
-43 -45 0
-43 -49 0
-43 -52 0
-44 -45 0
-44 -50 0
-44 -53 0
-45 -51 0
-45 -54 0
-46 -47 0
-46 -48 0
-46 -49 0
-46 -50 0
-46 -52 0
-46 -53 0
-47 -48 0
-47 -49 0
-47 -51 0
-47 -52 0
-47 -54 0
-48 -50 0
-48 -51 0
-48 -53 0
-48 -54 0
-49 -50 0
-49 -51 0
-49 -52 0
-50 -51 0
-50 -53 0
-51 -54 0
-52 -53 0
-52 -54 0
-53 -54 0
1 55 0
-56 0
-57 0
-58 0
-59 0
-60 0
-61 0
-62 0
-63 0
-64 0
-65 0
-66 0
-67 0
-68 0
-69 0
-70 0
-71 0
-72 0
-73 0
-74 0
-75 0
-76 0
-77 0
-78 0
-79 0
-80 0
-81 0
-82 0
-83 0
-84 0
-85 0
-86 0
-87 0
-88 0
-89 0
-90 0
-91 0
-92 0
-93 0
-94 0
-95 0
-96 0
-97 0
-98 0
2 99 0
-55 99 0
2 -55 100 0
-56 100 0
2 -56 101 0
-57 101 0
2 -57 102 0
-58 102 0
2 -58 103 0
-59 103 0
2 -59 104 0
-60 104 0
2 -60 105 0
-61 105 0
2 -61 106 0
-62 106 0
2 -62 107 0
-63 107 0
2 -63 108 0
-64 108 0
2 -64 109 0
-65 109 0
2 -65 110 0
-66 110 0
2 -66 111 0
-67 111 0
2 -67 112 0
-68 112 0
2 -68 113 0
-69 113 0
2 -69 114 0
-70 114 0
2 -70 115 0
-71 115 0
2 -71 116 0
-72 116 0
2 -72 117 0
-73 117 0
2 -73 118 0
-74 118 0
2 -74 119 0
-75 119 0
2 -75 120 0
-76 120 0
2 -76 121 0
-77 121 0
2 -77 122 0
-78 122 0
2 -78 123 0
-79 123 0
2 -79 124 0
-80 124 0
2 -80 125 0
-81 125 0
2 -81 126 0
-82 126 0
2 -82 127 0
-83 127 0
2 -83 128 0
-84 128 0
2 -84 129 0
-85 129 0
2 -85 130 0
-86 130 0
2 -86 131 0
-87 131 0
2 -87 132 0
-88 132 0
2 -88 133 0
-89 133 0
2 -89 134 0
-90 134 0
2 -90 135 0
-91 135 0
2 -91 136 0
-92 136 0
2 -92 137 0
-93 137 0
2 -93 138 0
-94 138 0
2 -94 139 0
-95 139 0
2 -95 140 0
-96 140 0
2 -96 141 0
-97 141 0
2 -97 142 0
-98 142 0
2 -98 0
3 143 0
-99 143 0
3 -99 144 0
-100 144 0
3 -100 145 0
-101 145 0
3 -101 146 0
-102 146 0
3 -102 147 0
-103 147 0
3 -103 148 0
-104 148 0
3 -104 149 0
-105 149 0
3 -105 150 0
-106 150 0
3 -106 151 0
-107 151 0
3 -107 152 0
-108 152 0
3 -108 153 0
-109 153 0
3 -109 154 0
-110 154 0
3 -110 155 0
-111 155 0
3 -111 156 0
-112 156 0
3 -112 157 0
-113 157 0
3 -113 158 0
-114 158 0
3 -114 159 0
-115 159 0
3 -115 160 0
-116 160 0
3 -116 161 0
-117 161 0
3 -117 162 0
-118 162 0
3 -118 163 0
-119 163 0
3 -119 164 0
-120 164 0
3 -120 165 0
-121 165 0
3 -121 166 0
-122 166 0
3 -122 167 0
-123 167 0
3 -123 168 0
-124 168 0
3 -124 169 0
-125 169 0
3 -125 170 0
-126 170 0
3 -126 171 0
-127 171 0
3 -127 172 0
-128 172 0
3 -128 173 0
-129 173 0
3 -129 174 0
-130 174 0
3 -130 175 0
-131 175 0
3 -131 176 0
-132 176 0
3 -132 177 0
-133 177 0
3 -133 178 0
-134 178 0
3 -134 179 0
-135 179 0
3 -135 180 0
-136 180 0
3 -136 181 0
-137 181 0
3 -137 182 0
-138 182 0
3 -138 183 0
-139 183 0
3 -139 184 0
-140 184 0
3 -140 185 0
-141 185 0
3 -141 186 0
-142 186 0
3 -142 0
4 187 0
-143 187 0
4 -143 188 0
-144 188 0
4 -144 189 0
-145 189 0
4 -145 190 0
-146 190 0
4 -146 191 0
-147 191 0
4 -147 192 0
-148 192 0
4 -148 193 0
-149 193 0
4 -149 194 0
-150 194 0
4 -150 195 0
-151 195 0
4 -151 196 0
-152 196 0
4 -152 197 0
-153 197 0
4 -153 198 0
-154 198 0
4 -154 199 0
-155 199 0
4 -155 200 0
-156 200 0
4 -156 201 0
-157 201 0
4 -157 202 0
-158 202 0
4 -158 203 0
-159 203 0
4 -159 204 0
-160 204 0
4 -160 205 0
-161 205 0
4 -161 206 0
-162 206 0
4 -162 207 0
-163 207 0
4 -163 208 0
-164 208 0
4 -164 209 0
-165 209 0
4 -165 210 0
-166 210 0
4 -166 211 0
-167 211 0
4 -167 212 0
-168 212 0
4 -168 213 0
-169 213 0
4 -169 214 0
-170 214 0
4 -170 215 0
-171 215 0
4 -171 216 0
-172 216 0
4 -172 217 0
-173 217 0
4 -173 218 0
-174 218 0
4 -174 219 0
-175 219 0
4 -175 220 0
-176 220 0
4 -176 221 0
-177 221 0
4 -177 222 0
-178 222 0
4 -178 223 0
-179 223 0
4 -179 224 0
-180 224 0
4 -180 225 0
-181 225 0
4 -181 226 0
-182 226 0
4 -182 227 0
-183 227 0
4 -183 228 0
-184 228 0
4 -184 229 0
-185 229 0
4 -185 230 0
-186 230 0
4 -186 0
5 231 0
-187 231 0
5 -187 232 0
-188 232 0
5 -188 233 0
-189 233 0
5 -189 234 0
-190 234 0
5 -190 235 0
-191 235 0
5 -191 236 0
-192 236 0
5 -192 237 0
-193 237 0
5 -193 238 0
-194 238 0
5 -194 239 0
-195 239 0
5 -195 240 0
-196 240 0
5 -196 241 0
-197 241 0
5 -197 242 0
-198 242 0
5 -198 243 0
-199 243 0
5 -199 244 0
-200 244 0
5 -200 245 0
-201 245 0
5 -201 246 0
-202 246 0
5 -202 247 0
-203 247 0
5 -203 248 0
-204 248 0
5 -204 249 0
-205 249 0
5 -205 250 0
-206 250 0
5 -206 251 0
-207 251 0
5 -207 252 0
-208 252 0
5 -208 253 0
-209 253 0
5 -209 254 0
-210 254 0
5 -210 255 0
-211 255 0
5 -211 256 0
-212 256 0
5 -212 257 0
-213 257 0
5 -213 258 0
-214 258 0
5 -214 259 0
-215 259 0
5 -215 260 0
-216 260 0
5 -216 261 0
-217 261 0
5 -217 262 0
-218 262 0
5 -218 263 0
-219 263 0
5 -219 264 0
-220 264 0
5 -220 265 0
-221 265 0
5 -221 266 0
-222 266 0
5 -222 267 0
-223 267 0
5 -223 268 0
-224 268 0
5 -224 269 0
-225 269 0
5 -225 270 0
-226 270 0
5 -226 271 0
-227 271 0
5 -227 272 0
-228 272 0
5 -228 273 0
-229 273 0
5 -229 274 0
-230 274 0
5 -230 0
6 275 0
-231 275 0
6 -231 276 0
-232 276 0
6 -232 277 0
-233 277 0
6 -233 278 0
-234 278 0
6 -234 279 0
-235 279 0
6 -235 280 0
-236 280 0
6 -236 281 0
-237 281 0
6 -237 282 0
-238 282 0
6 -238 283 0
-239 283 0
6 -239 284 0
-240 284 0
6 -240 285 0
-241 285 0
6 -241 286 0
-242 286 0
6 -242 287 0
-243 287 0
6 -243 288 0
-244 288 0
6 -244 289 0
-245 289 0
6 -245 290 0
-246 290 0
6 -246 291 0
-247 291 0
6 -247 292 0
-248 292 0
6 -248 293 0
-249 293 0
6 -249 294 0
-250 294 0
6 -250 295 0
-251 295 0
6 -251 296 0
-252 296 0
6 -252 297 0
-253 297 0
6 -253 298 0
-254 298 0
6 -254 299 0
-255 299 0
6 -255 300 0
-256 300 0
6 -256 301 0
-257 301 0
6 -257 302 0
-258 302 0
6 -258 303 0
-259 303 0
6 -259 304 0
-260 304 0
6 -260 305 0
-261 305 0
6 -261 306 0
-262 306 0
6 -262 307 0
-263 307 0
6 -263 308 0
-264 308 0
6 -264 309 0
-265 309 0
6 -265 310 0
-266 310 0
6 -266 311 0
-267 311 0
6 -267 312 0
-268 312 0
6 -268 313 0
-269 313 0
6 -269 314 0
-270 314 0
6 -270 315 0
-271 315 0
6 -271 316 0
-272 316 0
6 -272 317 0
-273 317 0
6 -273 318 0
-274 318 0
6 -274 0
7 319 0
-275 319 0
7 -275 320 0
-276 320 0
7 -276 321 0
-277 321 0
7 -277 322 0
-278 322 0
7 -278 323 0
-279 323 0
7 -279 324 0
-280 324 0
7 -280 325 0
-281 325 0
7 -281 326 0
-282 326 0
7 -282 327 0
-283 327 0
7 -283 328 0
-284 328 0
7 -284 329 0
-285 329 0
7 -285 330 0
-286 330 0
7 -286 331 0
-287 331 0
7 -287 332 0
-288 332 0
7 -288 333 0
-289 333 0
7 -289 334 0
-290 334 0
7 -290 335 0
-291 335 0
7 -291 336 0
-292 336 0
7 -292 337 0
-293 337 0
7 -293 338 0
-294 338 0
7 -294 339 0
-295 339 0
7 -295 340 0
-296 340 0
7 -296 341 0
-297 341 0
7 -297 342 0
-298 342 0
7 -298 343 0
-299 343 0
7 -299 344 0
-300 344 0
7 -300 345 0
-301 345 0
7 -301 346 0
-302 346 0
7 -302 347 0
-303 347 0
7 -303 348 0
-304 348 0
7 -304 349 0
-305 349 0
7 -305 350 0
-306 350 0
7 -306 351 0
-307 351 0
7 -307 352 0
-308 352 0
7 -308 353 0
-309 353 0
7 -309 354 0
-310 354 0
7 -310 355 0
-311 355 0
7 -311 356 0
-312 356 0
7 -312 357 0
-313 357 0
7 -313 358 0
-314 358 0
7 -314 359 0
-315 359 0
7 -315 360 0
-316 360 0
7 -316 361 0
-317 361 0
7 -317 362 0
-318 362 0
7 -318 0
8 363 0
-319 363 0
8 -319 364 0
-320 364 0
8 -320 365 0
-321 365 0
8 -321 366 0
-322 366 0
8 -322 367 0
-323 367 0
8 -323 368 0
-324 368 0
8 -324 369 0
-325 369 0
8 -325 370 0
-326 370 0
8 -326 371 0
-327 371 0
8 -327 372 0
-328 372 0
8 -328 373 0
-329 373 0
8 -329 374 0
-330 374 0
8 -330 375 0
-331 375 0
8 -331 376 0
-332 376 0
8 -332 377 0
-333 377 0
8 -333 378 0
-334 378 0
8 -334 379 0
-335 379 0
8 -335 380 0
-336 380 0
8 -336 381 0
-337 381 0
8 -337 382 0
-338 382 0
8 -338 383 0
-339 383 0
8 -339 384 0
-340 384 0
8 -340 385 0
-341 385 0
8 -341 386 0
-342 386 0
8 -342 387 0
-343 387 0
8 -343 388 0
-344 388 0
8 -344 389 0
-345 389 0
8 -345 390 0
-346 390 0
8 -346 391 0
-347 391 0
8 -347 392 0
-348 392 0
8 -348 393 0
-349 393 0
8 -349 394 0
-350 394 0
8 -350 395 0
-351 395 0
8 -351 396 0
-352 396 0
8 -352 397 0
-353 397 0
8 -353 398 0
-354 398 0
8 -354 399 0
-355 399 0
8 -355 400 0
-356 400 0
8 -356 401 0
-357 401 0
8 -357 402 0
-358 402 0
8 -358 403 0
-359 403 0
8 -359 404 0
-360 404 0
8 -360 405 0
-361 405 0
8 -361 406 0
-362 406 0
8 -362 0
9 407 0
-363 407 0
9 -363 408 0
-364 408 0
9 -364 409 0
-365 409 0
9 -365 410 0
-366 410 0
9 -366 411 0
-367 411 0
9 -367 412 0
-368 412 0
9 -368 413 0
-369 413 0
9 -369 414 0
-370 414 0
9 -370 415 0
-371 415 0
9 -371 416 0
-372 416 0
9 -372 417 0
-373 417 0
9 -373 418 0
-374 418 0
9 -374 419 0
-375 419 0
9 -375 420 0
-376 420 0
9 -376 421 0
-377 421 0
9 -377 422 0
-378 422 0
9 -378 423 0
-379 423 0
9 -379 424 0
-380 424 0
9 -380 425 0
-381 425 0
9 -381 426 0
-382 426 0
9 -382 427 0
-383 427 0
9 -383 428 0
-384 428 0
9 -384 429 0
-385 429 0
9 -385 430 0
-386 430 0
9 -386 431 0
-387 431 0
9 -387 432 0
-388 432 0
9 -388 433 0
-389 433 0
9 -389 434 0
-390 434 0
9 -390 435 0
-391 435 0
9 -391 436 0
-392 436 0
9 -392 437 0
-393 437 0
9 -393 438 0
-394 438 0
9 -394 439 0
-395 439 0
9 -395 440 0
-396 440 0
9 -396 441 0
-397 441 0
9 -397 442 0
-398 442 0
9 -398 443 0
-399 443 0
9 -399 444 0
-400 444 0
9 -400 445 0
-401 445 0
9 -401 446 0
-402 446 0
9 -402 447 0
-403 447 0
9 -403 448 0
-404 448 0
9 -404 449 0
-405 449 0
9 -405 450 0
-406 450 0
9 -406 0
10 451 0
-407 451 0
10 -407 452 0
-408 452 0
10 -408 453 0
-409 453 0
10 -409 454 0
-410 454 0
10 -410 455 0
-411 455 0
10 -411 456 0
-412 456 0
10 -412 457 0
-413 457 0
10 -413 458 0
-414 458 0
10 -414 459 0
-415 459 0
10 -415 460 0
-416 460 0
10 -416 461 0
-417 461 0
10 -417 462 0
-418 462 0
10 -418 463 0
-419 463 0
10 -419 464 0
-420 464 0
10 -420 465 0
-421 465 0
10 -421 466 0
-422 466 0
10 -422 467 0
-423 467 0
10 -423 468 0
-424 468 0
10 -424 469 0
-425 469 0
10 -425 470 0
-426 470 0
10 -426 471 0
-427 471 0
10 -427 472 0
-428 472 0
10 -428 473 0
-429 473 0
10 -429 474 0
-430 474 0
10 -430 475 0
-431 475 0
10 -431 476 0
-432 476 0
10 -432 477 0
-433 477 0
10 -433 478 0
-434 478 0
10 -434 479 0
-435 479 0
10 -435 480 0
-436 480 0
10 -436 481 0
-437 481 0
10 -437 482 0
-438 482 0
10 -438 483 0
-439 483 0
10 -439 484 0
-440 484 0
10 -440 485 0
-441 485 0
10 -441 486 0
-442 486 0
10 -442 487 0
-443 487 0
10 -443 488 0
-444 488 0
10 -444 489 0
-445 489 0
10 -445 490 0
-446 490 0
10 -446 491 0
-447 491 0
10 -447 492 0
-448 492 0
10 -448 493 0
-449 493 0
10 -449 494 0
-450 494 0
10 -450 0
11 495 0
-451 495 0
11 -451 496 0
-452 496 0
11 -452 497 0
-453 497 0
11 -453 498 0
-454 498 0
11 -454 499 0
-455 499 0
11 -455 500 0
-456 500 0
11 -456 501 0
-457 501 0
11 -457 502 0
-458 502 0
11 -458 503 0
-459 503 0
11 -459 504 0
-460 504 0
11 -460 505 0
-461 505 0
11 -461 506 0
-462 506 0
11 -462 507 0
-463 507 0
11 -463 508 0
-464 508 0
11 -464 509 0
-465 509 0
11 -465 510 0
-466 510 0
11 -466 511 0
-467 511 0
11 -467 512 0
-468 512 0
11 -468 513 0
-469 513 0
11 -469 514 0
-470 514 0
11 -470 515 0
-471 515 0
11 -471 516 0
-472 516 0
11 -472 517 0
-473 517 0
11 -473 518 0
-474 518 0
11 -474 519 0
-475 519 0
11 -475 520 0
-476 520 0
11 -476 521 0
-477 521 0
11 -477 522 0
-478 522 0
11 -478 523 0
-479 523 0
11 -479 524 0
-480 524 0
11 -480 525 0
-481 525 0
11 -481 526 0
-482 526 0
11 -482 527 0
-483 527 0
11 -483 528 0
-484 528 0
11 -484 529 0
-485 529 0
11 -485 530 0
-486 530 0
11 -486 531 0
-487 531 0
11 -487 532 0
-488 532 0
11 -488 533 0
-489 533 0
11 -489 534 0
-490 534 0
11 -490 535 0
-491 535 0
11 -491 536 0
-492 536 0
11 -492 537 0
-493 537 0
11 -493 538 0
-494 538 0
11 -494 0
12 539 0
-495 539 0
12 -495 540 0
-496 540 0
12 -496 541 0
-497 541 0
12 -497 542 0
-498 542 0
12 -498 543 0
-499 543 0
12 -499 544 0
-500 544 0
12 -500 545 0
-501 545 0
12 -501 546 0
-502 546 0
12 -502 547 0
-503 547 0
12 -503 548 0
-504 548 0
12 -504 549 0
-505 549 0
12 -505 550 0
-506 550 0
12 -506 551 0
-507 551 0
12 -507 552 0
-508 552 0
12 -508 553 0
-509 553 0
12 -509 554 0
-510 554 0
12 -510 555 0
-511 555 0
12 -511 556 0
-512 556 0
12 -512 557 0
-513 557 0
12 -513 558 0
-514 558 0
12 -514 559 0
-515 559 0
12 -515 560 0
-516 560 0
12 -516 561 0
-517 561 0
12 -517 562 0
-518 562 0
12 -518 563 0
-519 563 0
12 -519 564 0
-520 564 0
12 -520 565 0
-521 565 0
12 -521 566 0
-522 566 0
12 -522 567 0
-523 567 0
12 -523 568 0
-524 568 0
12 -524 569 0
-525 569 0
12 -525 570 0
-526 570 0
12 -526 571 0
-527 571 0
12 -527 572 0
-528 572 0
12 -528 573 0
-529 573 0
12 -529 574 0
-530 574 0
12 -530 575 0
-531 575 0
12 -531 576 0
-532 576 0
12 -532 577 0
-533 577 0
12 -533 578 0
-534 578 0
12 -534 579 0
-535 579 0
12 -535 580 0
-536 580 0
12 -536 581 0
-537 581 0
12 -537 582 0
-538 582 0
12 -538 0
13 583 0
-539 583 0
13 -539 584 0
-540 584 0
13 -540 585 0
-541 585 0
13 -541 586 0
-542 586 0
13 -542 587 0
-543 587 0
13 -543 588 0
-544 588 0
13 -544 589 0
-545 589 0
13 -545 590 0
-546 590 0
13 -546 591 0
-547 591 0
13 -547 592 0
-548 592 0
13 -548 593 0
-549 593 0
13 -549 594 0
-550 594 0
13 -550 595 0
-551 595 0
13 -551 596 0
-552 596 0
13 -552 597 0
-553 597 0
13 -553 598 0
-554 598 0
13 -554 599 0
-555 599 0
13 -555 600 0
-556 600 0
13 -556 601 0
-557 601 0
13 -557 602 0
-558 602 0
13 -558 603 0
-559 603 0
13 -559 604 0
-560 604 0
13 -560 605 0
-561 605 0
13 -561 606 0
-562 606 0
13 -562 607 0
-563 607 0
13 -563 608 0
-564 608 0
13 -564 609 0
-565 609 0
13 -565 610 0
-566 610 0
13 -566 611 0
-567 611 0
13 -567 612 0
-568 612 0
13 -568 613 0
-569 613 0
13 -569 614 0
-570 614 0
13 -570 615 0
-571 615 0
13 -571 616 0
-572 616 0
13 -572 617 0
-573 617 0
13 -573 618 0
-574 618 0
13 -574 619 0
-575 619 0
13 -575 620 0
-576 620 0
13 -576 621 0
-577 621 0
13 -577 622 0
-578 622 0
13 -578 623 0
-579 623 0
13 -579 624 0
-580 624 0
13 -580 625 0
-581 625 0
13 -581 626 0
-582 626 0
13 -582 0
14 627 0
-583 627 0
14 -583 628 0
-584 628 0
14 -584 629 0
-585 629 0
14 -585 630 0
-586 630 0
14 -586 631 0
-587 631 0
14 -587 632 0
-588 632 0
14 -588 633 0
-589 633 0
14 -589 634 0
-590 634 0
14 -590 635 0
-591 635 0
14 -591 636 0
-592 636 0
14 -592 637 0
-593 637 0
14 -593 638 0
-594 638 0
14 -594 639 0
-595 639 0
14 -595 640 0
-596 640 0
14 -596 641 0
-597 641 0
14 -597 642 0
-598 642 0
14 -598 643 0
-599 643 0
14 -599 644 0
-600 644 0
14 -600 645 0
-601 645 0
14 -601 646 0
-602 646 0
14 -602 647 0
-603 647 0
14 -603 648 0
-604 648 0
14 -604 649 0
-605 649 0
14 -605 650 0
-606 650 0
14 -606 651 0
-607 651 0
14 -607 652 0
-608 652 0
14 -608 653 0
-609 653 0
14 -609 654 0
-610 654 0
14 -610 655 0
-611 655 0
14 -611 656 0
-612 656 0
14 -612 657 0
-613 657 0
14 -613 658 0
-614 658 0
14 -614 659 0
-615 659 0
14 -615 660 0
-616 660 0
14 -616 661 0
-617 661 0
14 -617 662 0
-618 662 0
14 -618 663 0
-619 663 0
14 -619 664 0
-620 664 0
14 -620 665 0
-621 665 0
14 -621 666 0
-622 666 0
14 -622 667 0
-623 667 0
14 -623 668 0
-624 668 0
14 -624 669 0
-625 669 0
14 -625 670 0
-626 670 0
14 -626 0
15 671 0
-627 671 0
15 -627 672 0
-628 672 0
15 -628 673 0
-629 673 0
15 -629 674 0
-630 674 0
15 -630 675 0
-631 675 0
15 -631 676 0
-632 676 0
15 -632 677 0
-633 677 0
15 -633 678 0
-634 678 0
15 -634 679 0
-635 679 0
15 -635 680 0
-636 680 0
15 -636 681 0
-637 681 0
15 -637 682 0
-638 682 0
15 -638 683 0
-639 683 0
15 -639 684 0
-640 684 0
15 -640 685 0
-641 685 0
15 -641 686 0
-642 686 0
15 -642 687 0
-643 687 0
15 -643 688 0
-644 688 0
15 -644 689 0
-645 689 0
15 -645 690 0
-646 690 0
15 -646 691 0
-647 691 0
15 -647 692 0
-648 692 0
15 -648 693 0
-649 693 0
15 -649 694 0
-650 694 0
15 -650 695 0
-651 695 0
15 -651 696 0
-652 696 0
15 -652 697 0
-653 697 0
15 -653 698 0
-654 698 0
15 -654 699 0
-655 699 0
15 -655 700 0
-656 700 0
15 -656 701 0
-657 701 0
15 -657 702 0
-658 702 0
15 -658 703 0
-659 703 0
15 -659 704 0
-660 704 0
15 -660 705 0
-661 705 0
15 -661 706 0
-662 706 0
15 -662 707 0
-663 707 0
15 -663 708 0
-664 708 0
15 -664 709 0
-665 709 0
15 -665 710 0
-666 710 0
15 -666 711 0
-667 711 0
15 -667 712 0
-668 712 0
15 -668 713 0
-669 713 0
15 -669 714 0
-670 714 0
15 -670 0
16 715 0
-671 715 0
16 -671 716 0
-672 716 0
16 -672 717 0
-673 717 0
16 -673 718 0
-674 718 0
16 -674 719 0
-675 719 0
16 -675 720 0
-676 720 0
16 -676 721 0
-677 721 0
16 -677 722 0
-678 722 0
16 -678 723 0
-679 723 0
16 -679 724 0
-680 724 0
16 -680 725 0
-681 725 0
16 -681 726 0
-682 726 0
16 -682 727 0
-683 727 0
16 -683 728 0
-684 728 0
16 -684 729 0
-685 729 0
16 -685 730 0
-686 730 0
16 -686 731 0
-687 731 0
16 -687 732 0
-688 732 0
16 -688 733 0
-689 733 0
16 -689 734 0
-690 734 0
16 -690 735 0
-691 735 0
16 -691 736 0
-692 736 0
16 -692 737 0
-693 737 0
16 -693 738 0
-694 738 0
16 -694 739 0
-695 739 0
16 -695 740 0
-696 740 0
16 -696 741 0
-697 741 0
16 -697 742 0
-698 742 0
16 -698 743 0
-699 743 0
16 -699 744 0
-700 744 0
16 -700 745 0
-701 745 0
16 -701 746 0
-702 746 0
16 -702 747 0
-703 747 0
16 -703 748 0
-704 748 0
16 -704 749 0
-705 749 0
16 -705 750 0
-706 750 0
16 -706 751 0
-707 751 0
16 -707 752 0
-708 752 0
16 -708 753 0
-709 753 0
16 -709 754 0
-710 754 0
16 -710 755 0
-711 755 0
16 -711 756 0
-712 756 0
16 -712 757 0
-713 757 0
16 -713 758 0
-714 758 0
16 -714 0
17 759 0
-715 759 0
17 -715 760 0
-716 760 0
17 -716 761 0
-717 761 0
17 -717 762 0
-718 762 0
17 -718 763 0
-719 763 0
17 -719 764 0
-720 764 0
17 -720 765 0
-721 765 0
17 -721 766 0
-722 766 0
17 -722 767 0
-723 767 0
17 -723 768 0
-724 768 0
17 -724 769 0
-725 769 0
17 -725 770 0
-726 770 0
17 -726 771 0
-727 771 0
17 -727 772 0
-728 772 0
17 -728 773 0
-729 773 0
17 -729 774 0
-730 774 0
17 -730 775 0
-731 775 0
17 -731 776 0
-732 776 0
17 -732 777 0
-733 777 0
17 -733 778 0
-734 778 0
17 -734 779 0
-735 779 0
17 -735 780 0
-736 780 0
17 -736 781 0
-737 781 0
17 -737 782 0
-738 782 0
17 -738 783 0
-739 783 0
17 -739 784 0
-740 784 0
17 -740 785 0
-741 785 0
17 -741 786 0
-742 786 0
17 -742 787 0
-743 787 0
17 -743 788 0
-744 788 0
17 -744 789 0
-745 789 0
17 -745 790 0
-746 790 0
17 -746 791 0
-747 791 0
17 -747 792 0
-748 792 0
17 -748 793 0
-749 793 0
17 -749 794 0
-750 794 0
17 -750 795 0
-751 795 0
17 -751 796 0
-752 796 0
17 -752 797 0
-753 797 0
17 -753 798 0
-754 798 0
17 -754 799 0
-755 799 0
17 -755 800 0
-756 800 0
17 -756 801 0
-757 801 0
17 -757 802 0
-758 802 0
17 -758 0
18 803 0
-759 803 0
18 -759 804 0
-760 804 0
18 -760 805 0
-761 805 0
18 -761 806 0
-762 806 0
18 -762 807 0
-763 807 0
18 -763 808 0
-764 808 0
18 -764 809 0
-765 809 0
18 -765 810 0
-766 810 0
18 -766 811 0
-767 811 0
18 -767 812 0
-768 812 0
18 -768 813 0
-769 813 0
18 -769 814 0
-770 814 0
18 -770 815 0
-771 815 0
18 -771 816 0
-772 816 0
18 -772 817 0
-773 817 0
18 -773 818 0
-774 818 0
18 -774 819 0
-775 819 0
18 -775 820 0
-776 820 0
18 -776 821 0
-777 821 0
18 -777 822 0
-778 822 0
18 -778 823 0
-779 823 0
18 -779 824 0
-780 824 0
18 -780 825 0
-781 825 0
18 -781 826 0
-782 826 0
18 -782 827 0
-783 827 0
18 -783 828 0
-784 828 0
18 -784 829 0
-785 829 0
18 -785 830 0
-786 830 0
18 -786 831 0
-787 831 0
18 -787 832 0
-788 832 0
18 -788 833 0
-789 833 0
18 -789 834 0
-790 834 0
18 -790 835 0
-791 835 0
18 -791 836 0
-792 836 0
18 -792 837 0
-793 837 0
18 -793 838 0
-794 838 0
18 -794 839 0
-795 839 0
18 -795 840 0
-796 840 0
18 -796 841 0
-797 841 0
18 -797 842 0
-798 842 0
18 -798 843 0
-799 843 0
18 -799 844 0
-800 844 0
18 -800 845 0
-801 845 0
18 -801 846 0
-802 846 0
18 -802 0
19 847 0
-803 847 0
19 -803 848 0
-804 848 0
19 -804 849 0
-805 849 0
19 -805 850 0
-806 850 0
19 -806 851 0
-807 851 0
19 -807 852 0
-808 852 0
19 -808 853 0
-809 853 0
19 -809 854 0
-810 854 0
19 -810 855 0
-811 855 0
19 -811 856 0
-812 856 0
19 -812 857 0
-813 857 0
19 -813 858 0
-814 858 0
19 -814 859 0
-815 859 0
19 -815 860 0
-816 860 0
19 -816 861 0
-817 861 0
19 -817 862 0
-818 862 0
19 -818 863 0
-819 863 0
19 -819 864 0
-820 864 0
19 -820 865 0
-821 865 0
19 -821 866 0
-822 866 0
19 -822 867 0
-823 867 0
19 -823 868 0
-824 868 0
19 -824 869 0
-825 869 0
19 -825 870 0
-826 870 0
19 -826 871 0
-827 871 0
19 -827 872 0
-828 872 0
19 -828 873 0
-829 873 0
19 -829 874 0
-830 874 0
19 -830 875 0
-831 875 0
19 -831 876 0
-832 876 0
19 -832 877 0
-833 877 0
19 -833 878 0
-834 878 0
19 -834 879 0
-835 879 0
19 -835 880 0
-836 880 0
19 -836 881 0
-837 881 0
19 -837 882 0
-838 882 0
19 -838 883 0
-839 883 0
19 -839 884 0
-840 884 0
19 -840 885 0
-841 885 0
19 -841 886 0
-842 886 0
19 -842 887 0
-843 887 0
19 -843 888 0
-844 888 0
19 -844 889 0
-845 889 0
19 -845 890 0
-846 890 0
19 -846 0
20 891 0
-847 891 0
20 -847 892 0
-848 892 0
20 -848 893 0
-849 893 0
20 -849 894 0
-850 894 0
20 -850 895 0
-851 895 0
20 -851 896 0
-852 896 0
20 -852 897 0
-853 897 0
20 -853 898 0
-854 898 0
20 -854 899 0
-855 899 0
20 -855 900 0
-856 900 0
20 -856 901 0
-857 901 0
20 -857 902 0
-858 902 0
20 -858 903 0
-859 903 0
20 -859 904 0
-860 904 0
20 -860 905 0
-861 905 0
20 -861 906 0
-862 906 0
20 -862 907 0
-863 907 0
20 -863 908 0
-864 908 0
20 -864 909 0
-865 909 0
20 -865 910 0
-866 910 0
20 -866 911 0
-867 911 0
20 -867 912 0
-868 912 0
20 -868 913 0
-869 913 0
20 -869 914 0
-870 914 0
20 -870 915 0
-871 915 0
20 -871 916 0
-872 916 0
20 -872 917 0
-873 917 0
20 -873 918 0
-874 918 0
20 -874 919 0
-875 919 0
20 -875 920 0
-876 920 0
20 -876 921 0
-877 921 0
20 -877 922 0
-878 922 0
20 -878 923 0
-879 923 0
20 -879 924 0
-880 924 0
20 -880 925 0
-881 925 0
20 -881 926 0
-882 926 0
20 -882 927 0
-883 927 0
20 -883 928 0
-884 928 0
20 -884 929 0
-885 929 0
20 -885 930 0
-886 930 0
20 -886 931 0
-887 931 0
20 -887 932 0
-888 932 0
20 -888 933 0
-889 933 0
20 -889 934 0
-890 934 0
20 -890 0
21 935 0
-891 935 0
21 -891 936 0
-892 936 0
21 -892 937 0
-893 937 0
21 -893 938 0
-894 938 0
21 -894 939 0
-895 939 0
21 -895 940 0
-896 940 0
21 -896 941 0
-897 941 0
21 -897 942 0
-898 942 0
21 -898 943 0
-899 943 0
21 -899 944 0
-900 944 0
21 -900 945 0
-901 945 0
21 -901 946 0
-902 946 0
21 -902 947 0
-903 947 0
21 -903 948 0
-904 948 0
21 -904 949 0
-905 949 0
21 -905 950 0
-906 950 0
21 -906 951 0
-907 951 0
21 -907 952 0
-908 952 0
21 -908 953 0
-909 953 0
21 -909 954 0
-910 954 0
21 -910 955 0
-911 955 0
21 -911 956 0
-912 956 0
21 -912 957 0
-913 957 0
21 -913 958 0
-914 958 0
21 -914 959 0
-915 959 0
21 -915 960 0
-916 960 0
21 -916 961 0
-917 961 0
21 -917 962 0
-918 962 0
21 -918 963 0
-919 963 0
21 -919 964 0
-920 964 0
21 -920 965 0
-921 965 0
21 -921 966 0
-922 966 0
21 -922 967 0
-923 967 0
21 -923 968 0
-924 968 0
21 -924 969 0
-925 969 0
21 -925 970 0
-926 970 0
21 -926 971 0
-927 971 0
21 -927 972 0
-928 972 0
21 -928 973 0
-929 973 0
21 -929 974 0
-930 974 0
21 -930 975 0
-931 975 0
21 -931 976 0
-932 976 0
21 -932 977 0
-933 977 0
21 -933 978 0
-934 978 0
21 -934 0
22 979 0
-935 979 0
22 -935 980 0
-936 980 0
22 -936 981 0
-937 981 0
22 -937 982 0
-938 982 0
22 -938 983 0
-939 983 0
22 -939 984 0
-940 984 0
22 -940 985 0
-941 985 0
22 -941 986 0
-942 986 0
22 -942 987 0
-943 987 0
22 -943 988 0
-944 988 0
22 -944 989 0
-945 989 0
22 -945 990 0
-946 990 0
22 -946 991 0
-947 991 0
22 -947 992 0
-948 992 0
22 -948 993 0
-949 993 0
22 -949 994 0
-950 994 0
22 -950 995 0
-951 995 0
22 -951 996 0
-952 996 0
22 -952 997 0
-953 997 0
22 -953 998 0
-954 998 0
22 -954 999 0
-955 999 0
22 -955 1000 0
-956 1000 0
22 -956 1001 0
-957 1001 0
22 -957 1002 0
-958 1002 0
22 -958 1003 0
-959 1003 0
22 -959 1004 0
-960 1004 0
22 -960 1005 0
-961 1005 0
22 -961 1006 0
-962 1006 0
22 -962 1007 0
-963 1007 0
22 -963 1008 0
-964 1008 0
22 -964 1009 0
-965 1009 0
22 -965 1010 0
-966 1010 0
22 -966 1011 0
-967 1011 0
22 -967 1012 0
-968 1012 0
22 -968 1013 0
-969 1013 0
22 -969 1014 0
-970 1014 0
22 -970 1015 0
-971 1015 0
22 -971 1016 0
-972 1016 0
22 -972 1017 0
-973 1017 0
22 -973 1018 0
-974 1018 0
22 -974 1019 0
-975 1019 0
22 -975 1020 0
-976 1020 0
22 -976 1021 0
-977 1021 0
22 -977 1022 0
-978 1022 0
22 -978 0
23 1023 0
-979 1023 0
23 -979 1024 0
-980 1024 0
23 -980 1025 0
-981 1025 0
23 -981 1026 0
-982 1026 0
23 -982 1027 0
-983 1027 0
23 -983 1028 0
-984 1028 0
23 -984 1029 0
-985 1029 0
23 -985 1030 0
-986 1030 0
23 -986 1031 0
-987 1031 0
23 -987 1032 0
-988 1032 0
23 -988 1033 0
-989 1033 0
23 -989 1034 0
-990 1034 0
23 -990 1035 0
-991 1035 0
23 -991 1036 0
-992 1036 0
23 -992 1037 0
-993 1037 0
23 -993 1038 0
-994 1038 0
23 -994 1039 0
-995 1039 0
23 -995 1040 0
-996 1040 0
23 -996 1041 0
-997 1041 0
23 -997 1042 0
-998 1042 0
23 -998 1043 0
-999 1043 0
23 -999 1044 0
-1000 1044 0
23 -1000 1045 0
-1001 1045 0
23 -1001 1046 0
-1002 1046 0
23 -1002 1047 0
-1003 1047 0
23 -1003 1048 0
-1004 1048 0
23 -1004 1049 0
-1005 1049 0
23 -1005 1050 0
-1006 1050 0
23 -1006 1051 0
-1007 1051 0
23 -1007 1052 0
-1008 1052 0
23 -1008 1053 0
-1009 1053 0
23 -1009 1054 0
-1010 1054 0
23 -1010 1055 0
-1011 1055 0
23 -1011 1056 0
-1012 1056 0
23 -1012 1057 0
-1013 1057 0
23 -1013 1058 0
-1014 1058 0
23 -1014 1059 0
-1015 1059 0
23 -1015 1060 0
-1016 1060 0
23 -1016 1061 0
-1017 1061 0
23 -1017 1062 0
-1018 1062 0
23 -1018 1063 0
-1019 1063 0
23 -1019 1064 0
-1020 1064 0
23 -1020 1065 0
-1021 1065 0
23 -1021 1066 0
-1022 1066 0
23 -1022 0
24 1067 0
-1023 1067 0
24 -1023 1068 0
-1024 1068 0
24 -1024 1069 0
-1025 1069 0
24 -1025 1070 0
-1026 1070 0
24 -1026 1071 0
-1027 1071 0
24 -1027 1072 0
-1028 1072 0
24 -1028 1073 0
-1029 1073 0
24 -1029 1074 0
-1030 1074 0
24 -1030 1075 0
-1031 1075 0
24 -1031 1076 0
-1032 1076 0
24 -1032 1077 0
-1033 1077 0
24 -1033 1078 0
-1034 1078 0
24 -1034 1079 0
-1035 1079 0
24 -1035 1080 0
-1036 1080 0
24 -1036 1081 0
-1037 1081 0
24 -1037 1082 0
-1038 1082 0
24 -1038 1083 0
-1039 1083 0
24 -1039 1084 0
-1040 1084 0
24 -1040 1085 0
-1041 1085 0
24 -1041 1086 0
-1042 1086 0
24 -1042 1087 0
-1043 1087 0
24 -1043 1088 0
-1044 1088 0
24 -1044 1089 0
-1045 1089 0
24 -1045 1090 0
-1046 1090 0
24 -1046 1091 0
-1047 1091 0
24 -1047 1092 0
-1048 1092 0
24 -1048 1093 0
-1049 1093 0
24 -1049 1094 0
-1050 1094 0
24 -1050 1095 0
-1051 1095 0
24 -1051 1096 0
-1052 1096 0
24 -1052 1097 0
-1053 1097 0
24 -1053 1098 0
-1054 1098 0
24 -1054 1099 0
-1055 1099 0
24 -1055 1100 0
-1056 1100 0
24 -1056 1101 0
-1057 1101 0
24 -1057 1102 0
-1058 1102 0
24 -1058 1103 0
-1059 1103 0
24 -1059 1104 0
-1060 1104 0
24 -1060 1105 0
-1061 1105 0
24 -1061 1106 0
-1062 1106 0
24 -1062 1107 0
-1063 1107 0
24 -1063 1108 0
-1064 1108 0
24 -1064 1109 0
-1065 1109 0
24 -1065 1110 0
-1066 1110 0
24 -1066 0
25 1111 0
-1067 1111 0
25 -1067 1112 0
-1068 1112 0
25 -1068 1113 0
-1069 1113 0
25 -1069 1114 0
-1070 1114 0
25 -1070 1115 0
-1071 1115 0
25 -1071 1116 0
-1072 1116 0
25 -1072 1117 0
-1073 1117 0
25 -1073 1118 0
-1074 1118 0
25 -1074 1119 0
-1075 1119 0
25 -1075 1120 0
-1076 1120 0
25 -1076 1121 0
-1077 1121 0
25 -1077 1122 0
-1078 1122 0
25 -1078 1123 0
-1079 1123 0
25 -1079 1124 0
-1080 1124 0
25 -1080 1125 0
-1081 1125 0
25 -1081 1126 0
-1082 1126 0
25 -1082 1127 0
-1083 1127 0
25 -1083 1128 0
-1084 1128 0
25 -1084 1129 0
-1085 1129 0
25 -1085 1130 0
-1086 1130 0
25 -1086 1131 0
-1087 1131 0
25 -1087 1132 0
-1088 1132 0
25 -1088 1133 0
-1089 1133 0
25 -1089 1134 0
-1090 1134 0
25 -1090 1135 0
-1091 1135 0
25 -1091 1136 0
-1092 1136 0
25 -1092 1137 0
-1093 1137 0
25 -1093 1138 0
-1094 1138 0
25 -1094 1139 0
-1095 1139 0
25 -1095 1140 0
-1096 1140 0
25 -1096 1141 0
-1097 1141 0
25 -1097 1142 0
-1098 1142 0
25 -1098 1143 0
-1099 1143 0
25 -1099 1144 0
-1100 1144 0
25 -1100 1145 0
-1101 1145 0
25 -1101 1146 0
-1102 1146 0
25 -1102 1147 0
-1103 1147 0
25 -1103 1148 0
-1104 1148 0
25 -1104 1149 0
-1105 1149 0
25 -1105 1150 0
-1106 1150 0
25 -1106 1151 0
-1107 1151 0
25 -1107 1152 0
-1108 1152 0
25 -1108 1153 0
-1109 1153 0
25 -1109 1154 0
-1110 1154 0
25 -1110 0
26 1155 0
-1111 1155 0
26 -1111 1156 0
-1112 1156 0
26 -1112 1157 0
-1113 1157 0
26 -1113 1158 0
-1114 1158 0
26 -1114 1159 0
-1115 1159 0
26 -1115 1160 0
-1116 1160 0
26 -1116 1161 0
-1117 1161 0
26 -1117 1162 0
-1118 1162 0
26 -1118 1163 0
-1119 1163 0
26 -1119 1164 0
-1120 1164 0
26 -1120 1165 0
-1121 1165 0
26 -1121 1166 0
-1122 1166 0
26 -1122 1167 0
-1123 1167 0
26 -1123 1168 0
-1124 1168 0
26 -1124 1169 0
-1125 1169 0
26 -1125 1170 0
-1126 1170 0
26 -1126 1171 0
-1127 1171 0
26 -1127 1172 0
-1128 1172 0
26 -1128 1173 0
-1129 1173 0
26 -1129 1174 0
-1130 1174 0
26 -1130 1175 0
-1131 1175 0
26 -1131 1176 0
-1132 1176 0
26 -1132 1177 0
-1133 1177 0
26 -1133 1178 0
-1134 1178 0
26 -1134 1179 0
-1135 1179 0
26 -1135 1180 0
-1136 1180 0
26 -1136 1181 0
-1137 1181 0
26 -1137 1182 0
-1138 1182 0
26 -1138 1183 0
-1139 1183 0
26 -1139 1184 0
-1140 1184 0
26 -1140 1185 0
-1141 1185 0
26 -1141 1186 0
-1142 1186 0
26 -1142 1187 0
-1143 1187 0
26 -1143 1188 0
-1144 1188 0
26 -1144 1189 0
-1145 1189 0
26 -1145 1190 0
-1146 1190 0
26 -1146 1191 0
-1147 1191 0
26 -1147 1192 0
-1148 1192 0
26 -1148 1193 0
-1149 1193 0
26 -1149 1194 0
-1150 1194 0
26 -1150 1195 0
-1151 1195 0
26 -1151 1196 0
-1152 1196 0
26 -1152 1197 0
-1153 1197 0
26 -1153 1198 0
-1154 1198 0
26 -1154 0
27 1199 0
-1155 1199 0
27 -1155 1200 0
-1156 1200 0
27 -1156 1201 0
-1157 1201 0
27 -1157 1202 0
-1158 1202 0
27 -1158 1203 0
-1159 1203 0
27 -1159 1204 0
-1160 1204 0
27 -1160 1205 0
-1161 1205 0
27 -1161 1206 0
-1162 1206 0
27 -1162 1207 0
-1163 1207 0
27 -1163 1208 0
-1164 1208 0
27 -1164 1209 0
-1165 1209 0
27 -1165 1210 0
-1166 1210 0
27 -1166 1211 0
-1167 1211 0
27 -1167 1212 0
-1168 1212 0
27 -1168 1213 0
-1169 1213 0
27 -1169 1214 0
-1170 1214 0
27 -1170 1215 0
-1171 1215 0
27 -1171 1216 0
-1172 1216 0
27 -1172 1217 0
-1173 1217 0
27 -1173 1218 0
-1174 1218 0
27 -1174 1219 0
-1175 1219 0
27 -1175 1220 0
-1176 1220 0
27 -1176 1221 0
-1177 1221 0
27 -1177 1222 0
-1178 1222 0
27 -1178 1223 0
-1179 1223 0
27 -1179 1224 0
-1180 1224 0
27 -1180 1225 0
-1181 1225 0
27 -1181 1226 0
-1182 1226 0
27 -1182 1227 0
-1183 1227 0
27 -1183 1228 0
-1184 1228 0
27 -1184 1229 0
-1185 1229 0
27 -1185 1230 0
-1186 1230 0
27 -1186 1231 0
-1187 1231 0
27 -1187 1232 0
-1188 1232 0
27 -1188 1233 0
-1189 1233 0
27 -1189 1234 0
-1190 1234 0
27 -1190 1235 0
-1191 1235 0
27 -1191 1236 0
-1192 1236 0
27 -1192 1237 0
-1193 1237 0
27 -1193 1238 0
-1194 1238 0
27 -1194 1239 0
-1195 1239 0
27 -1195 1240 0
-1196 1240 0
27 -1196 1241 0
-1197 1241 0
27 -1197 1242 0
-1198 1242 0
27 -1198 0
28 1243 0
-1199 1243 0
28 -1199 1244 0
-1200 1244 0
28 -1200 1245 0
-1201 1245 0
28 -1201 1246 0
-1202 1246 0
28 -1202 1247 0
-1203 1247 0
28 -1203 1248 0
-1204 1248 0
28 -1204 1249 0
-1205 1249 0
28 -1205 1250 0
-1206 1250 0
28 -1206 1251 0
-1207 1251 0
28 -1207 1252 0
-1208 1252 0
28 -1208 1253 0
-1209 1253 0
28 -1209 1254 0
-1210 1254 0
28 -1210 1255 0
-1211 1255 0
28 -1211 1256 0
-1212 1256 0
28 -1212 1257 0
-1213 1257 0
28 -1213 1258 0
-1214 1258 0
28 -1214 1259 0
-1215 1259 0
28 -1215 1260 0
-1216 1260 0
28 -1216 1261 0
-1217 1261 0
28 -1217 1262 0
-1218 1262 0
28 -1218 1263 0
-1219 1263 0
28 -1219 1264 0
-1220 1264 0
28 -1220 1265 0
-1221 1265 0
28 -1221 1266 0
-1222 1266 0
28 -1222 1267 0
-1223 1267 0
28 -1223 1268 0
-1224 1268 0
28 -1224 1269 0
-1225 1269 0
28 -1225 1270 0
-1226 1270 0
28 -1226 1271 0
-1227 1271 0
28 -1227 1272 0
-1228 1272 0
28 -1228 1273 0
-1229 1273 0
28 -1229 1274 0
-1230 1274 0
28 -1230 1275 0
-1231 1275 0
28 -1231 1276 0
-1232 1276 0
28 -1232 1277 0
-1233 1277 0
28 -1233 1278 0
-1234 1278 0
28 -1234 1279 0
-1235 1279 0
28 -1235 1280 0
-1236 1280 0
28 -1236 1281 0
-1237 1281 0
28 -1237 1282 0
-1238 1282 0
28 -1238 1283 0
-1239 1283 0
28 -1239 1284 0
-1240 1284 0
28 -1240 1285 0
-1241 1285 0
28 -1241 1286 0
-1242 1286 0
28 -1242 0
29 1287 0
-1243 1287 0
29 -1243 1288 0
-1244 1288 0
29 -1244 1289 0
-1245 1289 0
29 -1245 1290 0
-1246 1290 0
29 -1246 1291 0
-1247 1291 0
29 -1247 1292 0
-1248 1292 0
29 -1248 1293 0
-1249 1293 0
29 -1249 1294 0
-1250 1294 0
29 -1250 1295 0
-1251 1295 0
29 -1251 1296 0
-1252 1296 0
29 -1252 1297 0
-1253 1297 0
29 -1253 1298 0
-1254 1298 0
29 -1254 1299 0
-1255 1299 0
29 -1255 1300 0
-1256 1300 0
29 -1256 1301 0
-1257 1301 0
29 -1257 1302 0
-1258 1302 0
29 -1258 1303 0
-1259 1303 0
29 -1259 1304 0
-1260 1304 0
29 -1260 1305 0
-1261 1305 0
29 -1261 1306 0
-1262 1306 0
29 -1262 1307 0
-1263 1307 0
29 -1263 1308 0
-1264 1308 0
29 -1264 1309 0
-1265 1309 0
29 -1265 1310 0
-1266 1310 0
29 -1266 1311 0
-1267 1311 0
29 -1267 1312 0
-1268 1312 0
29 -1268 1313 0
-1269 1313 0
29 -1269 1314 0
-1270 1314 0
29 -1270 1315 0
-1271 1315 0
29 -1271 1316 0
-1272 1316 0
29 -1272 1317 0
-1273 1317 0
29 -1273 1318 0
-1274 1318 0
29 -1274 1319 0
-1275 1319 0
29 -1275 1320 0
-1276 1320 0
29 -1276 1321 0
-1277 1321 0
29 -1277 1322 0
-1278 1322 0
29 -1278 1323 0
-1279 1323 0
29 -1279 1324 0
-1280 1324 0
29 -1280 1325 0
-1281 1325 0
29 -1281 1326 0
-1282 1326 0
29 -1282 1327 0
-1283 1327 0
29 -1283 1328 0
-1284 1328 0
29 -1284 1329 0
-1285 1329 0
29 -1285 1330 0
-1286 1330 0
29 -1286 0
30 1331 0
-1287 1331 0
30 -1287 1332 0
-1288 1332 0
30 -1288 1333 0
-1289 1333 0
30 -1289 1334 0
-1290 1334 0
30 -1290 1335 0
-1291 1335 0
30 -1291 1336 0
-1292 1336 0
30 -1292 1337 0
-1293 1337 0
30 -1293 1338 0
-1294 1338 0
30 -1294 1339 0
-1295 1339 0
30 -1295 1340 0
-1296 1340 0
30 -1296 1341 0
-1297 1341 0
30 -1297 1342 0
-1298 1342 0
30 -1298 1343 0
-1299 1343 0
30 -1299 1344 0
-1300 1344 0
30 -1300 1345 0
-1301 1345 0
30 -1301 1346 0
-1302 1346 0
30 -1302 1347 0
-1303 1347 0
30 -1303 1348 0
-1304 1348 0
30 -1304 1349 0
-1305 1349 0
30 -1305 1350 0
-1306 1350 0
30 -1306 1351 0
-1307 1351 0
30 -1307 1352 0
-1308 1352 0
30 -1308 1353 0
-1309 1353 0
30 -1309 1354 0
-1310 1354 0
30 -1310 1355 0
-1311 1355 0
30 -1311 1356 0
-1312 1356 0
30 -1312 1357 0
-1313 1357 0
30 -1313 1358 0
-1314 1358 0
30 -1314 1359 0
-1315 1359 0
30 -1315 1360 0
-1316 1360 0
30 -1316 1361 0
-1317 1361 0
30 -1317 1362 0
-1318 1362 0
30 -1318 1363 0
-1319 1363 0
30 -1319 1364 0
-1320 1364 0
30 -1320 1365 0
-1321 1365 0
30 -1321 1366 0
-1322 1366 0
30 -1322 1367 0
-1323 1367 0
30 -1323 1368 0
-1324 1368 0
30 -1324 1369 0
-1325 1369 0
30 -1325 1370 0
-1326 1370 0
30 -1326 1371 0
-1327 1371 0
30 -1327 1372 0
-1328 1372 0
30 -1328 1373 0
-1329 1373 0
30 -1329 1374 0
-1330 1374 0
30 -1330 0
31 1375 0
-1331 1375 0
31 -1331 1376 0
-1332 1376 0
31 -1332 1377 0
-1333 1377 0
31 -1333 1378 0
-1334 1378 0
31 -1334 1379 0
-1335 1379 0
31 -1335 1380 0
-1336 1380 0
31 -1336 1381 0
-1337 1381 0
31 -1337 1382 0
-1338 1382 0
31 -1338 1383 0
-1339 1383 0
31 -1339 1384 0
-1340 1384 0
31 -1340 1385 0
-1341 1385 0
31 -1341 1386 0
-1342 1386 0
31 -1342 1387 0
-1343 1387 0
31 -1343 1388 0
-1344 1388 0
31 -1344 1389 0
-1345 1389 0
31 -1345 1390 0
-1346 1390 0
31 -1346 1391 0
-1347 1391 0
31 -1347 1392 0
-1348 1392 0
31 -1348 1393 0
-1349 1393 0
31 -1349 1394 0
-1350 1394 0
31 -1350 1395 0
-1351 1395 0
31 -1351 1396 0
-1352 1396 0
31 -1352 1397 0
-1353 1397 0
31 -1353 1398 0
-1354 1398 0
31 -1354 1399 0
-1355 1399 0
31 -1355 1400 0
-1356 1400 0
31 -1356 1401 0
-1357 1401 0
31 -1357 1402 0
-1358 1402 0
31 -1358 1403 0
-1359 1403 0
31 -1359 1404 0
-1360 1404 0
31 -1360 1405 0
-1361 1405 0
31 -1361 1406 0
-1362 1406 0
31 -1362 1407 0
-1363 1407 0
31 -1363 1408 0
-1364 1408 0
31 -1364 1409 0
-1365 1409 0
31 -1365 1410 0
-1366 1410 0
31 -1366 1411 0
-1367 1411 0
31 -1367 1412 0
-1368 1412 0
31 -1368 1413 0
-1369 1413 0
31 -1369 1414 0
-1370 1414 0
31 -1370 1415 0
-1371 1415 0
31 -1371 1416 0
-1372 1416 0
31 -1372 1417 0
-1373 1417 0
31 -1373 1418 0
-1374 1418 0
31 -1374 0
32 1419 0
-1375 1419 0
32 -1375 1420 0
-1376 1420 0
32 -1376 1421 0
-1377 1421 0
32 -1377 1422 0
-1378 1422 0
32 -1378 1423 0
-1379 1423 0
32 -1379 1424 0
-1380 1424 0
32 -1380 1425 0
-1381 1425 0
32 -1381 1426 0
-1382 1426 0
32 -1382 1427 0
-1383 1427 0
32 -1383 1428 0
-1384 1428 0
32 -1384 1429 0
-1385 1429 0
32 -1385 1430 0
-1386 1430 0
32 -1386 1431 0
-1387 1431 0
32 -1387 1432 0
-1388 1432 0
32 -1388 1433 0
-1389 1433 0
32 -1389 1434 0
-1390 1434 0
32 -1390 1435 0
-1391 1435 0
32 -1391 1436 0
-1392 1436 0
32 -1392 1437 0
-1393 1437 0
32 -1393 1438 0
-1394 1438 0
32 -1394 1439 0
-1395 1439 0
32 -1395 1440 0
-1396 1440 0
32 -1396 1441 0
-1397 1441 0
32 -1397 1442 0
-1398 1442 0
32 -1398 1443 0
-1399 1443 0
32 -1399 1444 0
-1400 1444 0
32 -1400 1445 0
-1401 1445 0
32 -1401 1446 0
-1402 1446 0
32 -1402 1447 0
-1403 1447 0
32 -1403 1448 0
-1404 1448 0
32 -1404 1449 0
-1405 1449 0
32 -1405 1450 0
-1406 1450 0
32 -1406 1451 0
-1407 1451 0
32 -1407 1452 0
-1408 1452 0
32 -1408 1453 0
-1409 1453 0
32 -1409 1454 0
-1410 1454 0
32 -1410 1455 0
-1411 1455 0
32 -1411 1456 0
-1412 1456 0
32 -1412 1457 0
-1413 1457 0
32 -1413 1458 0
-1414 1458 0
32 -1414 1459 0
-1415 1459 0
32 -1415 1460 0
-1416 1460 0
32 -1416 1461 0
-1417 1461 0
32 -1417 1462 0
-1418 1462 0
32 -1418 0
33 1463 0
-1419 1463 0
33 -1419 1464 0
-1420 1464 0
33 -1420 1465 0
-1421 1465 0
33 -1421 1466 0
-1422 1466 0
33 -1422 1467 0
-1423 1467 0
33 -1423 1468 0
-1424 1468 0
33 -1424 1469 0
-1425 1469 0
33 -1425 1470 0
-1426 1470 0
33 -1426 1471 0
-1427 1471 0
33 -1427 1472 0
-1428 1472 0
33 -1428 1473 0
-1429 1473 0
33 -1429 1474 0
-1430 1474 0
33 -1430 1475 0
-1431 1475 0
33 -1431 1476 0
-1432 1476 0
33 -1432 1477 0
-1433 1477 0
33 -1433 1478 0
-1434 1478 0
33 -1434 1479 0
-1435 1479 0
33 -1435 1480 0
-1436 1480 0
33 -1436 1481 0
-1437 1481 0
33 -1437 1482 0
-1438 1482 0
33 -1438 1483 0
-1439 1483 0
33 -1439 1484 0
-1440 1484 0
33 -1440 1485 0
-1441 1485 0
33 -1441 1486 0
-1442 1486 0
33 -1442 1487 0
-1443 1487 0
33 -1443 1488 0
-1444 1488 0
33 -1444 1489 0
-1445 1489 0
33 -1445 1490 0
-1446 1490 0
33 -1446 1491 0
-1447 1491 0
33 -1447 1492 0
-1448 1492 0
33 -1448 1493 0
-1449 1493 0
33 -1449 1494 0
-1450 1494 0
33 -1450 1495 0
-1451 1495 0
33 -1451 1496 0
-1452 1496 0
33 -1452 1497 0
-1453 1497 0
33 -1453 1498 0
-1454 1498 0
33 -1454 1499 0
-1455 1499 0
33 -1455 1500 0
-1456 1500 0
33 -1456 1501 0
-1457 1501 0
33 -1457 1502 0
-1458 1502 0
33 -1458 1503 0
-1459 1503 0
33 -1459 1504 0
-1460 1504 0
33 -1460 1505 0
-1461 1505 0
33 -1461 1506 0
-1462 1506 0
33 -1462 0
34 1507 0
-1463 1507 0
34 -1463 1508 0
-1464 1508 0
34 -1464 1509 0
-1465 1509 0
34 -1465 1510 0
-1466 1510 0
34 -1466 1511 0
-1467 1511 0
34 -1467 1512 0
-1468 1512 0
34 -1468 1513 0
-1469 1513 0
34 -1469 1514 0
-1470 1514 0
34 -1470 1515 0
-1471 1515 0
34 -1471 1516 0
-1472 1516 0
34 -1472 1517 0
-1473 1517 0
34 -1473 1518 0
-1474 1518 0
34 -1474 1519 0
-1475 1519 0
34 -1475 1520 0
-1476 1520 0
34 -1476 1521 0
-1477 1521 0
34 -1477 1522 0
-1478 1522 0
34 -1478 1523 0
-1479 1523 0
34 -1479 1524 0
-1480 1524 0
34 -1480 1525 0
-1481 1525 0
34 -1481 1526 0
-1482 1526 0
34 -1482 1527 0
-1483 1527 0
34 -1483 1528 0
-1484 1528 0
34 -1484 1529 0
-1485 1529 0
34 -1485 1530 0
-1486 1530 0
34 -1486 1531 0
-1487 1531 0
34 -1487 1532 0
-1488 1532 0
34 -1488 1533 0
-1489 1533 0
34 -1489 1534 0
-1490 1534 0
34 -1490 1535 0
-1491 1535 0
34 -1491 1536 0
-1492 1536 0
34 -1492 1537 0
-1493 1537 0
34 -1493 1538 0
-1494 1538 0
34 -1494 1539 0
-1495 1539 0
34 -1495 1540 0
-1496 1540 0
34 -1496 1541 0
-1497 1541 0
34 -1497 1542 0
-1498 1542 0
34 -1498 1543 0
-1499 1543 0
34 -1499 1544 0
-1500 1544 0
34 -1500 1545 0
-1501 1545 0
34 -1501 1546 0
-1502 1546 0
34 -1502 1547 0
-1503 1547 0
34 -1503 1548 0
-1504 1548 0
34 -1504 1549 0
-1505 1549 0
34 -1505 1550 0
-1506 1550 0
34 -1506 0
35 1551 0
-1507 1551 0
35 -1507 1552 0
-1508 1552 0
35 -1508 1553 0
-1509 1553 0
35 -1509 1554 0
-1510 1554 0
35 -1510 1555 0
-1511 1555 0
35 -1511 1556 0
-1512 1556 0
35 -1512 1557 0
-1513 1557 0
35 -1513 1558 0
-1514 1558 0
35 -1514 1559 0
-1515 1559 0
35 -1515 1560 0
-1516 1560 0
35 -1516 1561 0
-1517 1561 0
35 -1517 1562 0
-1518 1562 0
35 -1518 1563 0
-1519 1563 0
35 -1519 1564 0
-1520 1564 0
35 -1520 1565 0
-1521 1565 0
35 -1521 1566 0
-1522 1566 0
35 -1522 1567 0
-1523 1567 0
35 -1523 1568 0
-1524 1568 0
35 -1524 1569 0
-1525 1569 0
35 -1525 1570 0
-1526 1570 0
35 -1526 1571 0
-1527 1571 0
35 -1527 1572 0
-1528 1572 0
35 -1528 1573 0
-1529 1573 0
35 -1529 1574 0
-1530 1574 0
35 -1530 1575 0
-1531 1575 0
35 -1531 1576 0
-1532 1576 0
35 -1532 1577 0
-1533 1577 0
35 -1533 1578 0
-1534 1578 0
35 -1534 1579 0
-1535 1579 0
35 -1535 1580 0
-1536 1580 0
35 -1536 1581 0
-1537 1581 0
35 -1537 1582 0
-1538 1582 0
35 -1538 1583 0
-1539 1583 0
35 -1539 1584 0
-1540 1584 0
35 -1540 1585 0
-1541 1585 0
35 -1541 1586 0
-1542 1586 0
35 -1542 1587 0
-1543 1587 0
35 -1543 1588 0
-1544 1588 0
35 -1544 1589 0
-1545 1589 0
35 -1545 1590 0
-1546 1590 0
35 -1546 1591 0
-1547 1591 0
35 -1547 1592 0
-1548 1592 0
35 -1548 1593 0
-1549 1593 0
35 -1549 1594 0
-1550 1594 0
35 -1550 0
36 1595 0
-1551 1595 0
36 -1551 1596 0
-1552 1596 0
36 -1552 1597 0
-1553 1597 0
36 -1553 1598 0
-1554 1598 0
36 -1554 1599 0
-1555 1599 0
36 -1555 1600 0
-1556 1600 0
36 -1556 1601 0
-1557 1601 0
36 -1557 1602 0
-1558 1602 0
36 -1558 1603 0
-1559 1603 0
36 -1559 1604 0
-1560 1604 0
36 -1560 1605 0
-1561 1605 0
36 -1561 1606 0
-1562 1606 0
36 -1562 1607 0
-1563 1607 0
36 -1563 1608 0
-1564 1608 0
36 -1564 1609 0
-1565 1609 0
36 -1565 1610 0
-1566 1610 0
36 -1566 1611 0
-1567 1611 0
36 -1567 1612 0
-1568 1612 0
36 -1568 1613 0
-1569 1613 0
36 -1569 1614 0
-1570 1614 0
36 -1570 1615 0
-1571 1615 0
36 -1571 1616 0
-1572 1616 0
36 -1572 1617 0
-1573 1617 0
36 -1573 1618 0
-1574 1618 0
36 -1574 1619 0
-1575 1619 0
36 -1575 1620 0
-1576 1620 0
36 -1576 1621 0
-1577 1621 0
36 -1577 1622 0
-1578 1622 0
36 -1578 1623 0
-1579 1623 0
36 -1579 1624 0
-1580 1624 0
36 -1580 1625 0
-1581 1625 0
36 -1581 1626 0
-1582 1626 0
36 -1582 1627 0
-1583 1627 0
36 -1583 1628 0
-1584 1628 0
36 -1584 1629 0
-1585 1629 0
36 -1585 1630 0
-1586 1630 0
36 -1586 1631 0
-1587 1631 0
36 -1587 1632 0
-1588 1632 0
36 -1588 1633 0
-1589 1633 0
36 -1589 1634 0
-1590 1634 0
36 -1590 1635 0
-1591 1635 0
36 -1591 1636 0
-1592 1636 0
36 -1592 1637 0
-1593 1637 0
36 -1593 1638 0
-1594 1638 0
36 -1594 0
37 1639 0
-1595 1639 0
37 -1595 1640 0
-1596 1640 0
37 -1596 1641 0
-1597 1641 0
37 -1597 1642 0
-1598 1642 0
37 -1598 1643 0
-1599 1643 0
37 -1599 1644 0
-1600 1644 0
37 -1600 1645 0
-1601 1645 0
37 -1601 1646 0
-1602 1646 0
37 -1602 1647 0
-1603 1647 0
37 -1603 1648 0
-1604 1648 0
37 -1604 1649 0
-1605 1649 0
37 -1605 1650 0
-1606 1650 0
37 -1606 1651 0
-1607 1651 0
37 -1607 1652 0
-1608 1652 0
37 -1608 1653 0
-1609 1653 0
37 -1609 1654 0
-1610 1654 0
37 -1610 1655 0
-1611 1655 0
37 -1611 1656 0
-1612 1656 0
37 -1612 1657 0
-1613 1657 0
37 -1613 1658 0
-1614 1658 0
37 -1614 1659 0
-1615 1659 0
37 -1615 1660 0
-1616 1660 0
37 -1616 1661 0
-1617 1661 0
37 -1617 1662 0
-1618 1662 0
37 -1618 1663 0
-1619 1663 0
37 -1619 1664 0
-1620 1664 0
37 -1620 1665 0
-1621 1665 0
37 -1621 1666 0
-1622 1666 0
37 -1622 1667 0
-1623 1667 0
37 -1623 1668 0
-1624 1668 0
37 -1624 1669 0
-1625 1669 0
37 -1625 1670 0
-1626 1670 0
37 -1626 1671 0
-1627 1671 0
37 -1627 1672 0
-1628 1672 0
37 -1628 1673 0
-1629 1673 0
37 -1629 1674 0
-1630 1674 0
37 -1630 1675 0
-1631 1675 0
37 -1631 1676 0
-1632 1676 0
37 -1632 1677 0
-1633 1677 0
37 -1633 1678 0
-1634 1678 0
37 -1634 1679 0
-1635 1679 0
37 -1635 1680 0
-1636 1680 0
37 -1636 1681 0
-1637 1681 0
37 -1637 1682 0
-1638 1682 0
37 -1638 0
38 1683 0
-1639 1683 0
38 -1639 1684 0
-1640 1684 0
38 -1640 1685 0
-1641 1685 0
38 -1641 1686 0
-1642 1686 0
38 -1642 1687 0
-1643 1687 0
38 -1643 1688 0
-1644 1688 0
38 -1644 1689 0
-1645 1689 0
38 -1645 1690 0
-1646 1690 0
38 -1646 1691 0
-1647 1691 0
38 -1647 1692 0
-1648 1692 0
38 -1648 1693 0
-1649 1693 0
38 -1649 1694 0
-1650 1694 0
38 -1650 1695 0
-1651 1695 0
38 -1651 1696 0
-1652 1696 0
38 -1652 1697 0
-1653 1697 0
38 -1653 1698 0
-1654 1698 0
38 -1654 1699 0
-1655 1699 0
38 -1655 1700 0
-1656 1700 0
38 -1656 1701 0
-1657 1701 0
38 -1657 1702 0
-1658 1702 0
38 -1658 1703 0
-1659 1703 0
38 -1659 1704 0
-1660 1704 0
38 -1660 1705 0
-1661 1705 0
38 -1661 1706 0
-1662 1706 0
38 -1662 1707 0
-1663 1707 0
38 -1663 1708 0
-1664 1708 0
38 -1664 1709 0
-1665 1709 0
38 -1665 1710 0
-1666 1710 0
38 -1666 1711 0
-1667 1711 0
38 -1667 1712 0
-1668 1712 0
38 -1668 1713 0
-1669 1713 0
38 -1669 1714 0
-1670 1714 0
38 -1670 1715 0
-1671 1715 0
38 -1671 1716 0
-1672 1716 0
38 -1672 1717 0
-1673 1717 0
38 -1673 1718 0
-1674 1718 0
38 -1674 1719 0
-1675 1719 0
38 -1675 1720 0
-1676 1720 0
38 -1676 1721 0
-1677 1721 0
38 -1677 1722 0
-1678 1722 0
38 -1678 1723 0
-1679 1723 0
38 -1679 1724 0
-1680 1724 0
38 -1680 1725 0
-1681 1725 0
38 -1681 1726 0
-1682 1726 0
38 -1682 0
39 1727 0
-1683 1727 0
39 -1683 1728 0
-1684 1728 0
39 -1684 1729 0
-1685 1729 0
39 -1685 1730 0
-1686 1730 0
39 -1686 1731 0
-1687 1731 0
39 -1687 1732 0
-1688 1732 0
39 -1688 1733 0
-1689 1733 0
39 -1689 1734 0
-1690 1734 0
39 -1690 1735 0
-1691 1735 0
39 -1691 1736 0
-1692 1736 0
39 -1692 1737 0
-1693 1737 0
39 -1693 1738 0
-1694 1738 0
39 -1694 1739 0
-1695 1739 0
39 -1695 1740 0
-1696 1740 0
39 -1696 1741 0
-1697 1741 0
39 -1697 1742 0
-1698 1742 0
39 -1698 1743 0
-1699 1743 0
39 -1699 1744 0
-1700 1744 0
39 -1700 1745 0
-1701 1745 0
39 -1701 1746 0
-1702 1746 0
39 -1702 1747 0
-1703 1747 0
39 -1703 1748 0
-1704 1748 0
39 -1704 1749 0
-1705 1749 0
39 -1705 1750 0
-1706 1750 0
39 -1706 1751 0
-1707 1751 0
39 -1707 1752 0
-1708 1752 0
39 -1708 1753 0
-1709 1753 0
39 -1709 1754 0
-1710 1754 0
39 -1710 1755 0
-1711 1755 0
39 -1711 1756 0
-1712 1756 0
39 -1712 1757 0
-1713 1757 0
39 -1713 1758 0
-1714 1758 0
39 -1714 1759 0
-1715 1759 0
39 -1715 1760 0
-1716 1760 0
39 -1716 1761 0
-1717 1761 0
39 -1717 1762 0
-1718 1762 0
39 -1718 1763 0
-1719 1763 0
39 -1719 1764 0
-1720 1764 0
39 -1720 1765 0
-1721 1765 0
39 -1721 1766 0
-1722 1766 0
39 -1722 1767 0
-1723 1767 0
39 -1723 1768 0
-1724 1768 0
39 -1724 1769 0
-1725 1769 0
39 -1725 1770 0
-1726 1770 0
39 -1726 0
40 1771 0
-1727 1771 0
40 -1727 1772 0
-1728 1772 0
40 -1728 1773 0
-1729 1773 0
40 -1729 1774 0
-1730 1774 0
40 -1730 1775 0
-1731 1775 0
40 -1731 1776 0
-1732 1776 0
40 -1732 1777 0
-1733 1777 0
40 -1733 1778 0
-1734 1778 0
40 -1734 1779 0
-1735 1779 0
40 -1735 1780 0
-1736 1780 0
40 -1736 1781 0
-1737 1781 0
40 -1737 1782 0
-1738 1782 0
40 -1738 1783 0
-1739 1783 0
40 -1739 1784 0
-1740 1784 0
40 -1740 1785 0
-1741 1785 0
40 -1741 1786 0
-1742 1786 0
40 -1742 1787 0
-1743 1787 0
40 -1743 1788 0
-1744 1788 0
40 -1744 1789 0
-1745 1789 0
40 -1745 1790 0
-1746 1790 0
40 -1746 1791 0
-1747 1791 0
40 -1747 1792 0
-1748 1792 0
40 -1748 1793 0
-1749 1793 0
40 -1749 1794 0
-1750 1794 0
40 -1750 1795 0
-1751 1795 0
40 -1751 1796 0
-1752 1796 0
40 -1752 1797 0
-1753 1797 0
40 -1753 1798 0
-1754 1798 0
40 -1754 1799 0
-1755 1799 0
40 -1755 1800 0
-1756 1800 0
40 -1756 1801 0
-1757 1801 0
40 -1757 1802 0
-1758 1802 0
40 -1758 1803 0
-1759 1803 0
40 -1759 1804 0
-1760 1804 0
40 -1760 1805 0
-1761 1805 0
40 -1761 1806 0
-1762 1806 0
40 -1762 1807 0
-1763 1807 0
40 -1763 1808 0
-1764 1808 0
40 -1764 1809 0
-1765 1809 0
40 -1765 1810 0
-1766 1810 0
40 -1766 1811 0
-1767 1811 0
40 -1767 1812 0
-1768 1812 0
40 -1768 1813 0
-1769 1813 0
40 -1769 1814 0
-1770 1814 0
40 -1770 0
41 1815 0
-1771 1815 0
41 -1771 1816 0
-1772 1816 0
41 -1772 1817 0
-1773 1817 0
41 -1773 1818 0
-1774 1818 0
41 -1774 1819 0
-1775 1819 0
41 -1775 1820 0
-1776 1820 0
41 -1776 1821 0
-1777 1821 0
41 -1777 1822 0
-1778 1822 0
41 -1778 1823 0
-1779 1823 0
41 -1779 1824 0
-1780 1824 0
41 -1780 1825 0
-1781 1825 0
41 -1781 1826 0
-1782 1826 0
41 -1782 1827 0
-1783 1827 0
41 -1783 1828 0
-1784 1828 0
41 -1784 1829 0
-1785 1829 0
41 -1785 1830 0
-1786 1830 0
41 -1786 1831 0
-1787 1831 0
41 -1787 1832 0
-1788 1832 0
41 -1788 1833 0
-1789 1833 0
41 -1789 1834 0
-1790 1834 0
41 -1790 1835 0
-1791 1835 0
41 -1791 1836 0
-1792 1836 0
41 -1792 1837 0
-1793 1837 0
41 -1793 1838 0
-1794 1838 0
41 -1794 1839 0
-1795 1839 0
41 -1795 1840 0
-1796 1840 0
41 -1796 1841 0
-1797 1841 0
41 -1797 1842 0
-1798 1842 0
41 -1798 1843 0
-1799 1843 0
41 -1799 1844 0
-1800 1844 0
41 -1800 1845 0
-1801 1845 0
41 -1801 1846 0
-1802 1846 0
41 -1802 1847 0
-1803 1847 0
41 -1803 1848 0
-1804 1848 0
41 -1804 1849 0
-1805 1849 0
41 -1805 1850 0
-1806 1850 0
41 -1806 1851 0
-1807 1851 0
41 -1807 1852 0
-1808 1852 0
41 -1808 1853 0
-1809 1853 0
41 -1809 1854 0
-1810 1854 0
41 -1810 1855 0
-1811 1855 0
41 -1811 1856 0
-1812 1856 0
41 -1812 1857 0
-1813 1857 0
41 -1813 1858 0
-1814 1858 0
41 -1814 0
42 1859 0
-1815 1859 0
42 -1815 1860 0
-1816 1860 0
42 -1816 1861 0
-1817 1861 0
42 -1817 1862 0
-1818 1862 0
42 -1818 1863 0
-1819 1863 0
42 -1819 1864 0
-1820 1864 0
42 -1820 1865 0
-1821 1865 0
42 -1821 1866 0
-1822 1866 0
42 -1822 1867 0
-1823 1867 0
42 -1823 1868 0
-1824 1868 0
42 -1824 1869 0
-1825 1869 0
42 -1825 1870 0
-1826 1870 0
42 -1826 1871 0
-1827 1871 0
42 -1827 1872 0
-1828 1872 0
42 -1828 1873 0
-1829 1873 0
42 -1829 1874 0
-1830 1874 0
42 -1830 1875 0
-1831 1875 0
42 -1831 1876 0
-1832 1876 0
42 -1832 1877 0
-1833 1877 0
42 -1833 1878 0
-1834 1878 0
42 -1834 1879 0
-1835 1879 0
42 -1835 1880 0
-1836 1880 0
42 -1836 1881 0
-1837 1881 0
42 -1837 1882 0
-1838 1882 0
42 -1838 1883 0
-1839 1883 0
42 -1839 1884 0
-1840 1884 0
42 -1840 1885 0
-1841 1885 0
42 -1841 1886 0
-1842 1886 0
42 -1842 1887 0
-1843 1887 0
42 -1843 1888 0
-1844 1888 0
42 -1844 1889 0
-1845 1889 0
42 -1845 1890 0
-1846 1890 0
42 -1846 1891 0
-1847 1891 0
42 -1847 1892 0
-1848 1892 0
42 -1848 1893 0
-1849 1893 0
42 -1849 1894 0
-1850 1894 0
42 -1850 1895 0
-1851 1895 0
42 -1851 1896 0
-1852 1896 0
42 -1852 1897 0
-1853 1897 0
42 -1853 1898 0
-1854 1898 0
42 -1854 1899 0
-1855 1899 0
42 -1855 1900 0
-1856 1900 0
42 -1856 1901 0
-1857 1901 0
42 -1857 1902 0
-1858 1902 0
42 -1858 0
43 1903 0
-1859 1903 0
43 -1859 1904 0
-1860 1904 0
43 -1860 1905 0
-1861 1905 0
43 -1861 1906 0
-1862 1906 0
43 -1862 1907 0
-1863 1907 0
43 -1863 1908 0
-1864 1908 0
43 -1864 1909 0
-1865 1909 0
43 -1865 1910 0
-1866 1910 0
43 -1866 1911 0
-1867 1911 0
43 -1867 1912 0
-1868 1912 0
43 -1868 1913 0
-1869 1913 0
43 -1869 1914 0
-1870 1914 0
43 -1870 1915 0
-1871 1915 0
43 -1871 1916 0
-1872 1916 0
43 -1872 1917 0
-1873 1917 0
43 -1873 1918 0
-1874 1918 0
43 -1874 1919 0
-1875 1919 0
43 -1875 1920 0
-1876 1920 0
43 -1876 1921 0
-1877 1921 0
43 -1877 1922 0
-1878 1922 0
43 -1878 1923 0
-1879 1923 0
43 -1879 1924 0
-1880 1924 0
43 -1880 1925 0
-1881 1925 0
43 -1881 1926 0
-1882 1926 0
43 -1882 1927 0
-1883 1927 0
43 -1883 1928 0
-1884 1928 0
43 -1884 1929 0
-1885 1929 0
43 -1885 1930 0
-1886 1930 0
43 -1886 1931 0
-1887 1931 0
43 -1887 1932 0
-1888 1932 0
43 -1888 1933 0
-1889 1933 0
43 -1889 1934 0
-1890 1934 0
43 -1890 1935 0
-1891 1935 0
43 -1891 1936 0
-1892 1936 0
43 -1892 1937 0
-1893 1937 0
43 -1893 1938 0
-1894 1938 0
43 -1894 1939 0
-1895 1939 0
43 -1895 1940 0
-1896 1940 0
43 -1896 1941 0
-1897 1941 0
43 -1897 1942 0
-1898 1942 0
43 -1898 1943 0
-1899 1943 0
43 -1899 1944 0
-1900 1944 0
43 -1900 1945 0
-1901 1945 0
43 -1901 1946 0
-1902 1946 0
43 -1902 0
44 1947 0
-1903 1947 0
44 -1903 1948 0
-1904 1948 0
44 -1904 1949 0
-1905 1949 0
44 -1905 1950 0
-1906 1950 0
44 -1906 1951 0
-1907 1951 0
44 -1907 1952 0
-1908 1952 0
44 -1908 1953 0
-1909 1953 0
44 -1909 1954 0
-1910 1954 0
44 -1910 1955 0
-1911 1955 0
44 -1911 1956 0
-1912 1956 0
44 -1912 1957 0
-1913 1957 0
44 -1913 1958 0
-1914 1958 0
44 -1914 1959 0
-1915 1959 0
44 -1915 1960 0
-1916 1960 0
44 -1916 1961 0
-1917 1961 0
44 -1917 1962 0
-1918 1962 0
44 -1918 1963 0
-1919 1963 0
44 -1919 1964 0
-1920 1964 0
44 -1920 1965 0
-1921 1965 0
44 -1921 1966 0
-1922 1966 0
44 -1922 1967 0
-1923 1967 0
44 -1923 1968 0
-1924 1968 0
44 -1924 1969 0
-1925 1969 0
44 -1925 1970 0
-1926 1970 0
44 -1926 1971 0
-1927 1971 0
44 -1927 1972 0
-1928 1972 0
44 -1928 1973 0
-1929 1973 0
44 -1929 1974 0
-1930 1974 0
44 -1930 1975 0
-1931 1975 0
44 -1931 1976 0
-1932 1976 0
44 -1932 1977 0
-1933 1977 0
44 -1933 1978 0
-1934 1978 0
44 -1934 1979 0
-1935 1979 0
44 -1935 1980 0
-1936 1980 0
44 -1936 1981 0
-1937 1981 0
44 -1937 1982 0
-1938 1982 0
44 -1938 1983 0
-1939 1983 0
44 -1939 1984 0
-1940 1984 0
44 -1940 1985 0
-1941 1985 0
44 -1941 1986 0
-1942 1986 0
44 -1942 1987 0
-1943 1987 0
44 -1943 1988 0
-1944 1988 0
44 -1944 1989 0
-1945 1989 0
44 -1945 1990 0
-1946 1990 0
44 -1946 0
45 1991 0
-1947 1991 0
45 -1947 1992 0
-1948 1992 0
45 -1948 1993 0
-1949 1993 0
45 -1949 1994 0
-1950 1994 0
45 -1950 1995 0
-1951 1995 0
45 -1951 1996 0
-1952 1996 0
45 -1952 1997 0
-1953 1997 0
45 -1953 1998 0
-1954 1998 0
45 -1954 1999 0
-1955 1999 0
45 -1955 2000 0
-1956 2000 0
45 -1956 2001 0
-1957 2001 0
45 -1957 2002 0
-1958 2002 0
45 -1958 2003 0
-1959 2003 0
45 -1959 2004 0
-1960 2004 0
45 -1960 2005 0
-1961 2005 0
45 -1961 2006 0
-1962 2006 0
45 -1962 2007 0
-1963 2007 0
45 -1963 2008 0
-1964 2008 0
45 -1964 2009 0
-1965 2009 0
45 -1965 2010 0
-1966 2010 0
45 -1966 2011 0
-1967 2011 0
45 -1967 2012 0
-1968 2012 0
45 -1968 2013 0
-1969 2013 0
45 -1969 2014 0
-1970 2014 0
45 -1970 2015 0
-1971 2015 0
45 -1971 2016 0
-1972 2016 0
45 -1972 2017 0
-1973 2017 0
45 -1973 2018 0
-1974 2018 0
45 -1974 2019 0
-1975 2019 0
45 -1975 2020 0
-1976 2020 0
45 -1976 2021 0
-1977 2021 0
45 -1977 2022 0
-1978 2022 0
45 -1978 2023 0
-1979 2023 0
45 -1979 2024 0
-1980 2024 0
45 -1980 2025 0
-1981 2025 0
45 -1981 2026 0
-1982 2026 0
45 -1982 2027 0
-1983 2027 0
45 -1983 2028 0
-1984 2028 0
45 -1984 2029 0
-1985 2029 0
45 -1985 2030 0
-1986 2030 0
45 -1986 2031 0
-1987 2031 0
45 -1987 2032 0
-1988 2032 0
45 -1988 2033 0
-1989 2033 0
45 -1989 2034 0
-1990 2034 0
45 -1990 0
46 2035 0
-1991 2035 0
46 -1991 2036 0
-1992 2036 0
46 -1992 2037 0
-1993 2037 0
46 -1993 2038 0
-1994 2038 0
46 -1994 2039 0
-1995 2039 0
46 -1995 2040 0
-1996 2040 0
46 -1996 2041 0
-1997 2041 0
46 -1997 2042 0
-1998 2042 0
46 -1998 2043 0
-1999 2043 0
46 -1999 2044 0
-2000 2044 0
46 -2000 2045 0
-2001 2045 0
46 -2001 2046 0
-2002 2046 0
46 -2002 2047 0
-2003 2047 0
46 -2003 2048 0
-2004 2048 0
46 -2004 2049 0
-2005 2049 0
46 -2005 2050 0
-2006 2050 0
46 -2006 2051 0
-2007 2051 0
46 -2007 2052 0
-2008 2052 0
46 -2008 2053 0
-2009 2053 0
46 -2009 2054 0
-2010 2054 0
46 -2010 2055 0
-2011 2055 0
46 -2011 2056 0
-2012 2056 0
46 -2012 2057 0
-2013 2057 0
46 -2013 2058 0
-2014 2058 0
46 -2014 2059 0
-2015 2059 0
46 -2015 2060 0
-2016 2060 0
46 -2016 2061 0
-2017 2061 0
46 -2017 2062 0
-2018 2062 0
46 -2018 2063 0
-2019 2063 0
46 -2019 2064 0
-2020 2064 0
46 -2020 2065 0
-2021 2065 0
46 -2021 2066 0
-2022 2066 0
46 -2022 2067 0
-2023 2067 0
46 -2023 2068 0
-2024 2068 0
46 -2024 2069 0
-2025 2069 0
46 -2025 2070 0
-2026 2070 0
46 -2026 2071 0
-2027 2071 0
46 -2027 2072 0
-2028 2072 0
46 -2028 2073 0
-2029 2073 0
46 -2029 2074 0
-2030 2074 0
46 -2030 2075 0
-2031 2075 0
46 -2031 2076 0
-2032 2076 0
46 -2032 2077 0
-2033 2077 0
46 -2033 2078 0
-2034 2078 0
46 -2034 0
47 2079 0
-2035 2079 0
47 -2035 2080 0
-2036 2080 0
47 -2036 2081 0
-2037 2081 0
47 -2037 2082 0
-2038 2082 0
47 -2038 2083 0
-2039 2083 0
47 -2039 2084 0
-2040 2084 0
47 -2040 2085 0
-2041 2085 0
47 -2041 2086 0
-2042 2086 0
47 -2042 2087 0
-2043 2087 0
47 -2043 2088 0
-2044 2088 0
47 -2044 2089 0
-2045 2089 0
47 -2045 2090 0
-2046 2090 0
47 -2046 2091 0
-2047 2091 0
47 -2047 2092 0
-2048 2092 0
47 -2048 2093 0
-2049 2093 0
47 -2049 2094 0
-2050 2094 0
47 -2050 2095 0
-2051 2095 0
47 -2051 2096 0
-2052 2096 0
47 -2052 2097 0
-2053 2097 0
47 -2053 2098 0
-2054 2098 0
47 -2054 2099 0
-2055 2099 0
47 -2055 2100 0
-2056 2100 0
47 -2056 2101 0
-2057 2101 0
47 -2057 2102 0
-2058 2102 0
47 -2058 2103 0
-2059 2103 0
47 -2059 2104 0
-2060 2104 0
47 -2060 2105 0
-2061 2105 0
47 -2061 2106 0
-2062 2106 0
47 -2062 2107 0
-2063 2107 0
47 -2063 2108 0
-2064 2108 0
47 -2064 2109 0
-2065 2109 0
47 -2065 2110 0
-2066 2110 0
47 -2066 2111 0
-2067 2111 0
47 -2067 2112 0
-2068 2112 0
47 -2068 2113 0
-2069 2113 0
47 -2069 2114 0
-2070 2114 0
47 -2070 2115 0
-2071 2115 0
47 -2071 2116 0
-2072 2116 0
47 -2072 2117 0
-2073 2117 0
47 -2073 2118 0
-2074 2118 0
47 -2074 2119 0
-2075 2119 0
47 -2075 2120 0
-2076 2120 0
47 -2076 2121 0
-2077 2121 0
47 -2077 2122 0
-2078 2122 0
47 -2078 0
48 2123 0
-2079 2123 0
48 -2079 2124 0
-2080 2124 0
48 -2080 2125 0
-2081 2125 0
48 -2081 2126 0
-2082 2126 0
48 -2082 2127 0
-2083 2127 0
48 -2083 2128 0
-2084 2128 0
48 -2084 2129 0
-2085 2129 0
48 -2085 2130 0
-2086 2130 0
48 -2086 2131 0
-2087 2131 0
48 -2087 2132 0
-2088 2132 0
48 -2088 2133 0
-2089 2133 0
48 -2089 2134 0
-2090 2134 0
48 -2090 2135 0
-2091 2135 0
48 -2091 2136 0
-2092 2136 0
48 -2092 2137 0
-2093 2137 0
48 -2093 2138 0
-2094 2138 0
48 -2094 2139 0
-2095 2139 0
48 -2095 2140 0
-2096 2140 0
48 -2096 2141 0
-2097 2141 0
48 -2097 2142 0
-2098 2142 0
48 -2098 2143 0
-2099 2143 0
48 -2099 2144 0
-2100 2144 0
48 -2100 2145 0
-2101 2145 0
48 -2101 2146 0
-2102 2146 0
48 -2102 2147 0
-2103 2147 0
48 -2103 2148 0
-2104 2148 0
48 -2104 2149 0
-2105 2149 0
48 -2105 2150 0
-2106 2150 0
48 -2106 2151 0
-2107 2151 0
48 -2107 2152 0
-2108 2152 0
48 -2108 2153 0
-2109 2153 0
48 -2109 2154 0
-2110 2154 0
48 -2110 2155 0
-2111 2155 0
48 -2111 2156 0
-2112 2156 0
48 -2112 2157 0
-2113 2157 0
48 -2113 2158 0
-2114 2158 0
48 -2114 2159 0
-2115 2159 0
48 -2115 2160 0
-2116 2160 0
48 -2116 2161 0
-2117 2161 0
48 -2117 2162 0
-2118 2162 0
48 -2118 2163 0
-2119 2163 0
48 -2119 2164 0
-2120 2164 0
48 -2120 2165 0
-2121 2165 0
48 -2121 2166 0
-2122 2166 0
48 -2122 0
49 2167 0
-2123 2167 0
49 -2123 2168 0
-2124 2168 0
49 -2124 2169 0
-2125 2169 0
49 -2125 2170 0
-2126 2170 0
49 -2126 2171 0
-2127 2171 0
49 -2127 2172 0
-2128 2172 0
49 -2128 2173 0
-2129 2173 0
49 -2129 2174 0
-2130 2174 0
49 -2130 2175 0
-2131 2175 0
49 -2131 2176 0
-2132 2176 0
49 -2132 2177 0
-2133 2177 0
49 -2133 2178 0
-2134 2178 0
49 -2134 2179 0
-2135 2179 0
49 -2135 2180 0
-2136 2180 0
49 -2136 2181 0
-2137 2181 0
49 -2137 2182 0
-2138 2182 0
49 -2138 2183 0
-2139 2183 0
49 -2139 2184 0
-2140 2184 0
49 -2140 2185 0
-2141 2185 0
49 -2141 2186 0
-2142 2186 0
49 -2142 2187 0
-2143 2187 0
49 -2143 2188 0
-2144 2188 0
49 -2144 2189 0
-2145 2189 0
49 -2145 2190 0
-2146 2190 0
49 -2146 2191 0
-2147 2191 0
49 -2147 2192 0
-2148 2192 0
49 -2148 2193 0
-2149 2193 0
49 -2149 2194 0
-2150 2194 0
49 -2150 2195 0
-2151 2195 0
49 -2151 2196 0
-2152 2196 0
49 -2152 2197 0
-2153 2197 0
49 -2153 2198 0
-2154 2198 0
49 -2154 2199 0
-2155 2199 0
49 -2155 2200 0
-2156 2200 0
49 -2156 2201 0
-2157 2201 0
49 -2157 2202 0
-2158 2202 0
49 -2158 2203 0
-2159 2203 0
49 -2159 2204 0
-2160 2204 0
49 -2160 2205 0
-2161 2205 0
49 -2161 2206 0
-2162 2206 0
49 -2162 2207 0
-2163 2207 0
49 -2163 2208 0
-2164 2208 0
49 -2164 2209 0
-2165 2209 0
49 -2165 2210 0
-2166 2210 0
49 -2166 0
50 2211 0
-2167 2211 0
50 -2167 2212 0
-2168 2212 0
50 -2168 2213 0
-2169 2213 0
50 -2169 2214 0
-2170 2214 0
50 -2170 2215 0
-2171 2215 0
50 -2171 2216 0
-2172 2216 0
50 -2172 2217 0
-2173 2217 0
50 -2173 2218 0
-2174 2218 0
50 -2174 2219 0
-2175 2219 0
50 -2175 2220 0
-2176 2220 0
50 -2176 2221 0
-2177 2221 0
50 -2177 2222 0
-2178 2222 0
50 -2178 2223 0
-2179 2223 0
50 -2179 2224 0
-2180 2224 0
50 -2180 2225 0
-2181 2225 0
50 -2181 2226 0
-2182 2226 0
50 -2182 2227 0
-2183 2227 0
50 -2183 2228 0
-2184 2228 0
50 -2184 2229 0
-2185 2229 0
50 -2185 2230 0
-2186 2230 0
50 -2186 2231 0
-2187 2231 0
50 -2187 2232 0
-2188 2232 0
50 -2188 2233 0
-2189 2233 0
50 -2189 2234 0
-2190 2234 0
50 -2190 2235 0
-2191 2235 0
50 -2191 2236 0
-2192 2236 0
50 -2192 2237 0
-2193 2237 0
50 -2193 2238 0
-2194 2238 0
50 -2194 2239 0
-2195 2239 0
50 -2195 2240 0
-2196 2240 0
50 -2196 2241 0
-2197 2241 0
50 -2197 2242 0
-2198 2242 0
50 -2198 2243 0
-2199 2243 0
50 -2199 2244 0
-2200 2244 0
50 -2200 2245 0
-2201 2245 0
50 -2201 2246 0
-2202 2246 0
50 -2202 2247 0
-2203 2247 0
50 -2203 2248 0
-2204 2248 0
50 -2204 2249 0
-2205 2249 0
50 -2205 2250 0
-2206 2250 0
50 -2206 2251 0
-2207 2251 0
50 -2207 2252 0
-2208 2252 0
50 -2208 2253 0
-2209 2253 0
50 -2209 2254 0
-2210 2254 0
50 -2210 0
51 2255 0
-2211 2255 0
51 -2211 2256 0
-2212 2256 0
51 -2212 2257 0
-2213 2257 0
51 -2213 2258 0
-2214 2258 0
51 -2214 2259 0
-2215 2259 0
51 -2215 2260 0
-2216 2260 0
51 -2216 2261 0
-2217 2261 0
51 -2217 2262 0
-2218 2262 0
51 -2218 2263 0
-2219 2263 0
51 -2219 2264 0
-2220 2264 0
51 -2220 2265 0
-2221 2265 0
51 -2221 2266 0
-2222 2266 0
51 -2222 2267 0
-2223 2267 0
51 -2223 2268 0
-2224 2268 0
51 -2224 2269 0
-2225 2269 0
51 -2225 2270 0
-2226 2270 0
51 -2226 2271 0
-2227 2271 0
51 -2227 2272 0
-2228 2272 0
51 -2228 2273 0
-2229 2273 0
51 -2229 2274 0
-2230 2274 0
51 -2230 2275 0
-2231 2275 0
51 -2231 2276 0
-2232 2276 0
51 -2232 2277 0
-2233 2277 0
51 -2233 2278 0
-2234 2278 0
51 -2234 2279 0
-2235 2279 0
51 -2235 2280 0
-2236 2280 0
51 -2236 2281 0
-2237 2281 0
51 -2237 2282 0
-2238 2282 0
51 -2238 2283 0
-2239 2283 0
51 -2239 2284 0
-2240 2284 0
51 -2240 2285 0
-2241 2285 0
51 -2241 2286 0
-2242 2286 0
51 -2242 2287 0
-2243 2287 0
51 -2243 2288 0
-2244 2288 0
51 -2244 2289 0
-2245 2289 0
51 -2245 2290 0
-2246 2290 0
51 -2246 2291 0
-2247 2291 0
51 -2247 2292 0
-2248 2292 0
51 -2248 2293 0
-2249 2293 0
51 -2249 2294 0
-2250 2294 0
51 -2250 2295 0
-2251 2295 0
51 -2251 2296 0
-2252 2296 0
51 -2252 2297 0
-2253 2297 0
51 -2253 2298 0
-2254 2298 0
51 -2254 0
52 2299 0
-2255 2299 0
52 -2255 2300 0
-2256 2300 0
52 -2256 2301 0
-2257 2301 0
52 -2257 2302 0
-2258 2302 0
52 -2258 2303 0
-2259 2303 0
52 -2259 2304 0
-2260 2304 0
52 -2260 2305 0
-2261 2305 0
52 -2261 2306 0
-2262 2306 0
52 -2262 2307 0
-2263 2307 0
52 -2263 2308 0
-2264 2308 0
52 -2264 2309 0
-2265 2309 0
52 -2265 2310 0
-2266 2310 0
52 -2266 2311 0
-2267 2311 0
52 -2267 2312 0
-2268 2312 0
52 -2268 2313 0
-2269 2313 0
52 -2269 2314 0
-2270 2314 0
52 -2270 2315 0
-2271 2315 0
52 -2271 2316 0
-2272 2316 0
52 -2272 2317 0
-2273 2317 0
52 -2273 2318 0
-2274 2318 0
52 -2274 2319 0
-2275 2319 0
52 -2275 2320 0
-2276 2320 0
52 -2276 2321 0
-2277 2321 0
52 -2277 2322 0
-2278 2322 0
52 -2278 2323 0
-2279 2323 0
52 -2279 2324 0
-2280 2324 0
52 -2280 2325 0
-2281 2325 0
52 -2281 2326 0
-2282 2326 0
52 -2282 2327 0
-2283 2327 0
52 -2283 2328 0
-2284 2328 0
52 -2284 2329 0
-2285 2329 0
52 -2285 2330 0
-2286 2330 0
52 -2286 2331 0
-2287 2331 0
52 -2287 2332 0
-2288 2332 0
52 -2288 2333 0
-2289 2333 0
52 -2289 2334 0
-2290 2334 0
52 -2290 2335 0
-2291 2335 0
52 -2291 2336 0
-2292 2336 0
52 -2292 2337 0
-2293 2337 0
52 -2293 2338 0
-2294 2338 0
52 -2294 2339 0
-2295 2339 0
52 -2295 2340 0
-2296 2340 0
52 -2296 2341 0
-2297 2341 0
52 -2297 2342 0
-2298 2342 0
52 -2298 0
53 2343 0
-2299 2343 0
53 -2299 2344 0
-2300 2344 0
53 -2300 2345 0
-2301 2345 0
53 -2301 2346 0
-2302 2346 0
53 -2302 2347 0
-2303 2347 0
53 -2303 2348 0
-2304 2348 0
53 -2304 2349 0
-2305 2349 0
53 -2305 2350 0
-2306 2350 0
53 -2306 2351 0
-2307 2351 0
53 -2307 2352 0
-2308 2352 0
53 -2308 2353 0
-2309 2353 0
53 -2309 2354 0
-2310 2354 0
53 -2310 2355 0
-2311 2355 0
53 -2311 2356 0
-2312 2356 0
53 -2312 2357 0
-2313 2357 0
53 -2313 2358 0
-2314 2358 0
53 -2314 2359 0
-2315 2359 0
53 -2315 2360 0
-2316 2360 0
53 -2316 2361 0
-2317 2361 0
53 -2317 2362 0
-2318 2362 0
53 -2318 2363 0
-2319 2363 0
53 -2319 2364 0
-2320 2364 0
53 -2320 2365 0
-2321 2365 0
53 -2321 2366 0
-2322 2366 0
53 -2322 2367 0
-2323 2367 0
53 -2323 2368 0
-2324 2368 0
53 -2324 2369 0
-2325 2369 0
53 -2325 2370 0
-2326 2370 0
53 -2326 2371 0
-2327 2371 0
53 -2327 2372 0
-2328 2372 0
53 -2328 2373 0
-2329 2373 0
53 -2329 2374 0
-2330 2374 0
53 -2330 2375 0
-2331 2375 0
53 -2331 2376 0
-2332 2376 0
53 -2332 2377 0
-2333 2377 0
53 -2333 2378 0
-2334 2378 0
53 -2334 2379 0
-2335 2379 0
53 -2335 2380 0
-2336 2380 0
53 -2336 2381 0
-2337 2381 0
53 -2337 2382 0
-2338 2382 0
53 -2338 2383 0
-2339 2383 0
53 -2339 2384 0
-2340 2384 0
53 -2340 2385 0
-2341 2385 0
53 -2341 2386 0
-2342 2386 0
53 -2342 0
54 2387 0
-2343 2387 0
54 -2343 2388 0
-2344 2388 0
54 -2344 2389 0
-2345 2389 0
54 -2345 2390 0
-2346 2390 0
54 -2346 2391 0
-2347 2391 0
54 -2347 2392 0
-2348 2392 0
54 -2348 2393 0
-2349 2393 0
54 -2349 2394 0
-2350 2394 0
54 -2350 2395 0
-2351 2395 0
54 -2351 2396 0
-2352 2396 0
54 -2352 2397 0
-2353 2397 0
54 -2353 2398 0
-2354 2398 0
54 -2354 2399 0
-2355 2399 0
54 -2355 2400 0
-2356 2400 0
54 -2356 2401 0
-2357 2401 0
54 -2357 2402 0
-2358 2402 0
54 -2358 2403 0
-2359 2403 0
54 -2359 2404 0
-2360 2404 0
54 -2360 2405 0
-2361 2405 0
54 -2361 2406 0
-2362 2406 0
54 -2362 2407 0
-2363 2407 0
54 -2363 2408 0
-2364 2408 0
54 -2364 2409 0
-2365 2409 0
54 -2365 2410 0
-2366 2410 0
54 -2366 2411 0
-2367 2411 0
54 -2367 2412 0
-2368 2412 0
54 -2368 2413 0
-2369 2413 0
54 -2369 2414 0
-2370 2414 0
54 -2370 2415 0
-2371 2415 0
54 -2371 2416 0
-2372 2416 0
54 -2372 2417 0
-2373 2417 0
54 -2373 2418 0
-2374 2418 0
54 -2374 2419 0
-2375 2419 0
54 -2375 2420 0
-2376 2420 0
54 -2376 2421 0
-2377 2421 0
54 -2377 2422 0
-2378 2422 0
54 -2378 2423 0
-2379 2423 0
54 -2379 2424 0
-2380 2424 0
54 -2380 2425 0
-2381 2425 0
54 -2381 2426 0
-2382 2426 0
54 -2382 2427 0
-2383 2427 0
54 -2383 2428 0
-2384 2428 0
54 -2384 2429 0
-2385 2429 0
54 -2385 2430 0
-2386 2430 0
54 -2386 0
