c tt3 packing >= 9 in tournament n=9 bits=101110001111000111000101111111111101 m_TT3=54
p cnf 2484 5165
-1 -2 0
-1 -3 0
-1 -4 0
-1 -5 0
-1 -6 0
-1 -7 0
-1 -13 0
-1 -14 0
-1 -19 0
-1 -25 0
-1 -26 0
-2 -3 0
-2 -4 0
-2 -5 0
-2 -6 0
-2 -8 0
-2 -13 0
-2 -15 0
-2 -20 0
-2 -25 0
-2 -27 0
-3 -4 0
-3 -5 0
-3 -6 0
-3 -9 0
-3 -14 0
-3 -15 0
-3 -21 0
-3 -26 0
-3 -27 0
-4 -5 0
-4 -6 0
-4 -10 0
-4 -16 0
-4 -17 0
-4 -22 0
-4 -28 0
-4 -29 0
-5 -6 0
-5 -11 0
-5 -16 0
-5 -18 0
-5 -23 0
-5 -28 0
-5 -30 0
-6 -12 0
-6 -17 0
-6 -18 0
-6 -24 0
-6 -29 0
-6 -30 0
-7 -8 0
-7 -9 0
-7 -10 0
-7 -11 0
-7 -12 0
-7 -13 0
-7 -14 0
-7 -19 0
-7 -31 0
-7 -32 0
-8 -9 0
-8 -10 0
-8 -11 0
-8 -12 0
-8 -13 0
-8 -15 0
-8 -20 0
-8 -31 0
-8 -33 0
-9 -10 0
-9 -11 0
-9 -12 0
-9 -14 0
-9 -15 0
-9 -21 0
-9 -32 0
-9 -33 0
-10 -11 0
-10 -12 0
-10 -16 0
-10 -17 0
-10 -22 0
-10 -34 0
-10 -35 0
-11 -12 0
-11 -16 0
-11 -18 0
-11 -23 0
-11 -34 0
-11 -36 0
-12 -17 0
-12 -18 0
-12 -24 0
-12 -35 0
-12 -36 0
-13 -14 0
-13 -15 0
-13 -25 0
-13 -31 0
-13 -37 0
-13 -38 0
-13 -39 0
-14 -15 0
-14 -26 0
-14 -32 0
-14 -40 0
-14 -41 0
-14 -42 0
-15 -27 0
-15 -33 0
-15 -46 0
-15 -47 0
-15 -48 0
-16 -17 0
-16 -18 0
-16 -28 0
-16 -34 0
-16 -43 0
-16 -49 0
-16 -52 0
-17 -18 0
-17 -29 0
-17 -35 0
-17 -44 0
-17 -50 0
-17 -53 0
-18 -30 0
-18 -36 0
-18 -45 0
-18 -51 0
-18 -54 0
-19 -20 0
-19 -21 0
-19 -22 0
-19 -23 0
-19 -24 0
-19 -25 0
-19 -26 0
-19 -31 0
-19 -32 0
-20 -21 0
-20 -22 0
-20 -23 0
-20 -24 0
-20 -25 0
-20 -27 0
-20 -31 0
-20 -33 0
-21 -22 0
-21 -23 0
-21 -24 0
-21 -26 0
-21 -27 0
-21 -32 0
-21 -33 0
-22 -23 0
-22 -24 0
-22 -28 0
-22 -29 0
-22 -34 0
-22 -35 0
-23 -24 0
-23 -28 0
-23 -30 0
-23 -34 0
-23 -36 0
-24 -29 0
-24 -30 0
-24 -35 0
-24 -36 0
-25 -26 0
-25 -27 0
-25 -31 0
-25 -37 0
-25 -38 0
-25 -39 0
-26 -27 0
-26 -32 0
-26 -40 0
-26 -41 0
-26 -42 0
-27 -33 0
-27 -46 0
-27 -47 0
-27 -48 0
-28 -29 0
-28 -30 0
-28 -34 0
-28 -43 0
-28 -49 0
-28 -52 0
-29 -30 0
-29 -35 0
-29 -44 0
-29 -50 0
-29 -53 0
-30 -36 0
-30 -45 0
-30 -51 0
-30 -54 0
-31 -32 0
-31 -33 0
-31 -37 0
-31 -38 0
-31 -39 0
-32 -33 0
-32 -40 0
-32 -41 0
-32 -42 0
-33 -46 0
-33 -47 0
-33 -48 0
-34 -35 0
-34 -36 0
-34 -43 0
-34 -49 0
-34 -52 0
-35 -36 0
-35 -44 0
-35 -50 0
-35 -53 0
-36 -45 0
-36 -51 0
-36 -54 0
-37 -38 0
-37 -39 0
-37 -40 0
-37 -43 0
-37 -44 0
-37 -46 0
-37 -49 0
-37 -50 0
-38 -39 0
-38 -41 0
-38 -43 0
-38 -45 0
-38 -47 0
-38 -49 0
-38 -51 0
-39 -42 0
-39 -44 0
-39 -45 0
-39 -48 0
-39 -50 0
-39 -51 0
-40 -41 0
-40 -42 0
-40 -43 0
-40 -44 0
-40 -46 0
-40 -52 0
-40 -53 0
-41 -42 0
-41 -43 0
-41 -45 0
-41 -47 0
-41 -52 0
-41 -54 0
-42 -44 0
-42 -45 0
-42 -48 0
-42 -53 0
-42 -54 0
-43 -44 0
-43 -45 0
-43 -49 0
-43 -52 0
-44 -45 0
-44 -50 0
-44 -53 0
-45 -51 0
-45 -54 0
-46 -47 0
-46 -48 0
-46 -49 0
-46 -50 0
-46 -52 0
-46 -53 0
-47 -48 0
-47 -49 0
-47 -51 0
-47 -52 0
-47 -54 0
-48 -50 0
-48 -51 0
-48 -53 0
-48 -54 0
-49 -50 0
-49 -51 0
-49 -52 0
-50 -51 0
-50 -53 0
-51 -54 0
-52 -53 0
-52 -54 0
-53 -54 0
1 55 0
-56 0
-57 0
-58 0
-59 0
-60 0
-61 0
-62 0
-63 0
-64 0
-65 0
-66 0
-67 0
-68 0
-69 0
-70 0
-71 0
-72 0
-73 0
-74 0
-75 0
-76 0
-77 0
-78 0
-79 0
-80 0
-81 0
-82 0
-83 0
-84 0
-85 0
-86 0
-87 0
-88 0
-89 0
-90 0
-91 0
-92 0
-93 0
-94 0
-95 0
-96 0
-97 0
-98 0
-99 0
2 100 0
-55 100 0
2 -55 101 0
-56 101 0
2 -56 102 0
-57 102 0
2 -57 103 0
-58 103 0
2 -58 104 0
-59 104 0
2 -59 105 0
-60 105 0
2 -60 106 0
-61 106 0
2 -61 107 0
-62 107 0
2 -62 108 0
-63 108 0
2 -63 109 0
-64 109 0
2 -64 110 0
-65 110 0
2 -65 111 0
-66 111 0
2 -66 112 0
-67 112 0
2 -67 113 0
-68 113 0
2 -68 114 0
-69 114 0
2 -69 115 0
-70 115 0
2 -70 116 0
-71 116 0
2 -71 117 0
-72 117 0
2 -72 118 0
-73 118 0
2 -73 119 0
-74 119 0
2 -74 120 0
-75 120 0
2 -75 121 0
-76 121 0
2 -76 122 0
-77 122 0
2 -77 123 0
-78 123 0
2 -78 124 0
-79 124 0
2 -79 125 0
-80 125 0
2 -80 126 0
-81 126 0
2 -81 127 0
-82 127 0
2 -82 128 0
-83 128 0
2 -83 129 0
-84 129 0
2 -84 130 0
-85 130 0
2 -85 131 0
-86 131 0
2 -86 132 0
-87 132 0
2 -87 133 0
-88 133 0
2 -88 134 0
-89 134 0
2 -89 135 0
-90 135 0
2 -90 136 0
-91 136 0
2 -91 137 0
-92 137 0
2 -92 138 0
-93 138 0
2 -93 139 0
-94 139 0
2 -94 140 0
-95 140 0
2 -95 141 0
-96 141 0
2 -96 142 0
-97 142 0
2 -97 143 0
-98 143 0
2 -98 144 0
-99 144 0
2 -99 0
3 145 0
-100 145 0
3 -100 146 0
-101 146 0
3 -101 147 0
-102 147 0
3 -102 148 0
-103 148 0
3 -103 149 0
-104 149 0
3 -104 150 0
-105 150 0
3 -105 151 0
-106 151 0
3 -106 152 0
-107 152 0
3 -107 153 0
-108 153 0
3 -108 154 0
-109 154 0
3 -109 155 0
-110 155 0
3 -110 156 0
-111 156 0
3 -111 157 0
-112 157 0
3 -112 158 0
-113 158 0
3 -113 159 0
-114 159 0
3 -114 160 0
-115 160 0
3 -115 161 0
-116 161 0
3 -116 162 0
-117 162 0
3 -117 163 0
-118 163 0
3 -118 164 0
-119 164 0
3 -119 165 0
-120 165 0
3 -120 166 0
-121 166 0
3 -121 167 0
-122 167 0
3 -122 168 0
-123 168 0
3 -123 169 0
-124 169 0
3 -124 170 0
-125 170 0
3 -125 171 0
-126 171 0
3 -126 172 0
-127 172 0
3 -127 173 0
-128 173 0
3 -128 174 0
-129 174 0
3 -129 175 0
-130 175 0
3 -130 176 0
-131 176 0
3 -131 177 0
-132 177 0
3 -132 178 0
-133 178 0
3 -133 179 0
-134 179 0
3 -134 180 0
-135 180 0
3 -135 181 0
-136 181 0
3 -136 182 0
-137 182 0
3 -137 183 0
-138 183 0
3 -138 184 0
-139 184 0
3 -139 185 0
-140 185 0
3 -140 186 0
-141 186 0
3 -141 187 0
-142 187 0
3 -142 188 0
-143 188 0
3 -143 189 0
-144 189 0
3 -144 0
4 190 0
-145 190 0
4 -145 191 0
-146 191 0
4 -146 192 0
-147 192 0
4 -147 193 0
-148 193 0
4 -148 194 0
-149 194 0
4 -149 195 0
-150 195 0
4 -150 196 0
-151 196 0
4 -151 197 0
-152 197 0
4 -152 198 0
-153 198 0
4 -153 199 0
-154 199 0
4 -154 200 0
-155 200 0
4 -155 201 0
-156 201 0
4 -156 202 0
-157 202 0
4 -157 203 0
-158 203 0
4 -158 204 0
-159 204 0
4 -159 205 0
-160 205 0
4 -160 206 0
-161 206 0
4 -161 207 0
-162 207 0
4 -162 208 0
-163 208 0
4 -163 209 0
-164 209 0
4 -164 210 0
-165 210 0
4 -165 211 0
-166 211 0
4 -166 212 0
-167 212 0
4 -167 213 0
-168 213 0
4 -168 214 0
-169 214 0
4 -169 215 0
-170 215 0
4 -170 216 0
-171 216 0
4 -171 217 0
-172 217 0
4 -172 218 0
-173 218 0
4 -173 219 0
-174 219 0
4 -174 220 0
-175 220 0
4 -175 221 0
-176 221 0
4 -176 222 0
-177 222 0
4 -177 223 0
-178 223 0
4 -178 224 0
-179 224 0
4 -179 225 0
-180 225 0
4 -180 226 0
-181 226 0
4 -181 227 0
-182 227 0
4 -182 228 0
-183 228 0
4 -183 229 0
-184 229 0
4 -184 230 0
-185 230 0
4 -185 231 0
-186 231 0
4 -186 232 0
-187 232 0
4 -187 233 0
-188 233 0
4 -188 234 0
-189 234 0
4 -189 0
5 235 0
-190 235 0
5 -190 236 0
-191 236 0
5 -191 237 0
-192 237 0
5 -192 238 0
-193 238 0
5 -193 239 0
-194 239 0
5 -194 240 0
-195 240 0
5 -195 241 0
-196 241 0
5 -196 242 0
-197 242 0
5 -197 243 0
-198 243 0
5 -198 244 0
-199 244 0
5 -199 245 0
-200 245 0
5 -200 246 0
-201 246 0
5 -201 247 0
-202 247 0
5 -202 248 0
-203 248 0
5 -203 249 0
-204 249 0
5 -204 250 0
-205 250 0
5 -205 251 0
-206 251 0
5 -206 252 0
-207 252 0
5 -207 253 0
-208 253 0
5 -208 254 0
-209 254 0
5 -209 255 0
-210 255 0
5 -210 256 0
-211 256 0
5 -211 257 0
-212 257 0
5 -212 258 0
-213 258 0
5 -213 259 0
-214 259 0
5 -214 260 0
-215 260 0
5 -215 261 0
-216 261 0
5 -216 262 0
-217 262 0
5 -217 263 0
-218 263 0
5 -218 264 0
-219 264 0
5 -219 265 0
-220 265 0
5 -220 266 0
-221 266 0
5 -221 267 0
-222 267 0
5 -222 268 0
-223 268 0
5 -223 269 0
-224 269 0
5 -224 270 0
-225 270 0
5 -225 271 0
-226 271 0
5 -226 272 0
-227 272 0
5 -227 273 0
-228 273 0
5 -228 274 0
-229 274 0
5 -229 275 0
-230 275 0
5 -230 276 0
-231 276 0
5 -231 277 0
-232 277 0
5 -232 278 0
-233 278 0
5 -233 279 0
-234 279 0
5 -234 0
6 280 0
-235 280 0
6 -235 281 0
-236 281 0
6 -236 282 0
-237 282 0
6 -237 283 0
-238 283 0
6 -238 284 0
-239 284 0
6 -239 285 0
-240 285 0
6 -240 286 0
-241 286 0
6 -241 287 0
-242 287 0
6 -242 288 0
-243 288 0
6 -243 289 0
-244 289 0
6 -244 290 0
-245 290 0
6 -245 291 0
-246 291 0
6 -246 292 0
-247 292 0
6 -247 293 0
-248 293 0
6 -248 294 0
-249 294 0
6 -249 295 0
-250 295 0
6 -250 296 0
-251 296 0
6 -251 297 0
-252 297 0
6 -252 298 0
-253 298 0
6 -253 299 0
-254 299 0
6 -254 300 0
-255 300 0
6 -255 301 0
-256 301 0
6 -256 302 0
-257 302 0
6 -257 303 0
-258 303 0
6 -258 304 0
-259 304 0
6 -259 305 0
-260 305 0
6 -260 306 0
-261 306 0
6 -261 307 0
-262 307 0
6 -262 308 0
-263 308 0
6 -263 309 0
-264 309 0
6 -264 310 0
-265 310 0
6 -265 311 0
-266 311 0
6 -266 312 0
-267 312 0
6 -267 313 0
-268 313 0
6 -268 314 0
-269 314 0
6 -269 315 0
-270 315 0
6 -270 316 0
-271 316 0
6 -271 317 0
-272 317 0
6 -272 318 0
-273 318 0
6 -273 319 0
-274 319 0
6 -274 320 0
-275 320 0
6 -275 321 0
-276 321 0
6 -276 322 0
-277 322 0
6 -277 323 0
-278 323 0
6 -278 324 0
-279 324 0
6 -279 0
7 325 0
-280 325 0
7 -280 326 0
-281 326 0
7 -281 327 0
-282 327 0
7 -282 328 0
-283 328 0
7 -283 329 0
-284 329 0
7 -284 330 0
-285 330 0
7 -285 331 0
-286 331 0
7 -286 332 0
-287 332 0
7 -287 333 0
-288 333 0
7 -288 334 0
-289 334 0
7 -289 335 0
-290 335 0
7 -290 336 0
-291 336 0
7 -291 337 0
-292 337 0
7 -292 338 0
-293 338 0
7 -293 339 0
-294 339 0
7 -294 340 0
-295 340 0
7 -295 341 0
-296 341 0
7 -296 342 0
-297 342 0
7 -297 343 0
-298 343 0
7 -298 344 0
-299 344 0
7 -299 345 0
-300 345 0
7 -300 346 0
-301 346 0
7 -301 347 0
-302 347 0
7 -302 348 0
-303 348 0
7 -303 349 0
-304 349 0
7 -304 350 0
-305 350 0
7 -305 351 0
-306 351 0
7 -306 352 0
-307 352 0
7 -307 353 0
-308 353 0
7 -308 354 0
-309 354 0
7 -309 355 0
-310 355 0
7 -310 356 0
-311 356 0
7 -311 357 0
-312 357 0
7 -312 358 0
-313 358 0
7 -313 359 0
-314 359 0
7 -314 360 0
-315 360 0
7 -315 361 0
-316 361 0
7 -316 362 0
-317 362 0
7 -317 363 0
-318 363 0
7 -318 364 0
-319 364 0
7 -319 365 0
-320 365 0
7 -320 366 0
-321 366 0
7 -321 367 0
-322 367 0
7 -322 368 0
-323 368 0
7 -323 369 0
-324 369 0
7 -324 0
8 370 0
-325 370 0
8 -325 371 0
-326 371 0
8 -326 372 0
-327 372 0
8 -327 373 0
-328 373 0
8 -328 374 0
-329 374 0
8 -329 375 0
-330 375 0
8 -330 376 0
-331 376 0
8 -331 377 0
-332 377 0
8 -332 378 0
-333 378 0
8 -333 379 0
-334 379 0
8 -334 380 0
-335 380 0
8 -335 381 0
-336 381 0
8 -336 382 0
-337 382 0
8 -337 383 0
-338 383 0
8 -338 384 0
-339 384 0
8 -339 385 0
-340 385 0
8 -340 386 0
-341 386 0
8 -341 387 0
-342 387 0
8 -342 388 0
-343 388 0
8 -343 389 0
-344 389 0
8 -344 390 0
-345 390 0
8 -345 391 0
-346 391 0
8 -346 392 0
-347 392 0
8 -347 393 0
-348 393 0
8 -348 394 0
-349 394 0
8 -349 395 0
-350 395 0
8 -350 396 0
-351 396 0
8 -351 397 0
-352 397 0
8 -352 398 0
-353 398 0
8 -353 399 0
-354 399 0
8 -354 400 0
-355 400 0
8 -355 401 0
-356 401 0
8 -356 402 0
-357 402 0
8 -357 403 0
-358 403 0
8 -358 404 0
-359 404 0
8 -359 405 0
-360 405 0
8 -360 406 0
-361 406 0
8 -361 407 0
-362 407 0
8 -362 408 0
-363 408 0
8 -363 409 0
-364 409 0
8 -364 410 0
-365 410 0
8 -365 411 0
-366 411 0
8 -366 412 0
-367 412 0
8 -367 413 0
-368 413 0
8 -368 414 0
-369 414 0
8 -369 0
9 415 0
-370 415 0
9 -370 416 0
-371 416 0
9 -371 417 0
-372 417 0
9 -372 418 0
-373 418 0
9 -373 419 0
-374 419 0
9 -374 420 0
-375 420 0
9 -375 421 0
-376 421 0
9 -376 422 0
-377 422 0
9 -377 423 0
-378 423 0
9 -378 424 0
-379 424 0
9 -379 425 0
-380 425 0
9 -380 426 0
-381 426 0
9 -381 427 0
-382 427 0
9 -382 428 0
-383 428 0
9 -383 429 0
-384 429 0
9 -384 430 0
-385 430 0
9 -385 431 0
-386 431 0
9 -386 432 0
-387 432 0
9 -387 433 0
-388 433 0
9 -388 434 0
-389 434 0
9 -389 435 0
-390 435 0
9 -390 436 0
-391 436 0
9 -391 437 0
-392 437 0
9 -392 438 0
-393 438 0
9 -393 439 0
-394 439 0
9 -394 440 0
-395 440 0
9 -395 441 0
-396 441 0
9 -396 442 0
-397 442 0
9 -397 443 0
-398 443 0
9 -398 444 0
-399 444 0
9 -399 445 0
-400 445 0
9 -400 446 0
-401 446 0
9 -401 447 0
-402 447 0
9 -402 448 0
-403 448 0
9 -403 449 0
-404 449 0
9 -404 450 0
-405 450 0
9 -405 451 0
-406 451 0
9 -406 452 0
-407 452 0
9 -407 453 0
-408 453 0
9 -408 454 0
-409 454 0
9 -409 455 0
-410 455 0
9 -410 456 0
-411 456 0
9 -411 457 0
-412 457 0
9 -412 458 0
-413 458 0
9 -413 459 0
-414 459 0
9 -414 0
10 460 0
-415 460 0
10 -415 461 0
-416 461 0
10 -416 462 0
-417 462 0
10 -417 463 0
-418 463 0
10 -418 464 0
-419 464 0
10 -419 465 0
-420 465 0
10 -420 466 0
-421 466 0
10 -421 467 0
-422 467 0
10 -422 468 0
-423 468 0
10 -423 469 0
-424 469 0
10 -424 470 0
-425 470 0
10 -425 471 0
-426 471 0
10 -426 472 0
-427 472 0
10 -427 473 0
-428 473 0
10 -428 474 0
-429 474 0
10 -429 475 0
-430 475 0
10 -430 476 0
-431 476 0
10 -431 477 0
-432 477 0
10 -432 478 0
-433 478 0
10 -433 479 0
-434 479 0
10 -434 480 0
-435 480 0
10 -435 481 0
-436 481 0
10 -436 482 0
-437 482 0
10 -437 483 0
-438 483 0
10 -438 484 0
-439 484 0
10 -439 485 0
-440 485 0
10 -440 486 0
-441 486 0
10 -441 487 0
-442 487 0
10 -442 488 0
-443 488 0
10 -443 489 0
-444 489 0
10 -444 490 0
-445 490 0
10 -445 491 0
-446 491 0
10 -446 492 0
-447 492 0
10 -447 493 0
-448 493 0
10 -448 494 0
-449 494 0
10 -449 495 0
-450 495 0
10 -450 496 0
-451 496 0
10 -451 497 0
-452 497 0
10 -452 498 0
-453 498 0
10 -453 499 0
-454 499 0
10 -454 500 0
-455 500 0
10 -455 501 0
-456 501 0
10 -456 502 0
-457 502 0
10 -457 503 0
-458 503 0
10 -458 504 0
-459 504 0
10 -459 0
11 505 0
-460 505 0
11 -460 506 0
-461 506 0
11 -461 507 0
-462 507 0
11 -462 508 0
-463 508 0
11 -463 509 0
-464 509 0
11 -464 510 0
-465 510 0
11 -465 511 0
-466 511 0
11 -466 512 0
-467 512 0
11 -467 513 0
-468 513 0
11 -468 514 0
-469 514 0
11 -469 515 0
-470 515 0
11 -470 516 0
-471 516 0
11 -471 517 0
-472 517 0
11 -472 518 0
-473 518 0
11 -473 519 0
-474 519 0
11 -474 520 0
-475 520 0
11 -475 521 0
-476 521 0
11 -476 522 0
-477 522 0
11 -477 523 0
-478 523 0
11 -478 524 0
-479 524 0
11 -479 525 0
-480 525 0
11 -480 526 0
-481 526 0
11 -481 527 0
-482 527 0
11 -482 528 0
-483 528 0
11 -483 529 0
-484 529 0
11 -484 530 0
-485 530 0
11 -485 531 0
-486 531 0
11 -486 532 0
-487 532 0
11 -487 533 0
-488 533 0
11 -488 534 0
-489 534 0
11 -489 535 0
-490 535 0
11 -490 536 0
-491 536 0
11 -491 537 0
-492 537 0
11 -492 538 0
-493 538 0
11 -493 539 0
-494 539 0
11 -494 540 0
-495 540 0
11 -495 541 0
-496 541 0
11 -496 542 0
-497 542 0
11 -497 543 0
-498 543 0
11 -498 544 0
-499 544 0
11 -499 545 0
-500 545 0
11 -500 546 0
-501 546 0
11 -501 547 0
-502 547 0
11 -502 548 0
-503 548 0
11 -503 549 0
-504 549 0
11 -504 0
12 550 0
-505 550 0
12 -505 551 0
-506 551 0
12 -506 552 0
-507 552 0
12 -507 553 0
-508 553 0
12 -508 554 0
-509 554 0
12 -509 555 0
-510 555 0
12 -510 556 0
-511 556 0
12 -511 557 0
-512 557 0
12 -512 558 0
-513 558 0
12 -513 559 0
-514 559 0
12 -514 560 0
-515 560 0
12 -515 561 0
-516 561 0
12 -516 562 0
-517 562 0
12 -517 563 0
-518 563 0
12 -518 564 0
-519 564 0
12 -519 565 0
-520 565 0
12 -520 566 0
-521 566 0
12 -521 567 0
-522 567 0
12 -522 568 0
-523 568 0
12 -523 569 0
-524 569 0
12 -524 570 0
-525 570 0
12 -525 571 0
-526 571 0
12 -526 572 0
-527 572 0
12 -527 573 0
-528 573 0
12 -528 574 0
-529 574 0
12 -529 575 0
-530 575 0
12 -530 576 0
-531 576 0
12 -531 577 0
-532 577 0
12 -532 578 0
-533 578 0
12 -533 579 0
-534 579 0
12 -534 580 0
-535 580 0
12 -535 581 0
-536 581 0
12 -536 582 0
-537 582 0
12 -537 583 0
-538 583 0
12 -538 584 0
-539 584 0
12 -539 585 0
-540 585 0
12 -540 586 0
-541 586 0
12 -541 587 0
-542 587 0
12 -542 588 0
-543 588 0
12 -543 589 0
-544 589 0
12 -544 590 0
-545 590 0
12 -545 591 0
-546 591 0
12 -546 592 0
-547 592 0
12 -547 593 0
-548 593 0
12 -548 594 0
-549 594 0
12 -549 0
13 595 0
-550 595 0
13 -550 596 0
-551 596 0
13 -551 597 0
-552 597 0
13 -552 598 0
-553 598 0
13 -553 599 0
-554 599 0
13 -554 600 0
-555 600 0
13 -555 601 0
-556 601 0
13 -556 602 0
-557 602 0
13 -557 603 0
-558 603 0
13 -558 604 0
-559 604 0
13 -559 605 0
-560 605 0
13 -560 606 0
-561 606 0
13 -561 607 0
-562 607 0
13 -562 608 0
-563 608 0
13 -563 609 0
-564 609 0
13 -564 610 0
-565 610 0
13 -565 611 0
-566 611 0
13 -566 612 0
-567 612 0
13 -567 613 0
-568 613 0
13 -568 614 0
-569 614 0
13 -569 615 0
-570 615 0
13 -570 616 0
-571 616 0
13 -571 617 0
-572 617 0
13 -572 618 0
-573 618 0
13 -573 619 0
-574 619 0
13 -574 620 0
-575 620 0
13 -575 621 0
-576 621 0
13 -576 622 0
-577 622 0
13 -577 623 0
-578 623 0
13 -578 624 0
-579 624 0
13 -579 625 0
-580 625 0
13 -580 626 0
-581 626 0
13 -581 627 0
-582 627 0
13 -582 628 0
-583 628 0
13 -583 629 0
-584 629 0
13 -584 630 0
-585 630 0
13 -585 631 0
-586 631 0
13 -586 632 0
-587 632 0
13 -587 633 0
-588 633 0
13 -588 634 0
-589 634 0
13 -589 635 0
-590 635 0
13 -590 636 0
-591 636 0
13 -591 637 0
-592 637 0
13 -592 638 0
-593 638 0
13 -593 639 0
-594 639 0
13 -594 0
14 640 0
-595 640 0
14 -595 641 0
-596 641 0
14 -596 642 0
-597 642 0
14 -597 643 0
-598 643 0
14 -598 644 0
-599 644 0
14 -599 645 0
-600 645 0
14 -600 646 0
-601 646 0
14 -601 647 0
-602 647 0
14 -602 648 0
-603 648 0
14 -603 649 0
-604 649 0
14 -604 650 0
-605 650 0
14 -605 651 0
-606 651 0
14 -606 652 0
-607 652 0
14 -607 653 0
-608 653 0
14 -608 654 0
-609 654 0
14 -609 655 0
-610 655 0
14 -610 656 0
-611 656 0
14 -611 657 0
-612 657 0
14 -612 658 0
-613 658 0
14 -613 659 0
-614 659 0
14 -614 660 0
-615 660 0
14 -615 661 0
-616 661 0
14 -616 662 0
-617 662 0
14 -617 663 0
-618 663 0
14 -618 664 0
-619 664 0
14 -619 665 0
-620 665 0
14 -620 666 0
-621 666 0
14 -621 667 0
-622 667 0
14 -622 668 0
-623 668 0
14 -623 669 0
-624 669 0
14 -624 670 0
-625 670 0
14 -625 671 0
-626 671 0
14 -626 672 0
-627 672 0
14 -627 673 0
-628 673 0
14 -628 674 0
-629 674 0
14 -629 675 0
-630 675 0
14 -630 676 0
-631 676 0
14 -631 677 0
-632 677 0
14 -632 678 0
-633 678 0
14 -633 679 0
-634 679 0
14 -634 680 0
-635 680 0
14 -635 681 0
-636 681 0
14 -636 682 0
-637 682 0
14 -637 683 0
-638 683 0
14 -638 684 0
-639 684 0
14 -639 0
15 685 0
-640 685 0
15 -640 686 0
-641 686 0
15 -641 687 0
-642 687 0
15 -642 688 0
-643 688 0
15 -643 689 0
-644 689 0
15 -644 690 0
-645 690 0
15 -645 691 0
-646 691 0
15 -646 692 0
-647 692 0
15 -647 693 0
-648 693 0
15 -648 694 0
-649 694 0
15 -649 695 0
-650 695 0
15 -650 696 0
-651 696 0
15 -651 697 0
-652 697 0
15 -652 698 0
-653 698 0
15 -653 699 0
-654 699 0
15 -654 700 0
-655 700 0
15 -655 701 0
-656 701 0
15 -656 702 0
-657 702 0
15 -657 703 0
-658 703 0
15 -658 704 0
-659 704 0
15 -659 705 0
-660 705 0
15 -660 706 0
-661 706 0
15 -661 707 0
-662 707 0
15 -662 708 0
-663 708 0
15 -663 709 0
-664 709 0
15 -664 710 0
-665 710 0
15 -665 711 0
-666 711 0
15 -666 712 0
-667 712 0
15 -667 713 0
-668 713 0
15 -668 714 0
-669 714 0
15 -669 715 0
-670 715 0
15 -670 716 0
-671 716 0
15 -671 717 0
-672 717 0
15 -672 718 0
-673 718 0
15 -673 719 0
-674 719 0
15 -674 720 0
-675 720 0
15 -675 721 0
-676 721 0
15 -676 722 0
-677 722 0
15 -677 723 0
-678 723 0
15 -678 724 0
-679 724 0
15 -679 725 0
-680 725 0
15 -680 726 0
-681 726 0
15 -681 727 0
-682 727 0
15 -682 728 0
-683 728 0
15 -683 729 0
-684 729 0
15 -684 0
16 730 0
-685 730 0
16 -685 731 0
-686 731 0
16 -686 732 0
-687 732 0
16 -687 733 0
-688 733 0
16 -688 734 0
-689 734 0
16 -689 735 0
-690 735 0
16 -690 736 0
-691 736 0
16 -691 737 0
-692 737 0
16 -692 738 0
-693 738 0
16 -693 739 0
-694 739 0
16 -694 740 0
-695 740 0
16 -695 741 0
-696 741 0
16 -696 742 0
-697 742 0
16 -697 743 0
-698 743 0
16 -698 744 0
-699 744 0
16 -699 745 0
-700 745 0
16 -700 746 0
-701 746 0
16 -701 747 0
-702 747 0
16 -702 748 0
-703 748 0
16 -703 749 0
-704 749 0
16 -704 750 0
-705 750 0
16 -705 751 0
-706 751 0
16 -706 752 0
-707 752 0
16 -707 753 0
-708 753 0
16 -708 754 0
-709 754 0
16 -709 755 0
-710 755 0
16 -710 756 0
-711 756 0
16 -711 757 0
-712 757 0
16 -712 758 0
-713 758 0
16 -713 759 0
-714 759 0
16 -714 760 0
-715 760 0
16 -715 761 0
-716 761 0
16 -716 762 0
-717 762 0
16 -717 763 0
-718 763 0
16 -718 764 0
-719 764 0
16 -719 765 0
-720 765 0
16 -720 766 0
-721 766 0
16 -721 767 0
-722 767 0
16 -722 768 0
-723 768 0
16 -723 769 0
-724 769 0
16 -724 770 0
-725 770 0
16 -725 771 0
-726 771 0
16 -726 772 0
-727 772 0
16 -727 773 0
-728 773 0
16 -728 774 0
-729 774 0
16 -729 0
17 775 0
-730 775 0
17 -730 776 0
-731 776 0
17 -731 777 0
-732 777 0
17 -732 778 0
-733 778 0
17 -733 779 0
-734 779 0
17 -734 780 0
-735 780 0
17 -735 781 0
-736 781 0
17 -736 782 0
-737 782 0
17 -737 783 0
-738 783 0
17 -738 784 0
-739 784 0
17 -739 785 0
-740 785 0
17 -740 786 0
-741 786 0
17 -741 787 0
-742 787 0
17 -742 788 0
-743 788 0
17 -743 789 0
-744 789 0
17 -744 790 0
-745 790 0
17 -745 791 0
-746 791 0
17 -746 792 0
-747 792 0
17 -747 793 0
-748 793 0
17 -748 794 0
-749 794 0
17 -749 795 0
-750 795 0
17 -750 796 0
-751 796 0
17 -751 797 0
-752 797 0
17 -752 798 0
-753 798 0
17 -753 799 0
-754 799 0
17 -754 800 0
-755 800 0
17 -755 801 0
-756 801 0
17 -756 802 0
-757 802 0
17 -757 803 0
-758 803 0
17 -758 804 0
-759 804 0
17 -759 805 0
-760 805 0
17 -760 806 0
-761 806 0
17 -761 807 0
-762 807 0
17 -762 808 0
-763 808 0
17 -763 809 0
-764 809 0
17 -764 810 0
-765 810 0
17 -765 811 0
-766 811 0
17 -766 812 0
-767 812 0
17 -767 813 0
-768 813 0
17 -768 814 0
-769 814 0
17 -769 815 0
-770 815 0
17 -770 816 0
-771 816 0
17 -771 817 0
-772 817 0
17 -772 818 0
-773 818 0
17 -773 819 0
-774 819 0
17 -774 0
18 820 0
-775 820 0
18 -775 821 0
-776 821 0
18 -776 822 0
-777 822 0
18 -777 823 0
-778 823 0
18 -778 824 0
-779 824 0
18 -779 825 0
-780 825 0
18 -780 826 0
-781 826 0
18 -781 827 0
-782 827 0
18 -782 828 0
-783 828 0
18 -783 829 0
-784 829 0
18 -784 830 0
-785 830 0
18 -785 831 0
-786 831 0
18 -786 832 0
-787 832 0
18 -787 833 0
-788 833 0
18 -788 834 0
-789 834 0
18 -789 835 0
-790 835 0
18 -790 836 0
-791 836 0
18 -791 837 0
-792 837 0
18 -792 838 0
-793 838 0
18 -793 839 0
-794 839 0
18 -794 840 0
-795 840 0
18 -795 841 0
-796 841 0
18 -796 842 0
-797 842 0
18 -797 843 0
-798 843 0
18 -798 844 0
-799 844 0
18 -799 845 0
-800 845 0
18 -800 846 0
-801 846 0
18 -801 847 0
-802 847 0
18 -802 848 0
-803 848 0
18 -803 849 0
-804 849 0
18 -804 850 0
-805 850 0
18 -805 851 0
-806 851 0
18 -806 852 0
-807 852 0
18 -807 853 0
-808 853 0
18 -808 854 0
-809 854 0
18 -809 855 0
-810 855 0
18 -810 856 0
-811 856 0
18 -811 857 0
-812 857 0
18 -812 858 0
-813 858 0
18 -813 859 0
-814 859 0
18 -814 860 0
-815 860 0
18 -815 861 0
-816 861 0
18 -816 862 0
-817 862 0
18 -817 863 0
-818 863 0
18 -818 864 0
-819 864 0
18 -819 0
19 865 0
-820 865 0
19 -820 866 0
-821 866 0
19 -821 867 0
-822 867 0
19 -822 868 0
-823 868 0
19 -823 869 0
-824 869 0
19 -824 870 0
-825 870 0
19 -825 871 0
-826 871 0
19 -826 872 0
-827 872 0
19 -827 873 0
-828 873 0
19 -828 874 0
-829 874 0
19 -829 875 0
-830 875 0
19 -830 876 0
-831 876 0
19 -831 877 0
-832 877 0
19 -832 878 0
-833 878 0
19 -833 879 0
-834 879 0
19 -834 880 0
-835 880 0
19 -835 881 0
-836 881 0
19 -836 882 0
-837 882 0
19 -837 883 0
-838 883 0
19 -838 884 0
-839 884 0
19 -839 885 0
-840 885 0
19 -840 886 0
-841 886 0
19 -841 887 0
-842 887 0
19 -842 888 0
-843 888 0
19 -843 889 0
-844 889 0
19 -844 890 0
-845 890 0
19 -845 891 0
-846 891 0
19 -846 892 0
-847 892 0
19 -847 893 0
-848 893 0
19 -848 894 0
-849 894 0
19 -849 895 0
-850 895 0
19 -850 896 0
-851 896 0
19 -851 897 0
-852 897 0
19 -852 898 0
-853 898 0
19 -853 899 0
-854 899 0
19 -854 900 0
-855 900 0
19 -855 901 0
-856 901 0
19 -856 902 0
-857 902 0
19 -857 903 0
-858 903 0
19 -858 904 0
-859 904 0
19 -859 905 0
-860 905 0
19 -860 906 0
-861 906 0
19 -861 907 0
-862 907 0
19 -862 908 0
-863 908 0
19 -863 909 0
-864 909 0
19 -864 0
20 910 0
-865 910 0
20 -865 911 0
-866 911 0
20 -866 912 0
-867 912 0
20 -867 913 0
-868 913 0
20 -868 914 0
-869 914 0
20 -869 915 0
-870 915 0
20 -870 916 0
-871 916 0
20 -871 917 0
-872 917 0
20 -872 918 0
-873 918 0
20 -873 919 0
-874 919 0
20 -874 920 0
-875 920 0
20 -875 921 0
-876 921 0
20 -876 922 0
-877 922 0
20 -877 923 0
-878 923 0
20 -878 924 0
-879 924 0
20 -879 925 0
-880 925 0
20 -880 926 0
-881 926 0
20 -881 927 0
-882 927 0
20 -882 928 0
-883 928 0
20 -883 929 0
-884 929 0
20 -884 930 0
-885 930 0
20 -885 931 0
-886 931 0
20 -886 932 0
-887 932 0
20 -887 933 0
-888 933 0
20 -888 934 0
-889 934 0
20 -889 935 0
-890 935 0
20 -890 936 0
-891 936 0
20 -891 937 0
-892 937 0
20 -892 938 0
-893 938 0
20 -893 939 0
-894 939 0
20 -894 940 0
-895 940 0
20 -895 941 0
-896 941 0
20 -896 942 0
-897 942 0
20 -897 943 0
-898 943 0
20 -898 944 0
-899 944 0
20 -899 945 0
-900 945 0
20 -900 946 0
-901 946 0
20 -901 947 0
-902 947 0
20 -902 948 0
-903 948 0
20 -903 949 0
-904 949 0
20 -904 950 0
-905 950 0
20 -905 951 0
-906 951 0
20 -906 952 0
-907 952 0
20 -907 953 0
-908 953 0
20 -908 954 0
-909 954 0
20 -909 0
21 955 0
-910 955 0
21 -910 956 0
-911 956 0
21 -911 957 0
-912 957 0
21 -912 958 0
-913 958 0
21 -913 959 0
-914 959 0
21 -914 960 0
-915 960 0
21 -915 961 0
-916 961 0
21 -916 962 0
-917 962 0
21 -917 963 0
-918 963 0
21 -918 964 0
-919 964 0
21 -919 965 0
-920 965 0
21 -920 966 0
-921 966 0
21 -921 967 0
-922 967 0
21 -922 968 0
-923 968 0
21 -923 969 0
-924 969 0
21 -924 970 0
-925 970 0
21 -925 971 0
-926 971 0
21 -926 972 0
-927 972 0
21 -927 973 0
-928 973 0
21 -928 974 0
-929 974 0
21 -929 975 0
-930 975 0
21 -930 976 0
-931 976 0
21 -931 977 0
-932 977 0
21 -932 978 0
-933 978 0
21 -933 979 0
-934 979 0
21 -934 980 0
-935 980 0
21 -935 981 0
-936 981 0
21 -936 982 0
-937 982 0
21 -937 983 0
-938 983 0
21 -938 984 0
-939 984 0
21 -939 985 0
-940 985 0
21 -940 986 0
-941 986 0
21 -941 987 0
-942 987 0
21 -942 988 0
-943 988 0
21 -943 989 0
-944 989 0
21 -944 990 0
-945 990 0
21 -945 991 0
-946 991 0
21 -946 992 0
-947 992 0
21 -947 993 0
-948 993 0
21 -948 994 0
-949 994 0
21 -949 995 0
-950 995 0
21 -950 996 0
-951 996 0
21 -951 997 0
-952 997 0
21 -952 998 0
-953 998 0
21 -953 999 0
-954 999 0
21 -954 0
22 1000 0
-955 1000 0
22 -955 1001 0
-956 1001 0
22 -956 1002 0
-957 1002 0
22 -957 1003 0
-958 1003 0
22 -958 1004 0
-959 1004 0
22 -959 1005 0
-960 1005 0
22 -960 1006 0
-961 1006 0
22 -961 1007 0
-962 1007 0
22 -962 1008 0
-963 1008 0
22 -963 1009 0
-964 1009 0
22 -964 1010 0
-965 1010 0
22 -965 1011 0
-966 1011 0
22 -966 1012 0
-967 1012 0
22 -967 1013 0
-968 1013 0
22 -968 1014 0
-969 1014 0
22 -969 1015 0
-970 1015 0
22 -970 1016 0
-971 1016 0
22 -971 1017 0
-972 1017 0
22 -972 1018 0
-973 1018 0
22 -973 1019 0
-974 1019 0
22 -974 1020 0
-975 1020 0
22 -975 1021 0
-976 1021 0
22 -976 1022 0
-977 1022 0
22 -977 1023 0
-978 1023 0
22 -978 1024 0
-979 1024 0
22 -979 1025 0
-980 1025 0
22 -980 1026 0
-981 1026 0
22 -981 1027 0
-982 1027 0
22 -982 1028 0
-983 1028 0
22 -983 1029 0
-984 1029 0
22 -984 1030 0
-985 1030 0
22 -985 1031 0
-986 1031 0
22 -986 1032 0
-987 1032 0
22 -987 1033 0
-988 1033 0
22 -988 1034 0
-989 1034 0
22 -989 1035 0
-990 1035 0
22 -990 1036 0
-991 1036 0
22 -991 1037 0
-992 1037 0
22 -992 1038 0
-993 1038 0
22 -993 1039 0
-994 1039 0
22 -994 1040 0
-995 1040 0
22 -995 1041 0
-996 1041 0
22 -996 1042 0
-997 1042 0
22 -997 1043 0
-998 1043 0
22 -998 1044 0
-999 1044 0
22 -999 0
23 1045 0
-1000 1045 0
23 -1000 1046 0
-1001 1046 0
23 -1001 1047 0
-1002 1047 0
23 -1002 1048 0
-1003 1048 0
23 -1003 1049 0
-1004 1049 0
23 -1004 1050 0
-1005 1050 0
23 -1005 1051 0
-1006 1051 0
23 -1006 1052 0
-1007 1052 0
23 -1007 1053 0
-1008 1053 0
23 -1008 1054 0
-1009 1054 0
23 -1009 1055 0
-1010 1055 0
23 -1010 1056 0
-1011 1056 0
23 -1011 1057 0
-1012 1057 0
23 -1012 1058 0
-1013 1058 0
23 -1013 1059 0
-1014 1059 0
23 -1014 1060 0
-1015 1060 0
23 -1015 1061 0
-1016 1061 0
23 -1016 1062 0
-1017 1062 0
23 -1017 1063 0
-1018 1063 0
23 -1018 1064 0
-1019 1064 0
23 -1019 1065 0
-1020 1065 0
23 -1020 1066 0
-1021 1066 0
23 -1021 1067 0
-1022 1067 0
23 -1022 1068 0
-1023 1068 0
23 -1023 1069 0
-1024 1069 0
23 -1024 1070 0
-1025 1070 0
23 -1025 1071 0
-1026 1071 0
23 -1026 1072 0
-1027 1072 0
23 -1027 1073 0
-1028 1073 0
23 -1028 1074 0
-1029 1074 0
23 -1029 1075 0
-1030 1075 0
23 -1030 1076 0
-1031 1076 0
23 -1031 1077 0
-1032 1077 0
23 -1032 1078 0
-1033 1078 0
23 -1033 1079 0
-1034 1079 0
23 -1034 1080 0
-1035 1080 0
23 -1035 1081 0
-1036 1081 0
23 -1036 1082 0
-1037 1082 0
23 -1037 1083 0
-1038 1083 0
23 -1038 1084 0
-1039 1084 0
23 -1039 1085 0
-1040 1085 0
23 -1040 1086 0
-1041 1086 0
23 -1041 1087 0
-1042 1087 0
23 -1042 1088 0
-1043 1088 0
23 -1043 1089 0
-1044 1089 0
23 -1044 0
24 1090 0
-1045 1090 0
24 -1045 1091 0
-1046 1091 0
24 -1046 1092 0
-1047 1092 0
24 -1047 1093 0
-1048 1093 0
24 -1048 1094 0
-1049 1094 0
24 -1049 1095 0
-1050 1095 0
24 -1050 1096 0
-1051 1096 0
24 -1051 1097 0
-1052 1097 0
24 -1052 1098 0
-1053 1098 0
24 -1053 1099 0
-1054 1099 0
24 -1054 1100 0
-1055 1100 0
24 -1055 1101 0
-1056 1101 0
24 -1056 1102 0
-1057 1102 0
24 -1057 1103 0
-1058 1103 0
24 -1058 1104 0
-1059 1104 0
24 -1059 1105 0
-1060 1105 0
24 -1060 1106 0
-1061 1106 0
24 -1061 1107 0
-1062 1107 0
24 -1062 1108 0
-1063 1108 0
24 -1063 1109 0
-1064 1109 0
24 -1064 1110 0
-1065 1110 0
24 -1065 1111 0
-1066 1111 0
24 -1066 1112 0
-1067 1112 0
24 -1067 1113 0
-1068 1113 0
24 -1068 1114 0
-1069 1114 0
24 -1069 1115 0
-1070 1115 0
24 -1070 1116 0
-1071 1116 0
24 -1071 1117 0
-1072 1117 0
24 -1072 1118 0
-1073 1118 0
24 -1073 1119 0
-1074 1119 0
24 -1074 1120 0
-1075 1120 0
24 -1075 1121 0
-1076 1121 0
24 -1076 1122 0
-1077 1122 0
24 -1077 1123 0
-1078 1123 0
24 -1078 1124 0
-1079 1124 0
24 -1079 1125 0
-1080 1125 0
24 -1080 1126 0
-1081 1126 0
24 -1081 1127 0
-1082 1127 0
24 -1082 1128 0
-1083 1128 0
24 -1083 1129 0
-1084 1129 0
24 -1084 1130 0
-1085 1130 0
24 -1085 1131 0
-1086 1131 0
24 -1086 1132 0
-1087 1132 0
24 -1087 1133 0
-1088 1133 0
24 -1088 1134 0
-1089 1134 0
24 -1089 0
25 1135 0
-1090 1135 0
25 -1090 1136 0
-1091 1136 0
25 -1091 1137 0
-1092 1137 0
25 -1092 1138 0
-1093 1138 0
25 -1093 1139 0
-1094 1139 0
25 -1094 1140 0
-1095 1140 0
25 -1095 1141 0
-1096 1141 0
25 -1096 1142 0
-1097 1142 0
25 -1097 1143 0
-1098 1143 0
25 -1098 1144 0
-1099 1144 0
25 -1099 1145 0
-1100 1145 0
25 -1100 1146 0
-1101 1146 0
25 -1101 1147 0
-1102 1147 0
25 -1102 1148 0
-1103 1148 0
25 -1103 1149 0
-1104 1149 0
25 -1104 1150 0
-1105 1150 0
25 -1105 1151 0
-1106 1151 0
25 -1106 1152 0
-1107 1152 0
25 -1107 1153 0
-1108 1153 0
25 -1108 1154 0
-1109 1154 0
25 -1109 1155 0
-1110 1155 0
25 -1110 1156 0
-1111 1156 0
25 -1111 1157 0
-1112 1157 0
25 -1112 1158 0
-1113 1158 0
25 -1113 1159 0
-1114 1159 0
25 -1114 1160 0
-1115 1160 0
25 -1115 1161 0
-1116 1161 0
25 -1116 1162 0
-1117 1162 0
25 -1117 1163 0
-1118 1163 0
25 -1118 1164 0
-1119 1164 0
25 -1119 1165 0
-1120 1165 0
25 -1120 1166 0
-1121 1166 0
25 -1121 1167 0
-1122 1167 0
25 -1122 1168 0
-1123 1168 0
25 -1123 1169 0
-1124 1169 0
25 -1124 1170 0
-1125 1170 0
25 -1125 1171 0
-1126 1171 0
25 -1126 1172 0
-1127 1172 0
25 -1127 1173 0
-1128 1173 0
25 -1128 1174 0
-1129 1174 0
25 -1129 1175 0
-1130 1175 0
25 -1130 1176 0
-1131 1176 0
25 -1131 1177 0
-1132 1177 0
25 -1132 1178 0
-1133 1178 0
25 -1133 1179 0
-1134 1179 0
25 -1134 0
26 1180 0
-1135 1180 0
26 -1135 1181 0
-1136 1181 0
26 -1136 1182 0
-1137 1182 0
26 -1137 1183 0
-1138 1183 0
26 -1138 1184 0
-1139 1184 0
26 -1139 1185 0
-1140 1185 0
26 -1140 1186 0
-1141 1186 0
26 -1141 1187 0
-1142 1187 0
26 -1142 1188 0
-1143 1188 0
26 -1143 1189 0
-1144 1189 0
26 -1144 1190 0
-1145 1190 0
26 -1145 1191 0
-1146 1191 0
26 -1146 1192 0
-1147 1192 0
26 -1147 1193 0
-1148 1193 0
26 -1148 1194 0
-1149 1194 0
26 -1149 1195 0
-1150 1195 0
26 -1150 1196 0
-1151 1196 0
26 -1151 1197 0
-1152 1197 0
26 -1152 1198 0
-1153 1198 0
26 -1153 1199 0
-1154 1199 0
26 -1154 1200 0
-1155 1200 0
26 -1155 1201 0
-1156 1201 0
26 -1156 1202 0
-1157 1202 0
26 -1157 1203 0
-1158 1203 0
26 -1158 1204 0
-1159 1204 0
26 -1159 1205 0
-1160 1205 0
26 -1160 1206 0
-1161 1206 0
26 -1161 1207 0
-1162 1207 0
26 -1162 1208 0
-1163 1208 0
26 -1163 1209 0
-1164 1209 0
26 -1164 1210 0
-1165 1210 0
26 -1165 1211 0
-1166 1211 0
26 -1166 1212 0
-1167 1212 0
26 -1167 1213 0
-1168 1213 0
26 -1168 1214 0
-1169 1214 0
26 -1169 1215 0
-1170 1215 0
26 -1170 1216 0
-1171 1216 0
26 -1171 1217 0
-1172 1217 0
26 -1172 1218 0
-1173 1218 0
26 -1173 1219 0
-1174 1219 0
26 -1174 1220 0
-1175 1220 0
26 -1175 1221 0
-1176 1221 0
26 -1176 1222 0
-1177 1222 0
26 -1177 1223 0
-1178 1223 0
26 -1178 1224 0
-1179 1224 0
26 -1179 0
27 1225 0
-1180 1225 0
27 -1180 1226 0
-1181 1226 0
27 -1181 1227 0
-1182 1227 0
27 -1182 1228 0
-1183 1228 0
27 -1183 1229 0
-1184 1229 0
27 -1184 1230 0
-1185 1230 0
27 -1185 1231 0
-1186 1231 0
27 -1186 1232 0
-1187 1232 0
27 -1187 1233 0
-1188 1233 0
27 -1188 1234 0
-1189 1234 0
27 -1189 1235 0
-1190 1235 0
27 -1190 1236 0
-1191 1236 0
27 -1191 1237 0
-1192 1237 0
27 -1192 1238 0
-1193 1238 0
27 -1193 1239 0
-1194 1239 0
27 -1194 1240 0
-1195 1240 0
27 -1195 1241 0
-1196 1241 0
27 -1196 1242 0
-1197 1242 0
27 -1197 1243 0
-1198 1243 0
27 -1198 1244 0
-1199 1244 0
27 -1199 1245 0
-1200 1245 0
27 -1200 1246 0
-1201 1246 0
27 -1201 1247 0
-1202 1247 0
27 -1202 1248 0
-1203 1248 0
27 -1203 1249 0
-1204 1249 0
27 -1204 1250 0
-1205 1250 0
27 -1205 1251 0
-1206 1251 0
27 -1206 1252 0
-1207 1252 0
27 -1207 1253 0
-1208 1253 0
27 -1208 1254 0
-1209 1254 0
27 -1209 1255 0
-1210 1255 0
27 -1210 1256 0
-1211 1256 0
27 -1211 1257 0
-1212 1257 0
27 -1212 1258 0
-1213 1258 0
27 -1213 1259 0
-1214 1259 0
27 -1214 1260 0
-1215 1260 0
27 -1215 1261 0
-1216 1261 0
27 -1216 1262 0
-1217 1262 0
27 -1217 1263 0
-1218 1263 0
27 -1218 1264 0
-1219 1264 0
27 -1219 1265 0
-1220 1265 0
27 -1220 1266 0
-1221 1266 0
27 -1221 1267 0
-1222 1267 0
27 -1222 1268 0
-1223 1268 0
27 -1223 1269 0
-1224 1269 0
27 -1224 0
28 1270 0
-1225 1270 0
28 -1225 1271 0
-1226 1271 0
28 -1226 1272 0
-1227 1272 0
28 -1227 1273 0
-1228 1273 0
28 -1228 1274 0
-1229 1274 0
28 -1229 1275 0
-1230 1275 0
28 -1230 1276 0
-1231 1276 0
28 -1231 1277 0
-1232 1277 0
28 -1232 1278 0
-1233 1278 0
28 -1233 1279 0
-1234 1279 0
28 -1234 1280 0
-1235 1280 0
28 -1235 1281 0
-1236 1281 0
28 -1236 1282 0
-1237 1282 0
28 -1237 1283 0
-1238 1283 0
28 -1238 1284 0
-1239 1284 0
28 -1239 1285 0
-1240 1285 0
28 -1240 1286 0
-1241 1286 0
28 -1241 1287 0
-1242 1287 0
28 -1242 1288 0
-1243 1288 0
28 -1243 1289 0
-1244 1289 0
28 -1244 1290 0
-1245 1290 0
28 -1245 1291 0
-1246 1291 0
28 -1246 1292 0
-1247 1292 0
28 -1247 1293 0
-1248 1293 0
28 -1248 1294 0
-1249 1294 0
28 -1249 1295 0
-1250 1295 0
28 -1250 1296 0
-1251 1296 0
28 -1251 1297 0
-1252 1297 0
28 -1252 1298 0
-1253 1298 0
28 -1253 1299 0
-1254 1299 0
28 -1254 1300 0
-1255 1300 0
28 -1255 1301 0
-1256 1301 0
28 -1256 1302 0
-1257 1302 0
28 -1257 1303 0
-1258 1303 0
28 -1258 1304 0
-1259 1304 0
28 -1259 1305 0
-1260 1305 0
28 -1260 1306 0
-1261 1306 0
28 -1261 1307 0
-1262 1307 0
28 -1262 1308 0
-1263 1308 0
28 -1263 1309 0
-1264 1309 0
28 -1264 1310 0
-1265 1310 0
28 -1265 1311 0
-1266 1311 0
28 -1266 1312 0
-1267 1312 0
28 -1267 1313 0
-1268 1313 0
28 -1268 1314 0
-1269 1314 0
28 -1269 0
29 1315 0
-1270 1315 0
29 -1270 1316 0
-1271 1316 0
29 -1271 1317 0
-1272 1317 0
29 -1272 1318 0
-1273 1318 0
29 -1273 1319 0
-1274 1319 0
29 -1274 1320 0
-1275 1320 0
29 -1275 1321 0
-1276 1321 0
29 -1276 1322 0
-1277 1322 0
29 -1277 1323 0
-1278 1323 0
29 -1278 1324 0
-1279 1324 0
29 -1279 1325 0
-1280 1325 0
29 -1280 1326 0
-1281 1326 0
29 -1281 1327 0
-1282 1327 0
29 -1282 1328 0
-1283 1328 0
29 -1283 1329 0
-1284 1329 0
29 -1284 1330 0
-1285 1330 0
29 -1285 1331 0
-1286 1331 0
29 -1286 1332 0
-1287 1332 0
29 -1287 1333 0
-1288 1333 0
29 -1288 1334 0
-1289 1334 0
29 -1289 1335 0
-1290 1335 0
29 -1290 1336 0
-1291 1336 0
29 -1291 1337 0
-1292 1337 0
29 -1292 1338 0
-1293 1338 0
29 -1293 1339 0
-1294 1339 0
29 -1294 1340 0
-1295 1340 0
29 -1295 1341 0
-1296 1341 0
29 -1296 1342 0
-1297 1342 0
29 -1297 1343 0
-1298 1343 0
29 -1298 1344 0
-1299 1344 0
29 -1299 1345 0
-1300 1345 0
29 -1300 1346 0
-1301 1346 0
29 -1301 1347 0
-1302 1347 0
29 -1302 1348 0
-1303 1348 0
29 -1303 1349 0
-1304 1349 0
29 -1304 1350 0
-1305 1350 0
29 -1305 1351 0
-1306 1351 0
29 -1306 1352 0
-1307 1352 0
29 -1307 1353 0
-1308 1353 0
29 -1308 1354 0
-1309 1354 0
29 -1309 1355 0
-1310 1355 0
29 -1310 1356 0
-1311 1356 0
29 -1311 1357 0
-1312 1357 0
29 -1312 1358 0
-1313 1358 0
29 -1313 1359 0
-1314 1359 0
29 -1314 0
30 1360 0
-1315 1360 0
30 -1315 1361 0
-1316 1361 0
30 -1316 1362 0
-1317 1362 0
30 -1317 1363 0
-1318 1363 0
30 -1318 1364 0
-1319 1364 0
30 -1319 1365 0
-1320 1365 0
30 -1320 1366 0
-1321 1366 0
30 -1321 1367 0
-1322 1367 0
30 -1322 1368 0
-1323 1368 0
30 -1323 1369 0
-1324 1369 0
30 -1324 1370 0
-1325 1370 0
30 -1325 1371 0
-1326 1371 0
30 -1326 1372 0
-1327 1372 0
30 -1327 1373 0
-1328 1373 0
30 -1328 1374 0
-1329 1374 0
30 -1329 1375 0
-1330 1375 0
30 -1330 1376 0
-1331 1376 0
30 -1331 1377 0
-1332 1377 0
30 -1332 1378 0
-1333 1378 0
30 -1333 1379 0
-1334 1379 0
30 -1334 1380 0
-1335 1380 0
30 -1335 1381 0
-1336 1381 0
30 -1336 1382 0
-1337 1382 0
30 -1337 1383 0
-1338 1383 0
30 -1338 1384 0
-1339 1384 0
30 -1339 1385 0
-1340 1385 0
30 -1340 1386 0
-1341 1386 0
30 -1341 1387 0
-1342 1387 0
30 -1342 1388 0
-1343 1388 0
30 -1343 1389 0
-1344 1389 0
30 -1344 1390 0
-1345 1390 0
30 -1345 1391 0
-1346 1391 0
30 -1346 1392 0
-1347 1392 0
30 -1347 1393 0
-1348 1393 0
30 -1348 1394 0
-1349 1394 0
30 -1349 1395 0
-1350 1395 0
30 -1350 1396 0
-1351 1396 0
30 -1351 1397 0
-1352 1397 0
30 -1352 1398 0
-1353 1398 0
30 -1353 1399 0
-1354 1399 0
30 -1354 1400 0
-1355 1400 0
30 -1355 1401 0
-1356 1401 0
30 -1356 1402 0
-1357 1402 0
30 -1357 1403 0
-1358 1403 0
30 -1358 1404 0
-1359 1404 0
30 -1359 0
31 1405 0
-1360 1405 0
31 -1360 1406 0
-1361 1406 0
31 -1361 1407 0
-1362 1407 0
31 -1362 1408 0
-1363 1408 0
31 -1363 1409 0
-1364 1409 0
31 -1364 1410 0
-1365 1410 0
31 -1365 1411 0
-1366 1411 0
31 -1366 1412 0
-1367 1412 0
31 -1367 1413 0
-1368 1413 0
31 -1368 1414 0
-1369 1414 0
31 -1369 1415 0
-1370 1415 0
31 -1370 1416 0
-1371 1416 0
31 -1371 1417 0
-1372 1417 0
31 -1372 1418 0
-1373 1418 0
31 -1373 1419 0
-1374 1419 0
31 -1374 1420 0
-1375 1420 0
31 -1375 1421 0
-1376 1421 0
31 -1376 1422 0
-1377 1422 0
31 -1377 1423 0
-1378 1423 0
31 -1378 1424 0
-1379 1424 0
31 -1379 1425 0
-1380 1425 0
31 -1380 1426 0
-1381 1426 0
31 -1381 1427 0
-1382 1427 0
31 -1382 1428 0
-1383 1428 0
31 -1383 1429 0
-1384 1429 0
31 -1384 1430 0
-1385 1430 0
31 -1385 1431 0
-1386 1431 0
31 -1386 1432 0
-1387 1432 0
31 -1387 1433 0
-1388 1433 0
31 -1388 1434 0
-1389 1434 0
31 -1389 1435 0
-1390 1435 0
31 -1390 1436 0
-1391 1436 0
31 -1391 1437 0
-1392 1437 0
31 -1392 1438 0
-1393 1438 0
31 -1393 1439 0
-1394 1439 0
31 -1394 1440 0
-1395 1440 0
31 -1395 1441 0
-1396 1441 0
31 -1396 1442 0
-1397 1442 0
31 -1397 1443 0
-1398 1443 0
31 -1398 1444 0
-1399 1444 0
31 -1399 1445 0
-1400 1445 0
31 -1400 1446 0
-1401 1446 0
31 -1401 1447 0
-1402 1447 0
31 -1402 1448 0
-1403 1448 0
31 -1403 1449 0
-1404 1449 0
31 -1404 0
32 1450 0
-1405 1450 0
32 -1405 1451 0
-1406 1451 0
32 -1406 1452 0
-1407 1452 0
32 -1407 1453 0
-1408 1453 0
32 -1408 1454 0
-1409 1454 0
32 -1409 1455 0
-1410 1455 0
32 -1410 1456 0
-1411 1456 0
32 -1411 1457 0
-1412 1457 0
32 -1412 1458 0
-1413 1458 0
32 -1413 1459 0
-1414 1459 0
32 -1414 1460 0
-1415 1460 0
32 -1415 1461 0
-1416 1461 0
32 -1416 1462 0
-1417 1462 0
32 -1417 1463 0
-1418 1463 0
32 -1418 1464 0
-1419 1464 0
32 -1419 1465 0
-1420 1465 0
32 -1420 1466 0
-1421 1466 0
32 -1421 1467 0
-1422 1467 0
32 -1422 1468 0
-1423 1468 0
32 -1423 1469 0
-1424 1469 0
32 -1424 1470 0
-1425 1470 0
32 -1425 1471 0
-1426 1471 0
32 -1426 1472 0
-1427 1472 0
32 -1427 1473 0
-1428 1473 0
32 -1428 1474 0
-1429 1474 0
32 -1429 1475 0
-1430 1475 0
32 -1430 1476 0
-1431 1476 0
32 -1431 1477 0
-1432 1477 0
32 -1432 1478 0
-1433 1478 0
32 -1433 1479 0
-1434 1479 0
32 -1434 1480 0
-1435 1480 0
32 -1435 1481 0
-1436 1481 0
32 -1436 1482 0
-1437 1482 0
32 -1437 1483 0
-1438 1483 0
32 -1438 1484 0
-1439 1484 0
32 -1439 1485 0
-1440 1485 0
32 -1440 1486 0
-1441 1486 0
32 -1441 1487 0
-1442 1487 0
32 -1442 1488 0
-1443 1488 0
32 -1443 1489 0
-1444 1489 0
32 -1444 1490 0
-1445 1490 0
32 -1445 1491 0
-1446 1491 0
32 -1446 1492 0
-1447 1492 0
32 -1447 1493 0
-1448 1493 0
32 -1448 1494 0
-1449 1494 0
32 -1449 0
33 1495 0
-1450 1495 0
33 -1450 1496 0
-1451 1496 0
33 -1451 1497 0
-1452 1497 0
33 -1452 1498 0
-1453 1498 0
33 -1453 1499 0
-1454 1499 0
33 -1454 1500 0
-1455 1500 0
33 -1455 1501 0
-1456 1501 0
33 -1456 1502 0
-1457 1502 0
33 -1457 1503 0
-1458 1503 0
33 -1458 1504 0
-1459 1504 0
33 -1459 1505 0
-1460 1505 0
33 -1460 1506 0
-1461 1506 0
33 -1461 1507 0
-1462 1507 0
33 -1462 1508 0
-1463 1508 0
33 -1463 1509 0
-1464 1509 0
33 -1464 1510 0
-1465 1510 0
33 -1465 1511 0
-1466 1511 0
33 -1466 1512 0
-1467 1512 0
33 -1467 1513 0
-1468 1513 0
33 -1468 1514 0
-1469 1514 0
33 -1469 1515 0
-1470 1515 0
33 -1470 1516 0
-1471 1516 0
33 -1471 1517 0
-1472 1517 0
33 -1472 1518 0
-1473 1518 0
33 -1473 1519 0
-1474 1519 0
33 -1474 1520 0
-1475 1520 0
33 -1475 1521 0
-1476 1521 0
33 -1476 1522 0
-1477 1522 0
33 -1477 1523 0
-1478 1523 0
33 -1478 1524 0
-1479 1524 0
33 -1479 1525 0
-1480 1525 0
33 -1480 1526 0
-1481 1526 0
33 -1481 1527 0
-1482 1527 0
33 -1482 1528 0
-1483 1528 0
33 -1483 1529 0
-1484 1529 0
33 -1484 1530 0
-1485 1530 0
33 -1485 1531 0
-1486 1531 0
33 -1486 1532 0
-1487 1532 0
33 -1487 1533 0
-1488 1533 0
33 -1488 1534 0
-1489 1534 0
33 -1489 1535 0
-1490 1535 0
33 -1490 1536 0
-1491 1536 0
33 -1491 1537 0
-1492 1537 0
33 -1492 1538 0
-1493 1538 0
33 -1493 1539 0
-1494 1539 0
33 -1494 0
34 1540 0
-1495 1540 0
34 -1495 1541 0
-1496 1541 0
34 -1496 1542 0
-1497 1542 0
34 -1497 1543 0
-1498 1543 0
34 -1498 1544 0
-1499 1544 0
34 -1499 1545 0
-1500 1545 0
34 -1500 1546 0
-1501 1546 0
34 -1501 1547 0
-1502 1547 0
34 -1502 1548 0
-1503 1548 0
34 -1503 1549 0
-1504 1549 0
34 -1504 1550 0
-1505 1550 0
34 -1505 1551 0
-1506 1551 0
34 -1506 1552 0
-1507 1552 0
34 -1507 1553 0
-1508 1553 0
34 -1508 1554 0
-1509 1554 0
34 -1509 1555 0
-1510 1555 0
34 -1510 1556 0
-1511 1556 0
34 -1511 1557 0
-1512 1557 0
34 -1512 1558 0
-1513 1558 0
34 -1513 1559 0
-1514 1559 0
34 -1514 1560 0
-1515 1560 0
34 -1515 1561 0
-1516 1561 0
34 -1516 1562 0
-1517 1562 0
34 -1517 1563 0
-1518 1563 0
34 -1518 1564 0
-1519 1564 0
34 -1519 1565 0
-1520 1565 0
34 -1520 1566 0
-1521 1566 0
34 -1521 1567 0
-1522 1567 0
34 -1522 1568 0
-1523 1568 0
34 -1523 1569 0
-1524 1569 0
34 -1524 1570 0
-1525 1570 0
34 -1525 1571 0
-1526 1571 0
34 -1526 1572 0
-1527 1572 0
34 -1527 1573 0
-1528 1573 0
34 -1528 1574 0
-1529 1574 0
34 -1529 1575 0
-1530 1575 0
34 -1530 1576 0
-1531 1576 0
34 -1531 1577 0
-1532 1577 0
34 -1532 1578 0
-1533 1578 0
34 -1533 1579 0
-1534 1579 0
34 -1534 1580 0
-1535 1580 0
34 -1535 1581 0
-1536 1581 0
34 -1536 1582 0
-1537 1582 0
34 -1537 1583 0
-1538 1583 0
34 -1538 1584 0
-1539 1584 0
34 -1539 0
35 1585 0
-1540 1585 0
35 -1540 1586 0
-1541 1586 0
35 -1541 1587 0
-1542 1587 0
35 -1542 1588 0
-1543 1588 0
35 -1543 1589 0
-1544 1589 0
35 -1544 1590 0
-1545 1590 0
35 -1545 1591 0
-1546 1591 0
35 -1546 1592 0
-1547 1592 0
35 -1547 1593 0
-1548 1593 0
35 -1548 1594 0
-1549 1594 0
35 -1549 1595 0
-1550 1595 0
35 -1550 1596 0
-1551 1596 0
35 -1551 1597 0
-1552 1597 0
35 -1552 1598 0
-1553 1598 0
35 -1553 1599 0
-1554 1599 0
35 -1554 1600 0
-1555 1600 0
35 -1555 1601 0
-1556 1601 0
35 -1556 1602 0
-1557 1602 0
35 -1557 1603 0
-1558 1603 0
35 -1558 1604 0
-1559 1604 0
35 -1559 1605 0
-1560 1605 0
35 -1560 1606 0
-1561 1606 0
35 -1561 1607 0
-1562 1607 0
35 -1562 1608 0
-1563 1608 0
35 -1563 1609 0
-1564 1609 0
35 -1564 1610 0
-1565 1610 0
35 -1565 1611 0
-1566 1611 0
35 -1566 1612 0
-1567 1612 0
35 -1567 1613 0
-1568 1613 0
35 -1568 1614 0
-1569 1614 0
35 -1569 1615 0
-1570 1615 0
35 -1570 1616 0
-1571 1616 0
35 -1571 1617 0
-1572 1617 0
35 -1572 1618 0
-1573 1618 0
35 -1573 1619 0
-1574 1619 0
35 -1574 1620 0
-1575 1620 0
35 -1575 1621 0
-1576 1621 0
35 -1576 1622 0
-1577 1622 0
35 -1577 1623 0
-1578 1623 0
35 -1578 1624 0
-1579 1624 0
35 -1579 1625 0
-1580 1625 0
35 -1580 1626 0
-1581 1626 0
35 -1581 1627 0
-1582 1627 0
35 -1582 1628 0
-1583 1628 0
35 -1583 1629 0
-1584 1629 0
35 -1584 0
36 1630 0
-1585 1630 0
36 -1585 1631 0
-1586 1631 0
36 -1586 1632 0
-1587 1632 0
36 -1587 1633 0
-1588 1633 0
36 -1588 1634 0
-1589 1634 0
36 -1589 1635 0
-1590 1635 0
36 -1590 1636 0
-1591 1636 0
36 -1591 1637 0
-1592 1637 0
36 -1592 1638 0
-1593 1638 0
36 -1593 1639 0
-1594 1639 0
36 -1594 1640 0
-1595 1640 0
36 -1595 1641 0
-1596 1641 0
36 -1596 1642 0
-1597 1642 0
36 -1597 1643 0
-1598 1643 0
36 -1598 1644 0
-1599 1644 0
36 -1599 1645 0
-1600 1645 0
36 -1600 1646 0
-1601 1646 0
36 -1601 1647 0
-1602 1647 0
36 -1602 1648 0
-1603 1648 0
36 -1603 1649 0
-1604 1649 0
36 -1604 1650 0
-1605 1650 0
36 -1605 1651 0
-1606 1651 0
36 -1606 1652 0
-1607 1652 0
36 -1607 1653 0
-1608 1653 0
36 -1608 1654 0
-1609 1654 0
36 -1609 1655 0
-1610 1655 0
36 -1610 1656 0
-1611 1656 0
36 -1611 1657 0
-1612 1657 0
36 -1612 1658 0
-1613 1658 0
36 -1613 1659 0
-1614 1659 0
36 -1614 1660 0
-1615 1660 0
36 -1615 1661 0
-1616 1661 0
36 -1616 1662 0
-1617 1662 0
36 -1617 1663 0
-1618 1663 0
36 -1618 1664 0
-1619 1664 0
36 -1619 1665 0
-1620 1665 0
36 -1620 1666 0
-1621 1666 0
36 -1621 1667 0
-1622 1667 0
36 -1622 1668 0
-1623 1668 0
36 -1623 1669 0
-1624 1669 0
36 -1624 1670 0
-1625 1670 0
36 -1625 1671 0
-1626 1671 0
36 -1626 1672 0
-1627 1672 0
36 -1627 1673 0
-1628 1673 0
36 -1628 1674 0
-1629 1674 0
36 -1629 0
37 1675 0
-1630 1675 0
37 -1630 1676 0
-1631 1676 0
37 -1631 1677 0
-1632 1677 0
37 -1632 1678 0
-1633 1678 0
37 -1633 1679 0
-1634 1679 0
37 -1634 1680 0
-1635 1680 0
37 -1635 1681 0
-1636 1681 0
37 -1636 1682 0
-1637 1682 0
37 -1637 1683 0
-1638 1683 0
37 -1638 1684 0
-1639 1684 0
37 -1639 1685 0
-1640 1685 0
37 -1640 1686 0
-1641 1686 0
37 -1641 1687 0
-1642 1687 0
37 -1642 1688 0
-1643 1688 0
37 -1643 1689 0
-1644 1689 0
37 -1644 1690 0
-1645 1690 0
37 -1645 1691 0
-1646 1691 0
37 -1646 1692 0
-1647 1692 0
37 -1647 1693 0
-1648 1693 0
37 -1648 1694 0
-1649 1694 0
37 -1649 1695 0
-1650 1695 0
37 -1650 1696 0
-1651 1696 0
37 -1651 1697 0
-1652 1697 0
37 -1652 1698 0
-1653 1698 0
37 -1653 1699 0
-1654 1699 0
37 -1654 1700 0
-1655 1700 0
37 -1655 1701 0
-1656 1701 0
37 -1656 1702 0
-1657 1702 0
37 -1657 1703 0
-1658 1703 0
37 -1658 1704 0
-1659 1704 0
37 -1659 1705 0
-1660 1705 0
37 -1660 1706 0
-1661 1706 0
37 -1661 1707 0
-1662 1707 0
37 -1662 1708 0
-1663 1708 0
37 -1663 1709 0
-1664 1709 0
37 -1664 1710 0
-1665 1710 0
37 -1665 1711 0
-1666 1711 0
37 -1666 1712 0
-1667 1712 0
37 -1667 1713 0
-1668 1713 0
37 -1668 1714 0
-1669 1714 0
37 -1669 1715 0
-1670 1715 0
37 -1670 1716 0
-1671 1716 0
37 -1671 1717 0
-1672 1717 0
37 -1672 1718 0
-1673 1718 0
37 -1673 1719 0
-1674 1719 0
37 -1674 0
38 1720 0
-1675 1720 0
38 -1675 1721 0
-1676 1721 0
38 -1676 1722 0
-1677 1722 0
38 -1677 1723 0
-1678 1723 0
38 -1678 1724 0
-1679 1724 0
38 -1679 1725 0
-1680 1725 0
38 -1680 1726 0
-1681 1726 0
38 -1681 1727 0
-1682 1727 0
38 -1682 1728 0
-1683 1728 0
38 -1683 1729 0
-1684 1729 0
38 -1684 1730 0
-1685 1730 0
38 -1685 1731 0
-1686 1731 0
38 -1686 1732 0
-1687 1732 0
38 -1687 1733 0
-1688 1733 0
38 -1688 1734 0
-1689 1734 0
38 -1689 1735 0
-1690 1735 0
38 -1690 1736 0
-1691 1736 0
38 -1691 1737 0
-1692 1737 0
38 -1692 1738 0
-1693 1738 0
38 -1693 1739 0
-1694 1739 0
38 -1694 1740 0
-1695 1740 0
38 -1695 1741 0
-1696 1741 0
38 -1696 1742 0
-1697 1742 0
38 -1697 1743 0
-1698 1743 0
38 -1698 1744 0
-1699 1744 0
38 -1699 1745 0
-1700 1745 0
38 -1700 1746 0
-1701 1746 0
38 -1701 1747 0
-1702 1747 0
38 -1702 1748 0
-1703 1748 0
38 -1703 1749 0
-1704 1749 0
38 -1704 1750 0
-1705 1750 0
38 -1705 1751 0
-1706 1751 0
38 -1706 1752 0
-1707 1752 0
38 -1707 1753 0
-1708 1753 0
38 -1708 1754 0
-1709 1754 0
38 -1709 1755 0
-1710 1755 0
38 -1710 1756 0
-1711 1756 0
38 -1711 1757 0
-1712 1757 0
38 -1712 1758 0
-1713 1758 0
38 -1713 1759 0
-1714 1759 0
38 -1714 1760 0
-1715 1760 0
38 -1715 1761 0
-1716 1761 0
38 -1716 1762 0
-1717 1762 0
38 -1717 1763 0
-1718 1763 0
38 -1718 1764 0
-1719 1764 0
38 -1719 0
39 1765 0
-1720 1765 0
39 -1720 1766 0
-1721 1766 0
39 -1721 1767 0
-1722 1767 0
39 -1722 1768 0
-1723 1768 0
39 -1723 1769 0
-1724 1769 0
39 -1724 1770 0
-1725 1770 0
39 -1725 1771 0
-1726 1771 0
39 -1726 1772 0
-1727 1772 0
39 -1727 1773 0
-1728 1773 0
39 -1728 1774 0
-1729 1774 0
39 -1729 1775 0
-1730 1775 0
39 -1730 1776 0
-1731 1776 0
39 -1731 1777 0
-1732 1777 0
39 -1732 1778 0
-1733 1778 0
39 -1733 1779 0
-1734 1779 0
39 -1734 1780 0
-1735 1780 0
39 -1735 1781 0
-1736 1781 0
39 -1736 1782 0
-1737 1782 0
39 -1737 1783 0
-1738 1783 0
39 -1738 1784 0
-1739 1784 0
39 -1739 1785 0
-1740 1785 0
39 -1740 1786 0
-1741 1786 0
39 -1741 1787 0
-1742 1787 0
39 -1742 1788 0
-1743 1788 0
39 -1743 1789 0
-1744 1789 0
39 -1744 1790 0
-1745 1790 0
39 -1745 1791 0
-1746 1791 0
39 -1746 1792 0
-1747 1792 0
39 -1747 1793 0
-1748 1793 0
39 -1748 1794 0
-1749 1794 0
39 -1749 1795 0
-1750 1795 0
39 -1750 1796 0
-1751 1796 0
39 -1751 1797 0
-1752 1797 0
39 -1752 1798 0
-1753 1798 0
39 -1753 1799 0
-1754 1799 0
39 -1754 1800 0
-1755 1800 0
39 -1755 1801 0
-1756 1801 0
39 -1756 1802 0
-1757 1802 0
39 -1757 1803 0
-1758 1803 0
39 -1758 1804 0
-1759 1804 0
39 -1759 1805 0
-1760 1805 0
39 -1760 1806 0
-1761 1806 0
39 -1761 1807 0
-1762 1807 0
39 -1762 1808 0
-1763 1808 0
39 -1763 1809 0
-1764 1809 0
39 -1764 0
40 1810 0
-1765 1810 0
40 -1765 1811 0
-1766 1811 0
40 -1766 1812 0
-1767 1812 0
40 -1767 1813 0
-1768 1813 0
40 -1768 1814 0
-1769 1814 0
40 -1769 1815 0
-1770 1815 0
40 -1770 1816 0
-1771 1816 0
40 -1771 1817 0
-1772 1817 0
40 -1772 1818 0
-1773 1818 0
40 -1773 1819 0
-1774 1819 0
40 -1774 1820 0
-1775 1820 0
40 -1775 1821 0
-1776 1821 0
40 -1776 1822 0
-1777 1822 0
40 -1777 1823 0
-1778 1823 0
40 -1778 1824 0
-1779 1824 0
40 -1779 1825 0
-1780 1825 0
40 -1780 1826 0
-1781 1826 0
40 -1781 1827 0
-1782 1827 0
40 -1782 1828 0
-1783 1828 0
40 -1783 1829 0
-1784 1829 0
40 -1784 1830 0
-1785 1830 0
40 -1785 1831 0
-1786 1831 0
40 -1786 1832 0
-1787 1832 0
40 -1787 1833 0
-1788 1833 0
40 -1788 1834 0
-1789 1834 0
40 -1789 1835 0
-1790 1835 0
40 -1790 1836 0
-1791 1836 0
40 -1791 1837 0
-1792 1837 0
40 -1792 1838 0
-1793 1838 0
40 -1793 1839 0
-1794 1839 0
40 -1794 1840 0
-1795 1840 0
40 -1795 1841 0
-1796 1841 0
40 -1796 1842 0
-1797 1842 0
40 -1797 1843 0
-1798 1843 0
40 -1798 1844 0
-1799 1844 0
40 -1799 1845 0
-1800 1845 0
40 -1800 1846 0
-1801 1846 0
40 -1801 1847 0
-1802 1847 0
40 -1802 1848 0
-1803 1848 0
40 -1803 1849 0
-1804 1849 0
40 -1804 1850 0
-1805 1850 0
40 -1805 1851 0
-1806 1851 0
40 -1806 1852 0
-1807 1852 0
40 -1807 1853 0
-1808 1853 0
40 -1808 1854 0
-1809 1854 0
40 -1809 0
41 1855 0
-1810 1855 0
41 -1810 1856 0
-1811 1856 0
41 -1811 1857 0
-1812 1857 0
41 -1812 1858 0
-1813 1858 0
41 -1813 1859 0
-1814 1859 0
41 -1814 1860 0
-1815 1860 0
41 -1815 1861 0
-1816 1861 0
41 -1816 1862 0
-1817 1862 0
41 -1817 1863 0
-1818 1863 0
41 -1818 1864 0
-1819 1864 0
41 -1819 1865 0
-1820 1865 0
41 -1820 1866 0
-1821 1866 0
41 -1821 1867 0
-1822 1867 0
41 -1822 1868 0
-1823 1868 0
41 -1823 1869 0
-1824 1869 0
41 -1824 1870 0
-1825 1870 0
41 -1825 1871 0
-1826 1871 0
41 -1826 1872 0
-1827 1872 0
41 -1827 1873 0
-1828 1873 0
41 -1828 1874 0
-1829 1874 0
41 -1829 1875 0
-1830 1875 0
41 -1830 1876 0
-1831 1876 0
41 -1831 1877 0
-1832 1877 0
41 -1832 1878 0
-1833 1878 0
41 -1833 1879 0
-1834 1879 0
41 -1834 1880 0
-1835 1880 0
41 -1835 1881 0
-1836 1881 0
41 -1836 1882 0
-1837 1882 0
41 -1837 1883 0
-1838 1883 0
41 -1838 1884 0
-1839 1884 0
41 -1839 1885 0
-1840 1885 0
41 -1840 1886 0
-1841 1886 0
41 -1841 1887 0
-1842 1887 0
41 -1842 1888 0
-1843 1888 0
41 -1843 1889 0
-1844 1889 0
41 -1844 1890 0
-1845 1890 0
41 -1845 1891 0
-1846 1891 0
41 -1846 1892 0
-1847 1892 0
41 -1847 1893 0
-1848 1893 0
41 -1848 1894 0
-1849 1894 0
41 -1849 1895 0
-1850 1895 0
41 -1850 1896 0
-1851 1896 0
41 -1851 1897 0
-1852 1897 0
41 -1852 1898 0
-1853 1898 0
41 -1853 1899 0
-1854 1899 0
41 -1854 0
42 1900 0
-1855 1900 0
42 -1855 1901 0
-1856 1901 0
42 -1856 1902 0
-1857 1902 0
42 -1857 1903 0
-1858 1903 0
42 -1858 1904 0
-1859 1904 0
42 -1859 1905 0
-1860 1905 0
42 -1860 1906 0
-1861 1906 0
42 -1861 1907 0
-1862 1907 0
42 -1862 1908 0
-1863 1908 0
42 -1863 1909 0
-1864 1909 0
42 -1864 1910 0
-1865 1910 0
42 -1865 1911 0
-1866 1911 0
42 -1866 1912 0
-1867 1912 0
42 -1867 1913 0
-1868 1913 0
42 -1868 1914 0
-1869 1914 0
42 -1869 1915 0
-1870 1915 0
42 -1870 1916 0
-1871 1916 0
42 -1871 1917 0
-1872 1917 0
42 -1872 1918 0
-1873 1918 0
42 -1873 1919 0
-1874 1919 0
42 -1874 1920 0
-1875 1920 0
42 -1875 1921 0
-1876 1921 0
42 -1876 1922 0
-1877 1922 0
42 -1877 1923 0
-1878 1923 0
42 -1878 1924 0
-1879 1924 0
42 -1879 1925 0
-1880 1925 0
42 -1880 1926 0
-1881 1926 0
42 -1881 1927 0
-1882 1927 0
42 -1882 1928 0
-1883 1928 0
42 -1883 1929 0
-1884 1929 0
42 -1884 1930 0
-1885 1930 0
42 -1885 1931 0
-1886 1931 0
42 -1886 1932 0
-1887 1932 0
42 -1887 1933 0
-1888 1933 0
42 -1888 1934 0
-1889 1934 0
42 -1889 1935 0
-1890 1935 0
42 -1890 1936 0
-1891 1936 0
42 -1891 1937 0
-1892 1937 0
42 -1892 1938 0
-1893 1938 0
42 -1893 1939 0
-1894 1939 0
42 -1894 1940 0
-1895 1940 0
42 -1895 1941 0
-1896 1941 0
42 -1896 1942 0
-1897 1942 0
42 -1897 1943 0
-1898 1943 0
42 -1898 1944 0
-1899 1944 0
42 -1899 0
43 1945 0
-1900 1945 0
43 -1900 1946 0
-1901 1946 0
43 -1901 1947 0
-1902 1947 0
43 -1902 1948 0
-1903 1948 0
43 -1903 1949 0
-1904 1949 0
43 -1904 1950 0
-1905 1950 0
43 -1905 1951 0
-1906 1951 0
43 -1906 1952 0
-1907 1952 0
43 -1907 1953 0
-1908 1953 0
43 -1908 1954 0
-1909 1954 0
43 -1909 1955 0
-1910 1955 0
43 -1910 1956 0
-1911 1956 0
43 -1911 1957 0
-1912 1957 0
43 -1912 1958 0
-1913 1958 0
43 -1913 1959 0
-1914 1959 0
43 -1914 1960 0
-1915 1960 0
43 -1915 1961 0
-1916 1961 0
43 -1916 1962 0
-1917 1962 0
43 -1917 1963 0
-1918 1963 0
43 -1918 1964 0
-1919 1964 0
43 -1919 1965 0
-1920 1965 0
43 -1920 1966 0
-1921 1966 0
43 -1921 1967 0
-1922 1967 0
43 -1922 1968 0
-1923 1968 0
43 -1923 1969 0
-1924 1969 0
43 -1924 1970 0
-1925 1970 0
43 -1925 1971 0
-1926 1971 0
43 -1926 1972 0
-1927 1972 0
43 -1927 1973 0
-1928 1973 0
43 -1928 1974 0
-1929 1974 0
43 -1929 1975 0
-1930 1975 0
43 -1930 1976 0
-1931 1976 0
43 -1931 1977 0
-1932 1977 0
43 -1932 1978 0
-1933 1978 0
43 -1933 1979 0
-1934 1979 0
43 -1934 1980 0
-1935 1980 0
43 -1935 1981 0
-1936 1981 0
43 -1936 1982 0
-1937 1982 0
43 -1937 1983 0
-1938 1983 0
43 -1938 1984 0
-1939 1984 0
43 -1939 1985 0
-1940 1985 0
43 -1940 1986 0
-1941 1986 0
43 -1941 1987 0
-1942 1987 0
43 -1942 1988 0
-1943 1988 0
43 -1943 1989 0
-1944 1989 0
43 -1944 0
44 1990 0
-1945 1990 0
44 -1945 1991 0
-1946 1991 0
44 -1946 1992 0
-1947 1992 0
44 -1947 1993 0
-1948 1993 0
44 -1948 1994 0
-1949 1994 0
44 -1949 1995 0
-1950 1995 0
44 -1950 1996 0
-1951 1996 0
44 -1951 1997 0
-1952 1997 0
44 -1952 1998 0
-1953 1998 0
44 -1953 1999 0
-1954 1999 0
44 -1954 2000 0
-1955 2000 0
44 -1955 2001 0
-1956 2001 0
44 -1956 2002 0
-1957 2002 0
44 -1957 2003 0
-1958 2003 0
44 -1958 2004 0
-1959 2004 0
44 -1959 2005 0
-1960 2005 0
44 -1960 2006 0
-1961 2006 0
44 -1961 2007 0
-1962 2007 0
44 -1962 2008 0
-1963 2008 0
44 -1963 2009 0
-1964 2009 0
44 -1964 2010 0
-1965 2010 0
44 -1965 2011 0
-1966 2011 0
44 -1966 2012 0
-1967 2012 0
44 -1967 2013 0
-1968 2013 0
44 -1968 2014 0
-1969 2014 0
44 -1969 2015 0
-1970 2015 0
44 -1970 2016 0
-1971 2016 0
44 -1971 2017 0
-1972 2017 0
44 -1972 2018 0
-1973 2018 0
44 -1973 2019 0
-1974 2019 0
44 -1974 2020 0
-1975 2020 0
44 -1975 2021 0
-1976 2021 0
44 -1976 2022 0
-1977 2022 0
44 -1977 2023 0
-1978 2023 0
44 -1978 2024 0
-1979 2024 0
44 -1979 2025 0
-1980 2025 0
44 -1980 2026 0
-1981 2026 0
44 -1981 2027 0
-1982 2027 0
44 -1982 2028 0
-1983 2028 0
44 -1983 2029 0
-1984 2029 0
44 -1984 2030 0
-1985 2030 0
44 -1985 2031 0
-1986 2031 0
44 -1986 2032 0
-1987 2032 0
44 -1987 2033 0
-1988 2033 0
44 -1988 2034 0
-1989 2034 0
44 -1989 0
45 2035 0
-1990 2035 0
45 -1990 2036 0
-1991 2036 0
45 -1991 2037 0
-1992 2037 0
45 -1992 2038 0
-1993 2038 0
45 -1993 2039 0
-1994 2039 0
45 -1994 2040 0
-1995 2040 0
45 -1995 2041 0
-1996 2041 0
45 -1996 2042 0
-1997 2042 0
45 -1997 2043 0
-1998 2043 0
45 -1998 2044 0
-1999 2044 0
45 -1999 2045 0
-2000 2045 0
45 -2000 2046 0
-2001 2046 0
45 -2001 2047 0
-2002 2047 0
45 -2002 2048 0
-2003 2048 0
45 -2003 2049 0
-2004 2049 0
45 -2004 2050 0
-2005 2050 0
45 -2005 2051 0
-2006 2051 0
45 -2006 2052 0
-2007 2052 0
45 -2007 2053 0
-2008 2053 0
45 -2008 2054 0
-2009 2054 0
45 -2009 2055 0
-2010 2055 0
45 -2010 2056 0
-2011 2056 0
45 -2011 2057 0
-2012 2057 0
45 -2012 2058 0
-2013 2058 0
45 -2013 2059 0
-2014 2059 0
45 -2014 2060 0
-2015 2060 0
45 -2015 2061 0
-2016 2061 0
45 -2016 2062 0
-2017 2062 0
45 -2017 2063 0
-2018 2063 0
45 -2018 2064 0
-2019 2064 0
45 -2019 2065 0
-2020 2065 0
45 -2020 2066 0
-2021 2066 0
45 -2021 2067 0
-2022 2067 0
45 -2022 2068 0
-2023 2068 0
45 -2023 2069 0
-2024 2069 0
45 -2024 2070 0
-2025 2070 0
45 -2025 2071 0
-2026 2071 0
45 -2026 2072 0
-2027 2072 0
45 -2027 2073 0
-2028 2073 0
45 -2028 2074 0
-2029 2074 0
45 -2029 2075 0
-2030 2075 0
45 -2030 2076 0
-2031 2076 0
45 -2031 2077 0
-2032 2077 0
45 -2032 2078 0
-2033 2078 0
45 -2033 2079 0
-2034 2079 0
45 -2034 0
46 2080 0
-2035 2080 0
46 -2035 2081 0
-2036 2081 0
46 -2036 2082 0
-2037 2082 0
46 -2037 2083 0
-2038 2083 0
46 -2038 2084 0
-2039 2084 0
46 -2039 2085 0
-2040 2085 0
46 -2040 2086 0
-2041 2086 0
46 -2041 2087 0
-2042 2087 0
46 -2042 2088 0
-2043 2088 0
46 -2043 2089 0
-2044 2089 0
46 -2044 2090 0
-2045 2090 0
46 -2045 2091 0
-2046 2091 0
46 -2046 2092 0
-2047 2092 0
46 -2047 2093 0
-2048 2093 0
46 -2048 2094 0
-2049 2094 0
46 -2049 2095 0
-2050 2095 0
46 -2050 2096 0
-2051 2096 0
46 -2051 2097 0
-2052 2097 0
46 -2052 2098 0
-2053 2098 0
46 -2053 2099 0
-2054 2099 0
46 -2054 2100 0
-2055 2100 0
46 -2055 2101 0
-2056 2101 0
46 -2056 2102 0
-2057 2102 0
46 -2057 2103 0
-2058 2103 0
46 -2058 2104 0
-2059 2104 0
46 -2059 2105 0
-2060 2105 0
46 -2060 2106 0
-2061 2106 0
46 -2061 2107 0
-2062 2107 0
46 -2062 2108 0
-2063 2108 0
46 -2063 2109 0
-2064 2109 0
46 -2064 2110 0
-2065 2110 0
46 -2065 2111 0
-2066 2111 0
46 -2066 2112 0
-2067 2112 0
46 -2067 2113 0
-2068 2113 0
46 -2068 2114 0
-2069 2114 0
46 -2069 2115 0
-2070 2115 0
46 -2070 2116 0
-2071 2116 0
46 -2071 2117 0
-2072 2117 0
46 -2072 2118 0
-2073 2118 0
46 -2073 2119 0
-2074 2119 0
46 -2074 2120 0
-2075 2120 0
46 -2075 2121 0
-2076 2121 0
46 -2076 2122 0
-2077 2122 0
46 -2077 2123 0
-2078 2123 0
46 -2078 2124 0
-2079 2124 0
46 -2079 0
47 2125 0
-2080 2125 0
47 -2080 2126 0
-2081 2126 0
47 -2081 2127 0
-2082 2127 0
47 -2082 2128 0
-2083 2128 0
47 -2083 2129 0
-2084 2129 0
47 -2084 2130 0
-2085 2130 0
47 -2085 2131 0
-2086 2131 0
47 -2086 2132 0
-2087 2132 0
47 -2087 2133 0
-2088 2133 0
47 -2088 2134 0
-2089 2134 0
47 -2089 2135 0
-2090 2135 0
47 -2090 2136 0
-2091 2136 0
47 -2091 2137 0
-2092 2137 0
47 -2092 2138 0
-2093 2138 0
47 -2093 2139 0
-2094 2139 0
47 -2094 2140 0
-2095 2140 0
47 -2095 2141 0
-2096 2141 0
47 -2096 2142 0
-2097 2142 0
47 -2097 2143 0
-2098 2143 0
47 -2098 2144 0
-2099 2144 0
47 -2099 2145 0
-2100 2145 0
47 -2100 2146 0
-2101 2146 0
47 -2101 2147 0
-2102 2147 0
47 -2102 2148 0
-2103 2148 0
47 -2103 2149 0
-2104 2149 0
47 -2104 2150 0
-2105 2150 0
47 -2105 2151 0
-2106 2151 0
47 -2106 2152 0
-2107 2152 0
47 -2107 2153 0
-2108 2153 0
47 -2108 2154 0
-2109 2154 0
47 -2109 2155 0
-2110 2155 0
47 -2110 2156 0
-2111 2156 0
47 -2111 2157 0
-2112 2157 0
47 -2112 2158 0
-2113 2158 0
47 -2113 2159 0
-2114 2159 0
47 -2114 2160 0
-2115 2160 0
47 -2115 2161 0
-2116 2161 0
47 -2116 2162 0
-2117 2162 0
47 -2117 2163 0
-2118 2163 0
47 -2118 2164 0
-2119 2164 0
47 -2119 2165 0
-2120 2165 0
47 -2120 2166 0
-2121 2166 0
47 -2121 2167 0
-2122 2167 0
47 -2122 2168 0
-2123 2168 0
47 -2123 2169 0
-2124 2169 0
47 -2124 0
48 2170 0
-2125 2170 0
48 -2125 2171 0
-2126 2171 0
48 -2126 2172 0
-2127 2172 0
48 -2127 2173 0
-2128 2173 0
48 -2128 2174 0
-2129 2174 0
48 -2129 2175 0
-2130 2175 0
48 -2130 2176 0
-2131 2176 0
48 -2131 2177 0
-2132 2177 0
48 -2132 2178 0
-2133 2178 0
48 -2133 2179 0
-2134 2179 0
48 -2134 2180 0
-2135 2180 0
48 -2135 2181 0
-2136 2181 0
48 -2136 2182 0
-2137 2182 0
48 -2137 2183 0
-2138 2183 0
48 -2138 2184 0
-2139 2184 0
48 -2139 2185 0
-2140 2185 0
48 -2140 2186 0
-2141 2186 0
48 -2141 2187 0
-2142 2187 0
48 -2142 2188 0
-2143 2188 0
48 -2143 2189 0
-2144 2189 0
48 -2144 2190 0
-2145 2190 0
48 -2145 2191 0
-2146 2191 0
48 -2146 2192 0
-2147 2192 0
48 -2147 2193 0
-2148 2193 0
48 -2148 2194 0
-2149 2194 0
48 -2149 2195 0
-2150 2195 0
48 -2150 2196 0
-2151 2196 0
48 -2151 2197 0
-2152 2197 0
48 -2152 2198 0
-2153 2198 0
48 -2153 2199 0
-2154 2199 0
48 -2154 2200 0
-2155 2200 0
48 -2155 2201 0
-2156 2201 0
48 -2156 2202 0
-2157 2202 0
48 -2157 2203 0
-2158 2203 0
48 -2158 2204 0
-2159 2204 0
48 -2159 2205 0
-2160 2205 0
48 -2160 2206 0
-2161 2206 0
48 -2161 2207 0
-2162 2207 0
48 -2162 2208 0
-2163 2208 0
48 -2163 2209 0
-2164 2209 0
48 -2164 2210 0
-2165 2210 0
48 -2165 2211 0
-2166 2211 0
48 -2166 2212 0
-2167 2212 0
48 -2167 2213 0
-2168 2213 0
48 -2168 2214 0
-2169 2214 0
48 -2169 0
49 2215 0
-2170 2215 0
49 -2170 2216 0
-2171 2216 0
49 -2171 2217 0
-2172 2217 0
49 -2172 2218 0
-2173 2218 0
49 -2173 2219 0
-2174 2219 0
49 -2174 2220 0
-2175 2220 0
49 -2175 2221 0
-2176 2221 0
49 -2176 2222 0
-2177 2222 0
49 -2177 2223 0
-2178 2223 0
49 -2178 2224 0
-2179 2224 0
49 -2179 2225 0
-2180 2225 0
49 -2180 2226 0
-2181 2226 0
49 -2181 2227 0
-2182 2227 0
49 -2182 2228 0
-2183 2228 0
49 -2183 2229 0
-2184 2229 0
49 -2184 2230 0
-2185 2230 0
49 -2185 2231 0
-2186 2231 0
49 -2186 2232 0
-2187 2232 0
49 -2187 2233 0
-2188 2233 0
49 -2188 2234 0
-2189 2234 0
49 -2189 2235 0
-2190 2235 0
49 -2190 2236 0
-2191 2236 0
49 -2191 2237 0
-2192 2237 0
49 -2192 2238 0
-2193 2238 0
49 -2193 2239 0
-2194 2239 0
49 -2194 2240 0
-2195 2240 0
49 -2195 2241 0
-2196 2241 0
49 -2196 2242 0
-2197 2242 0
49 -2197 2243 0
-2198 2243 0
49 -2198 2244 0
-2199 2244 0
49 -2199 2245 0
-2200 2245 0
49 -2200 2246 0
-2201 2246 0
49 -2201 2247 0
-2202 2247 0
49 -2202 2248 0
-2203 2248 0
49 -2203 2249 0
-2204 2249 0
49 -2204 2250 0
-2205 2250 0
49 -2205 2251 0
-2206 2251 0
49 -2206 2252 0
-2207 2252 0
49 -2207 2253 0
-2208 2253 0
49 -2208 2254 0
-2209 2254 0
49 -2209 2255 0
-2210 2255 0
49 -2210 2256 0
-2211 2256 0
49 -2211 2257 0
-2212 2257 0
49 -2212 2258 0
-2213 2258 0
49 -2213 2259 0
-2214 2259 0
49 -2214 0
50 2260 0
-2215 2260 0
50 -2215 2261 0
-2216 2261 0
50 -2216 2262 0
-2217 2262 0
50 -2217 2263 0
-2218 2263 0
50 -2218 2264 0
-2219 2264 0
50 -2219 2265 0
-2220 2265 0
50 -2220 2266 0
-2221 2266 0
50 -2221 2267 0
-2222 2267 0
50 -2222 2268 0
-2223 2268 0
50 -2223 2269 0
-2224 2269 0
50 -2224 2270 0
-2225 2270 0
50 -2225 2271 0
-2226 2271 0
50 -2226 2272 0
-2227 2272 0
50 -2227 2273 0
-2228 2273 0
50 -2228 2274 0
-2229 2274 0
50 -2229 2275 0
-2230 2275 0
50 -2230 2276 0
-2231 2276 0
50 -2231 2277 0
-2232 2277 0
50 -2232 2278 0
-2233 2278 0
50 -2233 2279 0
-2234 2279 0
50 -2234 2280 0
-2235 2280 0
50 -2235 2281 0
-2236 2281 0
50 -2236 2282 0
-2237 2282 0
50 -2237 2283 0
-2238 2283 0
50 -2238 2284 0
-2239 2284 0
50 -2239 2285 0
-2240 2285 0
50 -2240 2286 0
-2241 2286 0
50 -2241 2287 0
-2242 2287 0
50 -2242 2288 0
-2243 2288 0
50 -2243 2289 0
-2244 2289 0
50 -2244 2290 0
-2245 2290 0
50 -2245 2291 0
-2246 2291 0
50 -2246 2292 0
-2247 2292 0
50 -2247 2293 0
-2248 2293 0
50 -2248 2294 0
-2249 2294 0
50 -2249 2295 0
-2250 2295 0
50 -2250 2296 0
-2251 2296 0
50 -2251 2297 0
-2252 2297 0
50 -2252 2298 0
-2253 2298 0
50 -2253 2299 0
-2254 2299 0
50 -2254 2300 0
-2255 2300 0
50 -2255 2301 0
-2256 2301 0
50 -2256 2302 0
-2257 2302 0
50 -2257 2303 0
-2258 2303 0
50 -2258 2304 0
-2259 2304 0
50 -2259 0
51 2305 0
-2260 2305 0
51 -2260 2306 0
-2261 2306 0
51 -2261 2307 0
-2262 2307 0
51 -2262 2308 0
-2263 2308 0
51 -2263 2309 0
-2264 2309 0
51 -2264 2310 0
-2265 2310 0
51 -2265 2311 0
-2266 2311 0
51 -2266 2312 0
-2267 2312 0
51 -2267 2313 0
-2268 2313 0
51 -2268 2314 0
-2269 2314 0
51 -2269 2315 0
-2270 2315 0
51 -2270 2316 0
-2271 2316 0
51 -2271 2317 0
-2272 2317 0
51 -2272 2318 0
-2273 2318 0
51 -2273 2319 0
-2274 2319 0
51 -2274 2320 0
-2275 2320 0
51 -2275 2321 0
-2276 2321 0
51 -2276 2322 0
-2277 2322 0
51 -2277 2323 0
-2278 2323 0
51 -2278 2324 0
-2279 2324 0
51 -2279 2325 0
-2280 2325 0
51 -2280 2326 0
-2281 2326 0
51 -2281 2327 0
-2282 2327 0
51 -2282 2328 0
-2283 2328 0
51 -2283 2329 0
-2284 2329 0
51 -2284 2330 0
-2285 2330 0
51 -2285 2331 0
-2286 2331 0
51 -2286 2332 0
-2287 2332 0
51 -2287 2333 0
-2288 2333 0
51 -2288 2334 0
-2289 2334 0
51 -2289 2335 0
-2290 2335 0
51 -2290 2336 0
-2291 2336 0
51 -2291 2337 0
-2292 2337 0
51 -2292 2338 0
-2293 2338 0
51 -2293 2339 0
-2294 2339 0
51 -2294 2340 0
-2295 2340 0
51 -2295 2341 0
-2296 2341 0
51 -2296 2342 0
-2297 2342 0
51 -2297 2343 0
-2298 2343 0
51 -2298 2344 0
-2299 2344 0
51 -2299 2345 0
-2300 2345 0
51 -2300 2346 0
-2301 2346 0
51 -2301 2347 0
-2302 2347 0
51 -2302 2348 0
-2303 2348 0
51 -2303 2349 0
-2304 2349 0
51 -2304 0
52 2350 0
-2305 2350 0
52 -2305 2351 0
-2306 2351 0
52 -2306 2352 0
-2307 2352 0
52 -2307 2353 0
-2308 2353 0
52 -2308 2354 0
-2309 2354 0
52 -2309 2355 0
-2310 2355 0
52 -2310 2356 0
-2311 2356 0
52 -2311 2357 0
-2312 2357 0
52 -2312 2358 0
-2313 2358 0
52 -2313 2359 0
-2314 2359 0
52 -2314 2360 0
-2315 2360 0
52 -2315 2361 0
-2316 2361 0
52 -2316 2362 0
-2317 2362 0
52 -2317 2363 0
-2318 2363 0
52 -2318 2364 0
-2319 2364 0
52 -2319 2365 0
-2320 2365 0
52 -2320 2366 0
-2321 2366 0
52 -2321 2367 0
-2322 2367 0
52 -2322 2368 0
-2323 2368 0
52 -2323 2369 0
-2324 2369 0
52 -2324 2370 0
-2325 2370 0
52 -2325 2371 0
-2326 2371 0
52 -2326 2372 0
-2327 2372 0
52 -2327 2373 0
-2328 2373 0
52 -2328 2374 0
-2329 2374 0
52 -2329 2375 0
-2330 2375 0
52 -2330 2376 0
-2331 2376 0
52 -2331 2377 0
-2332 2377 0
52 -2332 2378 0
-2333 2378 0
52 -2333 2379 0
-2334 2379 0
52 -2334 2380 0
-2335 2380 0
52 -2335 2381 0
-2336 2381 0
52 -2336 2382 0
-2337 2382 0
52 -2337 2383 0
-2338 2383 0
52 -2338 2384 0
-2339 2384 0
52 -2339 2385 0
-2340 2385 0
52 -2340 2386 0
-2341 2386 0
52 -2341 2387 0
-2342 2387 0
52 -2342 2388 0
-2343 2388 0
52 -2343 2389 0
-2344 2389 0
52 -2344 2390 0
-2345 2390 0
52 -2345 2391 0
-2346 2391 0
52 -2346 2392 0
-2347 2392 0
52 -2347 2393 0
-2348 2393 0
52 -2348 2394 0
-2349 2394 0
52 -2349 0
53 2395 0
-2350 2395 0
53 -2350 2396 0
-2351 2396 0
53 -2351 2397 0
-2352 2397 0
53 -2352 2398 0
-2353 2398 0
53 -2353 2399 0
-2354 2399 0
53 -2354 2400 0
-2355 2400 0
53 -2355 2401 0
-2356 2401 0
53 -2356 2402 0
-2357 2402 0
53 -2357 2403 0
-2358 2403 0
53 -2358 2404 0
-2359 2404 0
53 -2359 2405 0
-2360 2405 0
53 -2360 2406 0
-2361 2406 0
53 -2361 2407 0
-2362 2407 0
53 -2362 2408 0
-2363 2408 0
53 -2363 2409 0
-2364 2409 0
53 -2364 2410 0
-2365 2410 0
53 -2365 2411 0
-2366 2411 0
53 -2366 2412 0
-2367 2412 0
53 -2367 2413 0
-2368 2413 0
53 -2368 2414 0
-2369 2414 0
53 -2369 2415 0
-2370 2415 0
53 -2370 2416 0
-2371 2416 0
53 -2371 2417 0
-2372 2417 0
53 -2372 2418 0
-2373 2418 0
53 -2373 2419 0
-2374 2419 0
53 -2374 2420 0
-2375 2420 0
53 -2375 2421 0
-2376 2421 0
53 -2376 2422 0
-2377 2422 0
53 -2377 2423 0
-2378 2423 0
53 -2378 2424 0
-2379 2424 0
53 -2379 2425 0
-2380 2425 0
53 -2380 2426 0
-2381 2426 0
53 -2381 2427 0
-2382 2427 0
53 -2382 2428 0
-2383 2428 0
53 -2383 2429 0
-2384 2429 0
53 -2384 2430 0
-2385 2430 0
53 -2385 2431 0
-2386 2431 0
53 -2386 2432 0
-2387 2432 0
53 -2387 2433 0
-2388 2433 0
53 -2388 2434 0
-2389 2434 0
53 -2389 2435 0
-2390 2435 0
53 -2390 2436 0
-2391 2436 0
53 -2391 2437 0
-2392 2437 0
53 -2392 2438 0
-2393 2438 0
53 -2393 2439 0
-2394 2439 0
53 -2394 0
54 2440 0
-2395 2440 0
54 -2395 2441 0
-2396 2441 0
54 -2396 2442 0
-2397 2442 0
54 -2397 2443 0
-2398 2443 0
54 -2398 2444 0
-2399 2444 0
54 -2399 2445 0
-2400 2445 0
54 -2400 2446 0
-2401 2446 0
54 -2401 2447 0
-2402 2447 0
54 -2402 2448 0
-2403 2448 0
54 -2403 2449 0
-2404 2449 0
54 -2404 2450 0
-2405 2450 0
54 -2405 2451 0
-2406 2451 0
54 -2406 2452 0
-2407 2452 0
54 -2407 2453 0
-2408 2453 0
54 -2408 2454 0
-2409 2454 0
54 -2409 2455 0
-2410 2455 0
54 -2410 2456 0
-2411 2456 0
54 -2411 2457 0
-2412 2457 0
54 -2412 2458 0
-2413 2458 0
54 -2413 2459 0
-2414 2459 0
54 -2414 2460 0
-2415 2460 0
54 -2415 2461 0
-2416 2461 0
54 -2416 2462 0
-2417 2462 0
54 -2417 2463 0
-2418 2463 0
54 -2418 2464 0
-2419 2464 0
54 -2419 2465 0
-2420 2465 0
54 -2420 2466 0
-2421 2466 0
54 -2421 2467 0
-2422 2467 0
54 -2422 2468 0
-2423 2468 0
54 -2423 2469 0
-2424 2469 0
54 -2424 2470 0
-2425 2470 0
54 -2425 2471 0
-2426 2471 0
54 -2426 2472 0
-2427 2472 0
54 -2427 2473 0
-2428 2473 0
54 -2428 2474 0
-2429 2474 0
54 -2429 2475 0
-2430 2475 0
54 -2430 2476 0
-2431 2476 0
54 -2431 2477 0
-2432 2477 0
54 -2432 2478 0
-2433 2478 0
54 -2433 2479 0
-2434 2479 0
54 -2434 2480 0
-2435 2480 0
54 -2435 2481 0
-2436 2481 0
54 -2436 2482 0
-2437 2482 0
54 -2437 2483 0
-2438 2483 0
54 -2438 2484 0
-2439 2484 0
54 -2439 0
