p cnf 1449 3591
-109 4 43 0
-109 -4 -43 0
109 -4 43 0
109 4 -43 0
-110 109 49 0
-110 -109 -49 0
110 -109 49 0
110 109 -49 0
-111 110 59 0
-111 -110 -59 0
111 -110 59 0
111 110 -59 0
-112 111 60 0
-112 -111 -60 0
112 -111 60 0
112 111 -60 0
-113 112 91 0
-113 -112 -91 0
113 -112 91 0
113 112 -91 0
-113 0
-114 5 44 0
-114 -5 -44 0
114 -5 44 0
114 5 -44 0
-115 114 50 0
-115 -114 -50 0
115 -114 50 0
115 114 -50 0
-116 115 55 0
-116 -115 -55 0
116 -115 55 0
116 115 -55 0
-117 116 60 0
-117 -116 -60 0
117 -116 60 0
117 116 -60 0
-118 117 92 0
-118 -117 -92 0
118 -117 92 0
118 117 -92 0
-118 0
-119 6 45 0
-119 -6 -45 0
119 -6 45 0
119 6 -45 0
-120 119 51 0
-120 -119 -51 0
120 -119 51 0
120 119 -51 0
-121 120 55 0
-121 -120 -55 0
121 -120 55 0
121 120 -55 0
-122 121 56 0
-122 -121 -56 0
122 -121 56 0
122 121 -56 0
-123 122 93 0
-123 -122 -93 0
123 -122 93 0
123 122 -93 0
-123 0
-124 1 46 0
-124 -1 -46 0
124 -1 46 0
124 1 -46 0
-125 124 52 0
-125 -124 -52 0
125 -124 52 0
125 124 -52 0
-126 125 56 0
-126 -125 -56 0
126 -125 56 0
126 125 -56 0
-127 126 57 0
-127 -126 -57 0
127 -126 57 0
127 126 -57 0
-128 127 94 0
-128 -127 -94 0
128 -127 94 0
128 127 -94 0
-128 0
-129 2 47 0
-129 -2 -47 0
129 -2 47 0
129 2 -47 0
-130 129 53 0
-130 -129 -53 0
130 -129 53 0
130 129 -53 0
-131 130 57 0
-131 -130 -57 0
131 -130 57 0
131 130 -57 0
-132 131 58 0
-132 -131 -58 0
132 -131 58 0
132 131 -58 0
-133 132 95 0
-133 -132 -95 0
133 -132 95 0
133 132 -95 0
-133 0
-134 3 48 0
-134 -3 -48 0
134 -3 48 0
134 3 -48 0
-135 134 54 0
-135 -134 -54 0
135 -134 54 0
135 134 -54 0
-136 135 58 0
-136 -135 -58 0
136 -135 58 0
136 135 -58 0
-137 136 59 0
-137 -136 -59 0
137 -136 59 0
137 136 -59 0
-138 137 96 0
-138 -137 -96 0
138 -137 96 0
138 137 -96 0
-138 0
-139 1 10 0
-139 -1 -10 0
139 -1 10 0
139 1 -10 0
-140 139 49 0
-140 -139 -49 0
140 -139 49 0
140 139 -49 0
-141 140 65 0
-141 -140 -65 0
141 -140 65 0
141 140 -65 0
-142 141 66 0
-142 -141 -66 0
142 -141 66 0
142 141 -66 0
-143 142 97 0
-143 -142 -97 0
143 -142 97 0
143 142 -97 0
-143 0
-144 2 11 0
-144 -2 -11 0
144 -2 11 0
144 2 -11 0
-145 144 50 0
-145 -144 -50 0
145 -144 50 0
145 144 -50 0
-146 145 61 0
-146 -145 -61 0
146 -145 61 0
146 145 -61 0
-147 146 66 0
-147 -146 -66 0
147 -146 66 0
147 146 -66 0
-148 147 98 0
-148 -147 -98 0
148 -147 98 0
148 147 -98 0
-148 0
-149 3 12 0
-149 -3 -12 0
149 -3 12 0
149 3 -12 0
-150 149 51 0
-150 -149 -51 0
150 -149 51 0
150 149 -51 0
-151 150 61 0
-151 -150 -61 0
151 -150 61 0
151 150 -61 0
-152 151 62 0
-152 -151 -62 0
152 -151 62 0
152 151 -62 0
-153 152 99 0
-153 -152 -99 0
153 -152 99 0
153 152 -99 0
-153 0
-154 4 7 0
-154 -4 -7 0
154 -4 7 0
154 4 -7 0
-155 154 52 0
-155 -154 -52 0
155 -154 52 0
155 154 -52 0
-156 155 62 0
-156 -155 -62 0
156 -155 62 0
156 155 -62 0
-157 156 63 0
-157 -156 -63 0
157 -156 63 0
157 156 -63 0
-158 157 100 0
-158 -157 -100 0
158 -157 100 0
158 157 -100 0
-158 0
-159 5 8 0
-159 -5 -8 0
159 -5 8 0
159 5 -8 0
-160 159 53 0
-160 -159 -53 0
160 -159 53 0
160 159 -53 0
-161 160 63 0
-161 -160 -63 0
161 -160 63 0
161 160 -63 0
-162 161 64 0
-162 -161 -64 0
162 -161 64 0
162 161 -64 0
-163 162 101 0
-163 -162 -101 0
163 -162 101 0
163 162 -101 0
-163 0
-164 6 9 0
-164 -6 -9 0
164 -6 9 0
164 6 -9 0
-165 164 54 0
-165 -164 -54 0
165 -164 54 0
165 164 -54 0
-166 165 64 0
-166 -165 -64 0
166 -165 64 0
166 165 -64 0
-167 166 65 0
-167 -166 -65 0
167 -166 65 0
167 166 -65 0
-168 167 102 0
-168 -167 -102 0
168 -167 102 0
168 167 -102 0
-168 0
-169 1 7 0
-169 -1 -7 0
169 -1 7 0
169 1 -7 0
-170 169 16 0
-170 -169 -16 0
170 -169 16 0
170 169 -16 0
-171 170 71 0
-171 -170 -71 0
171 -170 71 0
171 170 -71 0
-172 171 72 0
-172 -171 -72 0
172 -171 72 0
172 171 -72 0
-173 172 103 0
-173 -172 -103 0
173 -172 103 0
173 172 -103 0
-173 0
-174 2 8 0
-174 -2 -8 0
174 -2 8 0
174 2 -8 0
-175 174 17 0
-175 -174 -17 0
175 -174 17 0
175 174 -17 0
-176 175 67 0
-176 -175 -67 0
176 -175 67 0
176 175 -67 0
-177 176 72 0
-177 -176 -72 0
177 -176 72 0
177 176 -72 0
-178 177 104 0
-178 -177 -104 0
178 -177 104 0
178 177 -104 0
-178 0
-179 3 9 0
-179 -3 -9 0
179 -3 9 0
179 3 -9 0
-180 179 18 0
-180 -179 -18 0
180 -179 18 0
180 179 -18 0
-181 180 67 0
-181 -180 -67 0
181 -180 67 0
181 180 -67 0
-182 181 68 0
-182 -181 -68 0
182 -181 68 0
182 181 -68 0
-183 182 105 0
-183 -182 -105 0
183 -182 105 0
183 182 -105 0
-183 0
-184 4 10 0
-184 -4 -10 0
184 -4 10 0
184 4 -10 0
-185 184 13 0
-185 -184 -13 0
185 -184 13 0
185 184 -13 0
-186 185 68 0
-186 -185 -68 0
186 -185 68 0
186 185 -68 0
-187 186 69 0
-187 -186 -69 0
187 -186 69 0
187 186 -69 0
-188 187 106 0
-188 -187 -106 0
188 -187 106 0
188 187 -106 0
-188 0
-189 5 11 0
-189 -5 -11 0
189 -5 11 0
189 5 -11 0
-190 189 14 0
-190 -189 -14 0
190 -189 14 0
190 189 -14 0
-191 190 69 0
-191 -190 -69 0
191 -190 69 0
191 190 -69 0
-192 191 70 0
-192 -191 -70 0
192 -191 70 0
192 191 -70 0
-193 192 107 0
-193 -192 -107 0
193 -192 107 0
193 192 -107 0
-193 0
-194 6 12 0
-194 -6 -12 0
194 -6 12 0
194 6 -12 0
-195 194 15 0
-195 -194 -15 0
195 -194 15 0
195 194 -15 0
-196 195 70 0
-196 -195 -70 0
196 -195 70 0
196 195 -70 0
-197 196 71 0
-197 -196 -71 0
197 -196 71 0
197 196 -71 0
-198 197 108 0
-198 -197 -108 0
198 -197 108 0
198 197 -108 0
-198 0
-199 7 13 0
-199 -7 -13 0
199 -7 13 0
199 7 -13 0
-200 199 22 0
-200 -199 -22 0
200 -199 22 0
200 199 -22 0
-201 200 55 0
-201 -200 -55 0
201 -200 55 0
201 200 -55 0
-202 201 77 0
-202 -201 -77 0
202 -201 77 0
202 201 -77 0
-203 202 78 0
-203 -202 -78 0
203 -202 78 0
203 202 -78 0
-203 0
-204 8 14 0
-204 -8 -14 0
204 -8 14 0
204 8 -14 0
-205 204 23 0
-205 -204 -23 0
205 -204 23 0
205 204 -23 0
-206 205 56 0
-206 -205 -56 0
206 -205 56 0
206 205 -56 0
-207 206 73 0
-207 -206 -73 0
207 -206 73 0
207 206 -73 0
-208 207 78 0
-208 -207 -78 0
208 -207 78 0
208 207 -78 0
-208 0
-209 9 15 0
-209 -9 -15 0
209 -9 15 0
209 9 -15 0
-210 209 24 0
-210 -209 -24 0
210 -209 24 0
210 209 -24 0
-211 210 57 0
-211 -210 -57 0
211 -210 57 0
211 210 -57 0
-212 211 73 0
-212 -211 -73 0
212 -211 73 0
212 211 -73 0
-213 212 74 0
-213 -212 -74 0
213 -212 74 0
213 212 -74 0
-213 0
-214 10 16 0
-214 -10 -16 0
214 -10 16 0
214 10 -16 0
-215 214 19 0
-215 -214 -19 0
215 -214 19 0
215 214 -19 0
-216 215 58 0
-216 -215 -58 0
216 -215 58 0
216 215 -58 0
-217 216 74 0
-217 -216 -74 0
217 -216 74 0
217 216 -74 0
-218 217 75 0
-218 -217 -75 0
218 -217 75 0
218 217 -75 0
-218 0
-219 11 17 0
-219 -11 -17 0
219 -11 17 0
219 11 -17 0
-220 219 20 0
-220 -219 -20 0
220 -219 20 0
220 219 -20 0
-221 220 59 0
-221 -220 -59 0
221 -220 59 0
221 220 -59 0
-222 221 75 0
-222 -221 -75 0
222 -221 75 0
222 221 -75 0
-223 222 76 0
-223 -222 -76 0
223 -222 76 0
223 222 -76 0
-223 0
-224 12 18 0
-224 -12 -18 0
224 -12 18 0
224 12 -18 0
-225 224 21 0
-225 -224 -21 0
225 -224 21 0
225 224 -21 0
-226 225 60 0
-226 -225 -60 0
226 -225 60 0
226 225 -60 0
-227 226 76 0
-227 -226 -76 0
227 -226 76 0
227 226 -76 0
-228 227 77 0
-228 -227 -77 0
228 -227 77 0
228 227 -77 0
-228 0
-229 13 19 0
-229 -13 -19 0
229 -13 19 0
229 13 -19 0
-230 229 28 0
-230 -229 -28 0
230 -229 28 0
230 229 -28 0
-231 230 61 0
-231 -230 -61 0
231 -230 61 0
231 230 -61 0
-232 231 83 0
-232 -231 -83 0
232 -231 83 0
232 231 -83 0
-233 232 84 0
-233 -232 -84 0
233 -232 84 0
233 232 -84 0
-233 0
-234 14 20 0
-234 -14 -20 0
234 -14 20 0
234 14 -20 0
-235 234 29 0
-235 -234 -29 0
235 -234 29 0
235 234 -29 0
-236 235 62 0
-236 -235 -62 0
236 -235 62 0
236 235 -62 0
-237 236 79 0
-237 -236 -79 0
237 -236 79 0
237 236 -79 0
-238 237 84 0
-238 -237 -84 0
238 -237 84 0
238 237 -84 0
-238 0
-239 15 21 0
-239 -15 -21 0
239 -15 21 0
239 15 -21 0
-240 239 30 0
-240 -239 -30 0
240 -239 30 0
240 239 -30 0
-241 240 63 0
-241 -240 -63 0
241 -240 63 0
241 240 -63 0
-242 241 79 0
-242 -241 -79 0
242 -241 79 0
242 241 -79 0
-243 242 80 0
-243 -242 -80 0
243 -242 80 0
243 242 -80 0
-243 0
-244 16 22 0
-244 -16 -22 0
244 -16 22 0
244 16 -22 0
-245 244 25 0
-245 -244 -25 0
245 -244 25 0
245 244 -25 0
-246 245 64 0
-246 -245 -64 0
246 -245 64 0
246 245 -64 0
-247 246 80 0
-247 -246 -80 0
247 -246 80 0
247 246 -80 0
-248 247 81 0
-248 -247 -81 0
248 -247 81 0
248 247 -81 0
-248 0
-249 17 23 0
-249 -17 -23 0
249 -17 23 0
249 17 -23 0
-250 249 26 0
-250 -249 -26 0
250 -249 26 0
250 249 -26 0
-251 250 65 0
-251 -250 -65 0
251 -250 65 0
251 250 -65 0
-252 251 81 0
-252 -251 -81 0
252 -251 81 0
252 251 -81 0
-253 252 82 0
-253 -252 -82 0
253 -252 82 0
253 252 -82 0
-253 0
-254 18 24 0
-254 -18 -24 0
254 -18 24 0
254 18 -24 0
-255 254 27 0
-255 -254 -27 0
255 -254 27 0
255 254 -27 0
-256 255 66 0
-256 -255 -66 0
256 -255 66 0
256 255 -66 0
-257 256 82 0
-257 -256 -82 0
257 -256 82 0
257 256 -82 0
-258 257 83 0
-258 -257 -83 0
258 -257 83 0
258 257 -83 0
-258 0
-259 19 25 0
-259 -19 -25 0
259 -19 25 0
259 19 -25 0
-260 259 34 0
-260 -259 -34 0
260 -259 34 0
260 259 -34 0
-261 260 67 0
-261 -260 -67 0
261 -260 67 0
261 260 -67 0
-262 261 89 0
-262 -261 -89 0
262 -261 89 0
262 261 -89 0
-263 262 90 0
-263 -262 -90 0
263 -262 90 0
263 262 -90 0
-263 0
-264 20 26 0
-264 -20 -26 0
264 -20 26 0
264 20 -26 0
-265 264 35 0
-265 -264 -35 0
265 -264 35 0
265 264 -35 0
-266 265 68 0
-266 -265 -68 0
266 -265 68 0
266 265 -68 0
-267 266 85 0
-267 -266 -85 0
267 -266 85 0
267 266 -85 0
-268 267 90 0
-268 -267 -90 0
268 -267 90 0
268 267 -90 0
-268 0
-269 21 27 0
-269 -21 -27 0
269 -21 27 0
269 21 -27 0
-270 269 36 0
-270 -269 -36 0
270 -269 36 0
270 269 -36 0
-271 270 69 0
-271 -270 -69 0
271 -270 69 0
271 270 -69 0
-272 271 85 0
-272 -271 -85 0
272 -271 85 0
272 271 -85 0
-273 272 86 0
-273 -272 -86 0
273 -272 86 0
273 272 -86 0
-273 0
-274 22 28 0
-274 -22 -28 0
274 -22 28 0
274 22 -28 0
-275 274 31 0
-275 -274 -31 0
275 -274 31 0
275 274 -31 0
-276 275 70 0
-276 -275 -70 0
276 -275 70 0
276 275 -70 0
-277 276 86 0
-277 -276 -86 0
277 -276 86 0
277 276 -86 0
-278 277 87 0
-278 -277 -87 0
278 -277 87 0
278 277 -87 0
-278 0
-279 23 29 0
-279 -23 -29 0
279 -23 29 0
279 23 -29 0
-280 279 32 0
-280 -279 -32 0
280 -279 32 0
280 279 -32 0
-281 280 71 0
-281 -280 -71 0
281 -280 71 0
281 280 -71 0
-282 281 87 0
-282 -281 -87 0
282 -281 87 0
282 281 -87 0
-283 282 88 0
-283 -282 -88 0
283 -282 88 0
283 282 -88 0
-283 0
-284 24 30 0
-284 -24 -30 0
284 -24 30 0
284 24 -30 0
-285 284 33 0
-285 -284 -33 0
285 -284 33 0
285 284 -33 0
-286 285 72 0
-286 -285 -72 0
286 -285 72 0
286 285 -72 0
-287 286 88 0
-287 -286 -88 0
287 -286 88 0
287 286 -88 0
-288 287 89 0
-288 -287 -89 0
288 -287 89 0
288 287 -89 0
-288 0
-289 25 31 0
-289 -25 -31 0
289 -25 31 0
289 25 -31 0
-290 289 40 0
-290 -289 -40 0
290 -289 40 0
290 289 -40 0
-291 290 73 0
-291 -290 -73 0
291 -290 73 0
291 290 -73 0
-292 291 95 0
-292 -291 -95 0
292 -291 95 0
292 291 -95 0
-293 292 96 0
-293 -292 -96 0
293 -292 96 0
293 292 -96 0
-293 0
-294 26 32 0
-294 -26 -32 0
294 -26 32 0
294 26 -32 0
-295 294 41 0
-295 -294 -41 0
295 -294 41 0
295 294 -41 0
-296 295 74 0
-296 -295 -74 0
296 -295 74 0
296 295 -74 0
-297 296 91 0
-297 -296 -91 0
297 -296 91 0
297 296 -91 0
-298 297 96 0
-298 -297 -96 0
298 -297 96 0
298 297 -96 0
-298 0
-299 27 33 0
-299 -27 -33 0
299 -27 33 0
299 27 -33 0
-300 299 42 0
-300 -299 -42 0
300 -299 42 0
300 299 -42 0
-301 300 75 0
-301 -300 -75 0
301 -300 75 0
301 300 -75 0
-302 301 91 0
-302 -301 -91 0
302 -301 91 0
302 301 -91 0
-303 302 92 0
-303 -302 -92 0
303 -302 92 0
303 302 -92 0
-303 0
-304 28 34 0
-304 -28 -34 0
304 -28 34 0
304 28 -34 0
-305 304 37 0
-305 -304 -37 0
305 -304 37 0
305 304 -37 0
-306 305 76 0
-306 -305 -76 0
306 -305 76 0
306 305 -76 0
-307 306 92 0
-307 -306 -92 0
307 -306 92 0
307 306 -92 0
-308 307 93 0
-308 -307 -93 0
308 -307 93 0
308 307 -93 0
-308 0
-309 29 35 0
-309 -29 -35 0
309 -29 35 0
309 29 -35 0
-310 309 38 0
-310 -309 -38 0
310 -309 38 0
310 309 -38 0
-311 310 77 0
-311 -310 -77 0
311 -310 77 0
311 310 -77 0
-312 311 93 0
-312 -311 -93 0
312 -311 93 0
312 311 -93 0
-313 312 94 0
-313 -312 -94 0
313 -312 94 0
313 312 -94 0
-313 0
-314 30 36 0
-314 -30 -36 0
314 -30 36 0
314 30 -36 0
-315 314 39 0
-315 -314 -39 0
315 -314 39 0
315 314 -39 0
-316 315 78 0
-316 -315 -78 0
316 -315 78 0
316 315 -78 0
-317 316 94 0
-317 -316 -94 0
317 -316 94 0
317 316 -94 0
-318 317 95 0
-318 -317 -95 0
318 -317 95 0
318 317 -95 0
-318 0
-319 31 37 0
-319 -31 -37 0
319 -31 37 0
319 31 -37 0
-320 319 46 0
-320 -319 -46 0
320 -319 46 0
320 319 -46 0
-321 320 79 0
-321 -320 -79 0
321 -320 79 0
321 320 -79 0
-322 321 101 0
-322 -321 -101 0
322 -321 101 0
322 321 -101 0
-323 322 102 0
-323 -322 -102 0
323 -322 102 0
323 322 -102 0
-323 0
-324 32 38 0
-324 -32 -38 0
324 -32 38 0
324 32 -38 0
-325 324 47 0
-325 -324 -47 0
325 -324 47 0
325 324 -47 0
-326 325 80 0
-326 -325 -80 0
326 -325 80 0
326 325 -80 0
-327 326 97 0
-327 -326 -97 0
327 -326 97 0
327 326 -97 0
-328 327 102 0
-328 -327 -102 0
328 -327 102 0
328 327 -102 0
-328 0
-329 33 39 0
-329 -33 -39 0
329 -33 39 0
329 33 -39 0
-330 329 48 0
-330 -329 -48 0
330 -329 48 0
330 329 -48 0
-331 330 81 0
-331 -330 -81 0
331 -330 81 0
331 330 -81 0
-332 331 97 0
-332 -331 -97 0
332 -331 97 0
332 331 -97 0
-333 332 98 0
-333 -332 -98 0
333 -332 98 0
333 332 -98 0
-333 0
-334 34 40 0
-334 -34 -40 0
334 -34 40 0
334 34 -40 0
-335 334 43 0
-335 -334 -43 0
335 -334 43 0
335 334 -43 0
-336 335 82 0
-336 -335 -82 0
336 -335 82 0
336 335 -82 0
-337 336 98 0
-337 -336 -98 0
337 -336 98 0
337 336 -98 0
-338 337 99 0
-338 -337 -99 0
338 -337 99 0
338 337 -99 0
-338 0
-339 35 41 0
-339 -35 -41 0
339 -35 41 0
339 35 -41 0
-340 339 44 0
-340 -339 -44 0
340 -339 44 0
340 339 -44 0
-341 340 83 0
-341 -340 -83 0
341 -340 83 0
341 340 -83 0
-342 341 99 0
-342 -341 -99 0
342 -341 99 0
342 341 -99 0
-343 342 100 0
-343 -342 -100 0
343 -342 100 0
343 342 -100 0
-343 0
-344 36 42 0
-344 -36 -42 0
344 -36 42 0
344 36 -42 0
-345 344 45 0
-345 -344 -45 0
345 -344 45 0
345 344 -45 0
-346 345 84 0
-346 -345 -84 0
346 -345 84 0
346 345 -84 0
-347 346 100 0
-347 -346 -100 0
347 -346 100 0
347 346 -100 0
-348 347 101 0
-348 -347 -101 0
348 -347 101 0
348 347 -101 0
-348 0
-349 37 43 0
-349 -37 -43 0
349 -37 43 0
349 37 -43 0
-350 349 52 0
-350 -349 -52 0
350 -349 52 0
350 349 -52 0
-351 350 85 0
-351 -350 -85 0
351 -350 85 0
351 350 -85 0
-352 351 107 0
-352 -351 -107 0
352 -351 107 0
352 351 -107 0
-353 352 108 0
-353 -352 -108 0
353 -352 108 0
353 352 -108 0
-353 0
-354 38 44 0
-354 -38 -44 0
354 -38 44 0
354 38 -44 0
-355 354 53 0
-355 -354 -53 0
355 -354 53 0
355 354 -53 0
-356 355 86 0
-356 -355 -86 0
356 -355 86 0
356 355 -86 0
-357 356 103 0
-357 -356 -103 0
357 -356 103 0
357 356 -103 0
-358 357 108 0
-358 -357 -108 0
358 -357 108 0
358 357 -108 0
-358 0
-359 39 45 0
-359 -39 -45 0
359 -39 45 0
359 39 -45 0
-360 359 54 0
-360 -359 -54 0
360 -359 54 0
360 359 -54 0
-361 360 87 0
-361 -360 -87 0
361 -360 87 0
361 360 -87 0
-362 361 103 0
-362 -361 -103 0
362 -361 103 0
362 361 -103 0
-363 362 104 0
-363 -362 -104 0
363 -362 104 0
363 362 -104 0
-363 0
-364 40 46 0
-364 -40 -46 0
364 -40 46 0
364 40 -46 0
-365 364 49 0
-365 -364 -49 0
365 -364 49 0
365 364 -49 0
-366 365 88 0
-366 -365 -88 0
366 -365 88 0
366 365 -88 0
-367 366 104 0
-367 -366 -104 0
367 -366 104 0
367 366 -104 0
-368 367 105 0
-368 -367 -105 0
368 -367 105 0
368 367 -105 0
-368 0
-369 41 47 0
-369 -41 -47 0
369 -41 47 0
369 41 -47 0
-370 369 50 0
-370 -369 -50 0
370 -369 50 0
370 369 -50 0
-371 370 89 0
-371 -370 -89 0
371 -370 89 0
371 370 -89 0
-372 371 105 0
-372 -371 -105 0
372 -371 105 0
372 371 -105 0
-373 372 106 0
-373 -372 -106 0
373 -372 106 0
373 372 -106 0
-373 0
-374 42 48 0
-374 -42 -48 0
374 -42 48 0
374 42 -48 0
-375 374 51 0
-375 -374 -51 0
375 -374 51 0
375 374 -51 0
-376 375 90 0
-376 -375 -90 0
376 -375 90 0
376 375 -90 0
-377 376 106 0
-377 -376 -106 0
377 -376 106 0
377 376 -106 0
-378 377 107 0
-378 -377 -107 0
378 -377 107 0
378 377 -107 0
-378 0
-379 1 2 0
-379 -1 -2 0
379 -1 2 0
379 1 -2 0
-380 379 4 0
-380 -379 -4 0
380 -379 4 0
380 379 -4 0
-381 380 5 0
-381 -380 -5 0
381 -380 5 0
381 380 -5 0
-382 381 19 0
-382 -381 -19 0
382 -381 19 0
382 381 -19 0
-383 382 20 0
-383 -382 -20 0
383 -382 20 0
383 382 -20 0
-384 383 22 0
-384 -383 -22 0
384 -383 22 0
384 383 -22 0
-385 384 23 0
-385 -384 -23 0
385 -384 23 0
385 384 -23 0
-386 385 37 0
-386 -385 -37 0
386 -385 37 0
386 385 -37 0
-387 386 38 0
-387 -386 -38 0
387 -386 38 0
387 386 -38 0
-388 387 40 0
-388 -387 -40 0
388 -387 40 0
388 387 -40 0
-389 388 41 0
-389 -388 -41 0
389 -388 41 0
389 388 -41 0
-390 1 3 0
-390 -1 -3 0
390 -1 3 0
390 1 -3 0
-391 390 4 0
-391 -390 -4 0
391 -390 4 0
391 390 -4 0
-392 391 6 0
-392 -391 -6 0
392 -391 6 0
392 391 -6 0
-393 392 19 0
-393 -392 -19 0
393 -392 19 0
393 392 -19 0
-394 393 21 0
-394 -393 -21 0
394 -393 21 0
394 393 -21 0
-395 394 22 0
-395 -394 -22 0
395 -394 22 0
395 394 -22 0
-396 395 24 0
-396 -395 -24 0
396 -395 24 0
396 395 -24 0
-397 396 37 0
-397 -396 -37 0
397 -396 37 0
397 396 -37 0
-398 397 39 0
-398 -397 -39 0
398 -397 39 0
398 397 -39 0
-399 398 40 0
-399 -398 -40 0
399 -398 40 0
399 398 -40 0
-400 399 42 0
-400 -399 -42 0
400 -399 42 0
400 399 -42 0
-401 7 8 0
-401 -7 -8 0
401 -7 8 0
401 7 -8 0
-402 401 10 0
-402 -401 -10 0
402 -401 10 0
402 401 -10 0
-403 402 11 0
-403 -402 -11 0
403 -402 11 0
403 402 -11 0
-404 403 25 0
-404 -403 -25 0
404 -403 25 0
404 403 -25 0
-405 404 26 0
-405 -404 -26 0
405 -404 26 0
405 404 -26 0
-406 405 28 0
-406 -405 -28 0
406 -405 28 0
406 405 -28 0
-407 406 29 0
-407 -406 -29 0
407 -406 29 0
407 406 -29 0
-408 407 43 0
-408 -407 -43 0
408 -407 43 0
408 407 -43 0
-409 408 44 0
-409 -408 -44 0
409 -408 44 0
409 408 -44 0
-410 409 46 0
-410 -409 -46 0
410 -409 46 0
410 409 -46 0
-411 410 47 0
-411 -410 -47 0
411 -410 47 0
411 410 -47 0
-412 7 9 0
-412 -7 -9 0
412 -7 9 0
412 7 -9 0
-413 412 10 0
-413 -412 -10 0
413 -412 10 0
413 412 -10 0
-414 413 12 0
-414 -413 -12 0
414 -413 12 0
414 413 -12 0
-415 414 25 0
-415 -414 -25 0
415 -414 25 0
415 414 -25 0
-416 415 27 0
-416 -415 -27 0
416 -415 27 0
416 415 -27 0
-417 416 28 0
-417 -416 -28 0
417 -416 28 0
417 416 -28 0
-418 417 30 0
-418 -417 -30 0
418 -417 30 0
418 417 -30 0
-419 418 43 0
-419 -418 -43 0
419 -418 43 0
419 418 -43 0
-420 419 45 0
-420 -419 -45 0
420 -419 45 0
420 419 -45 0
-421 420 46 0
-421 -420 -46 0
421 -420 46 0
421 420 -46 0
-422 421 48 0
-422 -421 -48 0
422 -421 48 0
422 421 -48 0
-423 1 2 0
-423 -1 -2 0
423 -1 2 0
423 1 -2 0
-424 423 5 0
-424 -423 -5 0
424 -423 5 0
424 423 -5 0
-425 424 6 0
-425 -424 -6 0
425 -424 6 0
425 424 -6 0
-426 425 11 0
-426 -425 -11 0
426 -425 11 0
426 425 -11 0
-427 426 21 0
-427 -426 -21 0
427 -426 21 0
427 426 -21 0
-428 427 22 0
-428 -427 -22 0
428 -427 22 0
428 427 -22 0
-429 428 27 0
-429 -428 -27 0
429 -428 27 0
429 428 -27 0
-430 429 37 0
-430 -429 -37 0
430 -429 37 0
430 429 -37 0
-431 430 39 0
-431 -430 -39 0
431 -430 39 0
431 430 -39 0
-432 431 43 0
-432 -431 -43 0
432 -431 43 0
432 431 -43 0
-433 432 44 0
-433 -432 -44 0
433 -432 44 0
433 432 -44 0
-434 433 55 0
-434 -433 -55 0
434 -433 55 0
434 433 -55 0
-435 434 61 0
-435 -434 -61 0
435 -434 61 0
435 434 -61 0
-436 1 2 0
-436 -1 -2 0
436 -1 2 0
436 1 -2 0
-437 436 3 0
-437 -436 -3 0
437 -436 3 0
437 436 -3 0
-438 437 6 0
-438 -437 -6 0
438 -437 6 0
438 437 -6 0
-439 438 12 0
-439 -438 -12 0
439 -438 12 0
439 438 -12 0
-440 439 22 0
-440 -439 -22 0
440 -439 22 0
440 439 -22 0
-441 440 23 0
-441 -440 -23 0
441 -440 23 0
441 440 -23 0
-442 441 28 0
-442 -441 -28 0
442 -441 28 0
442 441 -28 0
-443 442 38 0
-443 -442 -38 0
443 -442 38 0
443 442 -38 0
-444 443 40 0
-444 -443 -40 0
444 -443 40 0
444 443 -40 0
-445 444 44 0
-445 -444 -44 0
445 -444 44 0
445 444 -44 0
-446 445 45 0
-446 -445 -45 0
446 -445 45 0
446 445 -45 0
-447 446 56 0
-447 -446 -56 0
447 -446 56 0
447 446 -56 0
-448 447 62 0
-448 -447 -62 0
448 -447 62 0
448 447 -62 0
-449 1 2 0
-449 -1 -2 0
449 -1 2 0
449 1 -2 0
-450 449 5 0
-450 -449 -5 0
450 -449 5 0
450 449 -5 0
-451 450 6 0
-451 -450 -6 0
451 -450 6 0
451 450 -6 0
-452 451 7 0
-452 -451 -7 0
452 -451 7 0
452 451 -7 0
-453 452 8 0
-453 -452 -8 0
453 -452 8 0
453 452 -8 0
-454 453 12 0
-454 -453 -12 0
454 -453 12 0
454 453 -12 0
-455 454 17 0
-455 -454 -17 0
455 -454 17 0
455 454 -17 0
-456 455 21 0
-456 -455 -21 0
456 -455 21 0
456 455 -21 0
-457 456 22 0
-457 -456 -22 0
457 -456 22 0
457 456 -22 0
-458 457 28 0
-458 -457 -28 0
458 -457 28 0
458 457 -28 0
-459 458 33 0
-459 -458 -33 0
459 -458 33 0
459 458 -33 0
-460 459 37 0
-460 -459 -37 0
460 -459 37 0
460 459 -37 0
-461 460 39 0
-461 -460 -39 0
461 -460 39 0
461 460 -39 0
-462 461 44 0
-462 -461 -44 0
462 -461 44 0
462 461 -44 0
-463 462 45 0
-463 -462 -45 0
463 -462 45 0
463 462 -45 0
-464 463 49 0
-464 -463 -49 0
464 -463 49 0
464 463 -49 0
-465 464 50 0
-465 -464 -50 0
465 -464 50 0
465 464 -50 0
-466 465 55 0
-466 -465 -55 0
466 -465 55 0
466 465 -55 0
-467 466 67 0
-467 -466 -67 0
467 -466 67 0
467 466 -67 0
-468 1 2 0
-468 -1 -2 0
468 -1 2 0
468 1 -2 0
-469 468 3 0
-469 -468 -3 0
469 -468 3 0
469 468 -3 0
-470 469 6 0
-470 -469 -6 0
470 -469 6 0
470 469 -6 0
-471 470 7 0
-471 -470 -7 0
471 -470 7 0
471 470 -7 0
-472 471 8 0
-472 -471 -8 0
472 -471 8 0
472 471 -8 0
-473 472 9 0
-473 -472 -9 0
473 -472 9 0
473 472 -9 0
-474 473 18 0
-474 -473 -18 0
474 -473 18 0
474 473 -18 0
-475 474 22 0
-475 -474 -22 0
475 -474 22 0
475 474 -22 0
-476 475 23 0
-476 -475 -23 0
476 -475 23 0
476 475 -23 0
-477 476 29 0
-477 -476 -29 0
477 -476 29 0
477 476 -29 0
-478 477 34 0
-478 -477 -34 0
478 -477 34 0
478 477 -34 0
-479 478 38 0
-479 -478 -38 0
479 -478 38 0
479 478 -38 0
-480 479 40 0
-480 -479 -40 0
480 -479 40 0
480 479 -40 0
-481 480 45 0
-481 -480 -45 0
481 -480 45 0
481 480 -45 0
-482 481 46 0
-482 -481 -46 0
482 -481 46 0
482 481 -46 0
-483 482 50 0
-483 -482 -50 0
483 -482 50 0
483 482 -50 0
-484 483 51 0
-484 -483 -51 0
484 -483 51 0
484 483 -51 0
-485 484 56 0
-485 -484 -56 0
485 -484 56 0
485 484 -56 0
-486 485 68 0
-486 -485 -68 0
486 -485 68 0
486 485 -68 0
389 400 411 422 435 448 467 486 0
-1 487 0
-488 0
-489 0
-490 0
-491 0
-492 0
-493 0
-494 0
-495 0
-2 496 0
-487 496 0
-2 -487 497 0
-488 497 0
-2 -488 498 0
-489 498 0
-2 -489 499 0
-490 499 0
-2 -490 500 0
-491 500 0
-2 -491 501 0
-492 501 0
-2 -492 502 0
-493 502 0
-2 -493 503 0
-494 503 0
-2 -494 504 0
-495 504 0
-2 -495 0
-3 505 0
-496 505 0
-3 -496 506 0
-497 506 0
-3 -497 507 0
-498 507 0
-3 -498 508 0
-499 508 0
-3 -499 509 0
-500 509 0
-3 -500 510 0
-501 510 0
-3 -501 511 0
-502 511 0
-3 -502 512 0
-503 512 0
-3 -503 513 0
-504 513 0
-3 -504 0
-4 514 0
-505 514 0
-4 -505 515 0
-506 515 0
-4 -506 516 0
-507 516 0
-4 -507 517 0
-508 517 0
-4 -508 518 0
-509 518 0
-4 -509 519 0
-510 519 0
-4 -510 520 0
-511 520 0
-4 -511 521 0
-512 521 0
-4 -512 522 0
-513 522 0
-4 -513 0
-5 523 0
-514 523 0
-5 -514 524 0
-515 524 0
-5 -515 525 0
-516 525 0
-5 -516 526 0
-517 526 0
-5 -517 527 0
-518 527 0
-5 -518 528 0
-519 528 0
-5 -519 529 0
-520 529 0
-5 -520 530 0
-521 530 0
-5 -521 531 0
-522 531 0
-5 -522 0
-6 532 0
-523 532 0
-6 -523 533 0
-524 533 0
-6 -524 534 0
-525 534 0
-6 -525 535 0
-526 535 0
-6 -526 536 0
-527 536 0
-6 -527 537 0
-528 537 0
-6 -528 538 0
-529 538 0
-6 -529 539 0
-530 539 0
-6 -530 540 0
-531 540 0
-6 -531 0
-7 541 0
-532 541 0
-7 -532 542 0
-533 542 0
-7 -533 543 0
-534 543 0
-7 -534 544 0
-535 544 0
-7 -535 545 0
-536 545 0
-7 -536 546 0
-537 546 0
-7 -537 547 0
-538 547 0
-7 -538 548 0
-539 548 0
-7 -539 549 0
-540 549 0
-7 -540 0
-8 550 0
-541 550 0
-8 -541 551 0
-542 551 0
-8 -542 552 0
-543 552 0
-8 -543 553 0
-544 553 0
-8 -544 554 0
-545 554 0
-8 -545 555 0
-546 555 0
-8 -546 556 0
-547 556 0
-8 -547 557 0
-548 557 0
-8 -548 558 0
-549 558 0
-8 -549 0
-9 559 0
-550 559 0
-9 -550 560 0
-551 560 0
-9 -551 561 0
-552 561 0
-9 -552 562 0
-553 562 0
-9 -553 563 0
-554 563 0
-9 -554 564 0
-555 564 0
-9 -555 565 0
-556 565 0
-9 -556 566 0
-557 566 0
-9 -557 567 0
-558 567 0
-9 -558 0
-10 568 0
-559 568 0
-10 -559 569 0
-560 569 0
-10 -560 570 0
-561 570 0
-10 -561 571 0
-562 571 0
-10 -562 572 0
-563 572 0
-10 -563 573 0
-564 573 0
-10 -564 574 0
-565 574 0
-10 -565 575 0
-566 575 0
-10 -566 576 0
-567 576 0
-10 -567 0
-11 577 0
-568 577 0
-11 -568 578 0
-569 578 0
-11 -569 579 0
-570 579 0
-11 -570 580 0
-571 580 0
-11 -571 581 0
-572 581 0
-11 -572 582 0
-573 582 0
-11 -573 583 0
-574 583 0
-11 -574 584 0
-575 584 0
-11 -575 585 0
-576 585 0
-11 -576 0
-12 586 0
-577 586 0
-12 -577 587 0
-578 587 0
-12 -578 588 0
-579 588 0
-12 -579 589 0
-580 589 0
-12 -580 590 0
-581 590 0
-12 -581 591 0
-582 591 0
-12 -582 592 0
-583 592 0
-12 -583 593 0
-584 593 0
-12 -584 594 0
-585 594 0
-12 -585 0
-13 595 0
-586 595 0
-13 -586 596 0
-587 596 0
-13 -587 597 0
-588 597 0
-13 -588 598 0
-589 598 0
-13 -589 599 0
-590 599 0
-13 -590 600 0
-591 600 0
-13 -591 601 0
-592 601 0
-13 -592 602 0
-593 602 0
-13 -593 603 0
-594 603 0
-13 -594 0
-14 604 0
-595 604 0
-14 -595 605 0
-596 605 0
-14 -596 606 0
-597 606 0
-14 -597 607 0
-598 607 0
-14 -598 608 0
-599 608 0
-14 -599 609 0
-600 609 0
-14 -600 610 0
-601 610 0
-14 -601 611 0
-602 611 0
-14 -602 612 0
-603 612 0
-14 -603 0
-15 613 0
-604 613 0
-15 -604 614 0
-605 614 0
-15 -605 615 0
-606 615 0
-15 -606 616 0
-607 616 0
-15 -607 617 0
-608 617 0
-15 -608 618 0
-609 618 0
-15 -609 619 0
-610 619 0
-15 -610 620 0
-611 620 0
-15 -611 621 0
-612 621 0
-15 -612 0
-16 622 0
-613 622 0
-16 -613 623 0
-614 623 0
-16 -614 624 0
-615 624 0
-16 -615 625 0
-616 625 0
-16 -616 626 0
-617 626 0
-16 -617 627 0
-618 627 0
-16 -618 628 0
-619 628 0
-16 -619 629 0
-620 629 0
-16 -620 630 0
-621 630 0
-16 -621 0
-17 631 0
-622 631 0
-17 -622 632 0
-623 632 0
-17 -623 633 0
-624 633 0
-17 -624 634 0
-625 634 0
-17 -625 635 0
-626 635 0
-17 -626 636 0
-627 636 0
-17 -627 637 0
-628 637 0
-17 -628 638 0
-629 638 0
-17 -629 639 0
-630 639 0
-17 -630 0
-18 640 0
-631 640 0
-18 -631 641 0
-632 641 0
-18 -632 642 0
-633 642 0
-18 -633 643 0
-634 643 0
-18 -634 644 0
-635 644 0
-18 -635 645 0
-636 645 0
-18 -636 646 0
-637 646 0
-18 -637 647 0
-638 647 0
-18 -638 648 0
-639 648 0
-18 -639 0
-19 649 0
-640 649 0
-19 -640 650 0
-641 650 0
-19 -641 651 0
-642 651 0
-19 -642 652 0
-643 652 0
-19 -643 653 0
-644 653 0
-19 -644 654 0
-645 654 0
-19 -645 655 0
-646 655 0
-19 -646 656 0
-647 656 0
-19 -647 657 0
-648 657 0
-19 -648 0
-20 658 0
-649 658 0
-20 -649 659 0
-650 659 0
-20 -650 660 0
-651 660 0
-20 -651 661 0
-652 661 0
-20 -652 662 0
-653 662 0
-20 -653 663 0
-654 663 0
-20 -654 664 0
-655 664 0
-20 -655 665 0
-656 665 0
-20 -656 666 0
-657 666 0
-20 -657 0
-21 667 0
-658 667 0
-21 -658 668 0
-659 668 0
-21 -659 669 0
-660 669 0
-21 -660 670 0
-661 670 0
-21 -661 671 0
-662 671 0
-21 -662 672 0
-663 672 0
-21 -663 673 0
-664 673 0
-21 -664 674 0
-665 674 0
-21 -665 675 0
-666 675 0
-21 -666 0
-22 676 0
-667 676 0
-22 -667 677 0
-668 677 0
-22 -668 678 0
-669 678 0
-22 -669 679 0
-670 679 0
-22 -670 680 0
-671 680 0
-22 -671 681 0
-672 681 0
-22 -672 682 0
-673 682 0
-22 -673 683 0
-674 683 0
-22 -674 684 0
-675 684 0
-22 -675 0
-23 685 0
-676 685 0
-23 -676 686 0
-677 686 0
-23 -677 687 0
-678 687 0
-23 -678 688 0
-679 688 0
-23 -679 689 0
-680 689 0
-23 -680 690 0
-681 690 0
-23 -681 691 0
-682 691 0
-23 -682 692 0
-683 692 0
-23 -683 693 0
-684 693 0
-23 -684 0
-24 694 0
-685 694 0
-24 -685 695 0
-686 695 0
-24 -686 696 0
-687 696 0
-24 -687 697 0
-688 697 0
-24 -688 698 0
-689 698 0
-24 -689 699 0
-690 699 0
-24 -690 700 0
-691 700 0
-24 -691 701 0
-692 701 0
-24 -692 702 0
-693 702 0
-24 -693 0
-25 703 0
-694 703 0
-25 -694 704 0
-695 704 0
-25 -695 705 0
-696 705 0
-25 -696 706 0
-697 706 0
-25 -697 707 0
-698 707 0
-25 -698 708 0
-699 708 0
-25 -699 709 0
-700 709 0
-25 -700 710 0
-701 710 0
-25 -701 711 0
-702 711 0
-25 -702 0
-26 712 0
-703 712 0
-26 -703 713 0
-704 713 0
-26 -704 714 0
-705 714 0
-26 -705 715 0
-706 715 0
-26 -706 716 0
-707 716 0
-26 -707 717 0
-708 717 0
-26 -708 718 0
-709 718 0
-26 -709 719 0
-710 719 0
-26 -710 720 0
-711 720 0
-26 -711 0
-27 721 0
-712 721 0
-27 -712 722 0
-713 722 0
-27 -713 723 0
-714 723 0
-27 -714 724 0
-715 724 0
-27 -715 725 0
-716 725 0
-27 -716 726 0
-717 726 0
-27 -717 727 0
-718 727 0
-27 -718 728 0
-719 728 0
-27 -719 729 0
-720 729 0
-27 -720 0
-28 730 0
-721 730 0
-28 -721 731 0
-722 731 0
-28 -722 732 0
-723 732 0
-28 -723 733 0
-724 733 0
-28 -724 734 0
-725 734 0
-28 -725 735 0
-726 735 0
-28 -726 736 0
-727 736 0
-28 -727 737 0
-728 737 0
-28 -728 738 0
-729 738 0
-28 -729 0
-29 739 0
-730 739 0
-29 -730 740 0
-731 740 0
-29 -731 741 0
-732 741 0
-29 -732 742 0
-733 742 0
-29 -733 743 0
-734 743 0
-29 -734 744 0
-735 744 0
-29 -735 745 0
-736 745 0
-29 -736 746 0
-737 746 0
-29 -737 747 0
-738 747 0
-29 -738 0
-30 748 0
-739 748 0
-30 -739 749 0
-740 749 0
-30 -740 750 0
-741 750 0
-30 -741 751 0
-742 751 0
-30 -742 752 0
-743 752 0
-30 -743 753 0
-744 753 0
-30 -744 754 0
-745 754 0
-30 -745 755 0
-746 755 0
-30 -746 756 0
-747 756 0
-30 -747 0
-31 757 0
-748 757 0
-31 -748 758 0
-749 758 0
-31 -749 759 0
-750 759 0
-31 -750 760 0
-751 760 0
-31 -751 761 0
-752 761 0
-31 -752 762 0
-753 762 0
-31 -753 763 0
-754 763 0
-31 -754 764 0
-755 764 0
-31 -755 765 0
-756 765 0
-31 -756 0
-32 766 0
-757 766 0
-32 -757 767 0
-758 767 0
-32 -758 768 0
-759 768 0
-32 -759 769 0
-760 769 0
-32 -760 770 0
-761 770 0
-32 -761 771 0
-762 771 0
-32 -762 772 0
-763 772 0
-32 -763 773 0
-764 773 0
-32 -764 774 0
-765 774 0
-32 -765 0
-33 775 0
-766 775 0
-33 -766 776 0
-767 776 0
-33 -767 777 0
-768 777 0
-33 -768 778 0
-769 778 0
-33 -769 779 0
-770 779 0
-33 -770 780 0
-771 780 0
-33 -771 781 0
-772 781 0
-33 -772 782 0
-773 782 0
-33 -773 783 0
-774 783 0
-33 -774 0
-34 784 0
-775 784 0
-34 -775 785 0
-776 785 0
-34 -776 786 0
-777 786 0
-34 -777 787 0
-778 787 0
-34 -778 788 0
-779 788 0
-34 -779 789 0
-780 789 0
-34 -780 790 0
-781 790 0
-34 -781 791 0
-782 791 0
-34 -782 792 0
-783 792 0
-34 -783 0
-35 793 0
-784 793 0
-35 -784 794 0
-785 794 0
-35 -785 795 0
-786 795 0
-35 -786 796 0
-787 796 0
-35 -787 797 0
-788 797 0
-35 -788 798 0
-789 798 0
-35 -789 799 0
-790 799 0
-35 -790 800 0
-791 800 0
-35 -791 801 0
-792 801 0
-35 -792 0
-36 802 0
-793 802 0
-36 -793 803 0
-794 803 0
-36 -794 804 0
-795 804 0
-36 -795 805 0
-796 805 0
-36 -796 806 0
-797 806 0
-36 -797 807 0
-798 807 0
-36 -798 808 0
-799 808 0
-36 -799 809 0
-800 809 0
-36 -800 810 0
-801 810 0
-36 -801 0
-37 811 0
-802 811 0
-37 -802 812 0
-803 812 0
-37 -803 813 0
-804 813 0
-37 -804 814 0
-805 814 0
-37 -805 815 0
-806 815 0
-37 -806 816 0
-807 816 0
-37 -807 817 0
-808 817 0
-37 -808 818 0
-809 818 0
-37 -809 819 0
-810 819 0
-37 -810 0
-38 820 0
-811 820 0
-38 -811 821 0
-812 821 0
-38 -812 822 0
-813 822 0
-38 -813 823 0
-814 823 0
-38 -814 824 0
-815 824 0
-38 -815 825 0
-816 825 0
-38 -816 826 0
-817 826 0
-38 -817 827 0
-818 827 0
-38 -818 828 0
-819 828 0
-38 -819 0
-39 829 0
-820 829 0
-39 -820 830 0
-821 830 0
-39 -821 831 0
-822 831 0
-39 -822 832 0
-823 832 0
-39 -823 833 0
-824 833 0
-39 -824 834 0
-825 834 0
-39 -825 835 0
-826 835 0
-39 -826 836 0
-827 836 0
-39 -827 837 0
-828 837 0
-39 -828 0
-40 838 0
-829 838 0
-40 -829 839 0
-830 839 0
-40 -830 840 0
-831 840 0
-40 -831 841 0
-832 841 0
-40 -832 842 0
-833 842 0
-40 -833 843 0
-834 843 0
-40 -834 844 0
-835 844 0
-40 -835 845 0
-836 845 0
-40 -836 846 0
-837 846 0
-40 -837 0
-41 847 0
-838 847 0
-41 -838 848 0
-839 848 0
-41 -839 849 0
-840 849 0
-41 -840 850 0
-841 850 0
-41 -841 851 0
-842 851 0
-41 -842 852 0
-843 852 0
-41 -843 853 0
-844 853 0
-41 -844 854 0
-845 854 0
-41 -845 855 0
-846 855 0
-41 -846 0
-42 856 0
-847 856 0
-42 -847 857 0
-848 857 0
-42 -848 858 0
-849 858 0
-42 -849 859 0
-850 859 0
-42 -850 860 0
-851 860 0
-42 -851 861 0
-852 861 0
-42 -852 862 0
-853 862 0
-42 -853 863 0
-854 863 0
-42 -854 864 0
-855 864 0
-42 -855 0
-43 865 0
-856 865 0
-43 -856 866 0
-857 866 0
-43 -857 867 0
-858 867 0
-43 -858 868 0
-859 868 0
-43 -859 869 0
-860 869 0
-43 -860 870 0
-861 870 0
-43 -861 871 0
-862 871 0
-43 -862 872 0
-863 872 0
-43 -863 873 0
-864 873 0
-43 -864 0
-44 874 0
-865 874 0
-44 -865 875 0
-866 875 0
-44 -866 876 0
-867 876 0
-44 -867 877 0
-868 877 0
-44 -868 878 0
-869 878 0
-44 -869 879 0
-870 879 0
-44 -870 880 0
-871 880 0
-44 -871 881 0
-872 881 0
-44 -872 882 0
-873 882 0
-44 -873 0
-45 883 0
-874 883 0
-45 -874 884 0
-875 884 0
-45 -875 885 0
-876 885 0
-45 -876 886 0
-877 886 0
-45 -877 887 0
-878 887 0
-45 -878 888 0
-879 888 0
-45 -879 889 0
-880 889 0
-45 -880 890 0
-881 890 0
-45 -881 891 0
-882 891 0
-45 -882 0
-46 892 0
-883 892 0
-46 -883 893 0
-884 893 0
-46 -884 894 0
-885 894 0
-46 -885 895 0
-886 895 0
-46 -886 896 0
-887 896 0
-46 -887 897 0
-888 897 0
-46 -888 898 0
-889 898 0
-46 -889 899 0
-890 899 0
-46 -890 900 0
-891 900 0
-46 -891 0
-47 901 0
-892 901 0
-47 -892 902 0
-893 902 0
-47 -893 903 0
-894 903 0
-47 -894 904 0
-895 904 0
-47 -895 905 0
-896 905 0
-47 -896 906 0
-897 906 0
-47 -897 907 0
-898 907 0
-47 -898 908 0
-899 908 0
-47 -899 909 0
-900 909 0
-47 -900 0
-48 910 0
-901 910 0
-48 -901 911 0
-902 911 0
-48 -902 912 0
-903 912 0
-48 -903 913 0
-904 913 0
-48 -904 914 0
-905 914 0
-48 -905 915 0
-906 915 0
-48 -906 916 0
-907 916 0
-48 -907 917 0
-908 917 0
-48 -908 918 0
-909 918 0
-48 -909 0
-49 919 0
-910 919 0
-49 -910 920 0
-911 920 0
-49 -911 921 0
-912 921 0
-49 -912 922 0
-913 922 0
-49 -913 923 0
-914 923 0
-49 -914 924 0
-915 924 0
-49 -915 925 0
-916 925 0
-49 -916 926 0
-917 926 0
-49 -917 927 0
-918 927 0
-49 -918 0
-50 928 0
-919 928 0
-50 -919 929 0
-920 929 0
-50 -920 930 0
-921 930 0
-50 -921 931 0
-922 931 0
-50 -922 932 0
-923 932 0
-50 -923 933 0
-924 933 0
-50 -924 934 0
-925 934 0
-50 -925 935 0
-926 935 0
-50 -926 936 0
-927 936 0
-50 -927 0
-51 937 0
-928 937 0
-51 -928 938 0
-929 938 0
-51 -929 939 0
-930 939 0
-51 -930 940 0
-931 940 0
-51 -931 941 0
-932 941 0
-51 -932 942 0
-933 942 0
-51 -933 943 0
-934 943 0
-51 -934 944 0
-935 944 0
-51 -935 945 0
-936 945 0
-51 -936 0
-52 946 0
-937 946 0
-52 -937 947 0
-938 947 0
-52 -938 948 0
-939 948 0
-52 -939 949 0
-940 949 0
-52 -940 950 0
-941 950 0
-52 -941 951 0
-942 951 0
-52 -942 952 0
-943 952 0
-52 -943 953 0
-944 953 0
-52 -944 954 0
-945 954 0
-52 -945 0
-53 955 0
-946 955 0
-53 -946 956 0
-947 956 0
-53 -947 957 0
-948 957 0
-53 -948 958 0
-949 958 0
-53 -949 959 0
-950 959 0
-53 -950 960 0
-951 960 0
-53 -951 961 0
-952 961 0
-53 -952 962 0
-953 962 0
-53 -953 963 0
-954 963 0
-53 -954 0
-54 964 0
-955 964 0
-54 -955 965 0
-956 965 0
-54 -956 966 0
-957 966 0
-54 -957 967 0
-958 967 0
-54 -958 968 0
-959 968 0
-54 -959 969 0
-960 969 0
-54 -960 970 0
-961 970 0
-54 -961 971 0
-962 971 0
-54 -962 972 0
-963 972 0
-54 -963 0
-55 973 0
-964 973 0
-55 -964 974 0
-965 974 0
-55 -965 975 0
-966 975 0
-55 -966 976 0
-967 976 0
-55 -967 977 0
-968 977 0
-55 -968 978 0
-969 978 0
-55 -969 979 0
-970 979 0
-55 -970 980 0
-971 980 0
-55 -971 981 0
-972 981 0
-55 -972 0
-56 982 0
-973 982 0
-56 -973 983 0
-974 983 0
-56 -974 984 0
-975 984 0
-56 -975 985 0
-976 985 0
-56 -976 986 0
-977 986 0
-56 -977 987 0
-978 987 0
-56 -978 988 0
-979 988 0
-56 -979 989 0
-980 989 0
-56 -980 990 0
-981 990 0
-56 -981 0
-57 991 0
-982 991 0
-57 -982 992 0
-983 992 0
-57 -983 993 0
-984 993 0
-57 -984 994 0
-985 994 0
-57 -985 995 0
-986 995 0
-57 -986 996 0
-987 996 0
-57 -987 997 0
-988 997 0
-57 -988 998 0
-989 998 0
-57 -989 999 0
-990 999 0
-57 -990 0
-58 1000 0
-991 1000 0
-58 -991 1001 0
-992 1001 0
-58 -992 1002 0
-993 1002 0
-58 -993 1003 0
-994 1003 0
-58 -994 1004 0
-995 1004 0
-58 -995 1005 0
-996 1005 0
-58 -996 1006 0
-997 1006 0
-58 -997 1007 0
-998 1007 0
-58 -998 1008 0
-999 1008 0
-58 -999 0
-59 1009 0
-1000 1009 0
-59 -1000 1010 0
-1001 1010 0
-59 -1001 1011 0
-1002 1011 0
-59 -1002 1012 0
-1003 1012 0
-59 -1003 1013 0
-1004 1013 0
-59 -1004 1014 0
-1005 1014 0
-59 -1005 1015 0
-1006 1015 0
-59 -1006 1016 0
-1007 1016 0
-59 -1007 1017 0
-1008 1017 0
-59 -1008 0
-60 1018 0
-1009 1018 0
-60 -1009 1019 0
-1010 1019 0
-60 -1010 1020 0
-1011 1020 0
-60 -1011 1021 0
-1012 1021 0
-60 -1012 1022 0
-1013 1022 0
-60 -1013 1023 0
-1014 1023 0
-60 -1014 1024 0
-1015 1024 0
-60 -1015 1025 0
-1016 1025 0
-60 -1016 1026 0
-1017 1026 0
-60 -1017 0
-61 1027 0
-1018 1027 0
-61 -1018 1028 0
-1019 1028 0
-61 -1019 1029 0
-1020 1029 0
-61 -1020 1030 0
-1021 1030 0
-61 -1021 1031 0
-1022 1031 0
-61 -1022 1032 0
-1023 1032 0
-61 -1023 1033 0
-1024 1033 0
-61 -1024 1034 0
-1025 1034 0
-61 -1025 1035 0
-1026 1035 0
-61 -1026 0
-62 1036 0
-1027 1036 0
-62 -1027 1037 0
-1028 1037 0
-62 -1028 1038 0
-1029 1038 0
-62 -1029 1039 0
-1030 1039 0
-62 -1030 1040 0
-1031 1040 0
-62 -1031 1041 0
-1032 1041 0
-62 -1032 1042 0
-1033 1042 0
-62 -1033 1043 0
-1034 1043 0
-62 -1034 1044 0
-1035 1044 0
-62 -1035 0
-63 1045 0
-1036 1045 0
-63 -1036 1046 0
-1037 1046 0
-63 -1037 1047 0
-1038 1047 0
-63 -1038 1048 0
-1039 1048 0
-63 -1039 1049 0
-1040 1049 0
-63 -1040 1050 0
-1041 1050 0
-63 -1041 1051 0
-1042 1051 0
-63 -1042 1052 0
-1043 1052 0
-63 -1043 1053 0
-1044 1053 0
-63 -1044 0
-64 1054 0
-1045 1054 0
-64 -1045 1055 0
-1046 1055 0
-64 -1046 1056 0
-1047 1056 0
-64 -1047 1057 0
-1048 1057 0
-64 -1048 1058 0
-1049 1058 0
-64 -1049 1059 0
-1050 1059 0
-64 -1050 1060 0
-1051 1060 0
-64 -1051 1061 0
-1052 1061 0
-64 -1052 1062 0
-1053 1062 0
-64 -1053 0
-65 1063 0
-1054 1063 0
-65 -1054 1064 0
-1055 1064 0
-65 -1055 1065 0
-1056 1065 0
-65 -1056 1066 0
-1057 1066 0
-65 -1057 1067 0
-1058 1067 0
-65 -1058 1068 0
-1059 1068 0
-65 -1059 1069 0
-1060 1069 0
-65 -1060 1070 0
-1061 1070 0
-65 -1061 1071 0
-1062 1071 0
-65 -1062 0
-66 1072 0
-1063 1072 0
-66 -1063 1073 0
-1064 1073 0
-66 -1064 1074 0
-1065 1074 0
-66 -1065 1075 0
-1066 1075 0
-66 -1066 1076 0
-1067 1076 0
-66 -1067 1077 0
-1068 1077 0
-66 -1068 1078 0
-1069 1078 0
-66 -1069 1079 0
-1070 1079 0
-66 -1070 1080 0
-1071 1080 0
-66 -1071 0
-67 1081 0
-1072 1081 0
-67 -1072 1082 0
-1073 1082 0
-67 -1073 1083 0
-1074 1083 0
-67 -1074 1084 0
-1075 1084 0
-67 -1075 1085 0
-1076 1085 0
-67 -1076 1086 0
-1077 1086 0
-67 -1077 1087 0
-1078 1087 0
-67 -1078 1088 0
-1079 1088 0
-67 -1079 1089 0
-1080 1089 0
-67 -1080 0
-68 1090 0
-1081 1090 0
-68 -1081 1091 0
-1082 1091 0
-68 -1082 1092 0
-1083 1092 0
-68 -1083 1093 0
-1084 1093 0
-68 -1084 1094 0
-1085 1094 0
-68 -1085 1095 0
-1086 1095 0
-68 -1086 1096 0
-1087 1096 0
-68 -1087 1097 0
-1088 1097 0
-68 -1088 1098 0
-1089 1098 0
-68 -1089 0
-69 1099 0
-1090 1099 0
-69 -1090 1100 0
-1091 1100 0
-69 -1091 1101 0
-1092 1101 0
-69 -1092 1102 0
-1093 1102 0
-69 -1093 1103 0
-1094 1103 0
-69 -1094 1104 0
-1095 1104 0
-69 -1095 1105 0
-1096 1105 0
-69 -1096 1106 0
-1097 1106 0
-69 -1097 1107 0
-1098 1107 0
-69 -1098 0
-70 1108 0
-1099 1108 0
-70 -1099 1109 0
-1100 1109 0
-70 -1100 1110 0
-1101 1110 0
-70 -1101 1111 0
-1102 1111 0
-70 -1102 1112 0
-1103 1112 0
-70 -1103 1113 0
-1104 1113 0
-70 -1104 1114 0
-1105 1114 0
-70 -1105 1115 0
-1106 1115 0
-70 -1106 1116 0
-1107 1116 0
-70 -1107 0
-71 1117 0
-1108 1117 0
-71 -1108 1118 0
-1109 1118 0
-71 -1109 1119 0
-1110 1119 0
-71 -1110 1120 0
-1111 1120 0
-71 -1111 1121 0
-1112 1121 0
-71 -1112 1122 0
-1113 1122 0
-71 -1113 1123 0
-1114 1123 0
-71 -1114 1124 0
-1115 1124 0
-71 -1115 1125 0
-1116 1125 0
-71 -1116 0
-72 1126 0
-1117 1126 0
-72 -1117 1127 0
-1118 1127 0
-72 -1118 1128 0
-1119 1128 0
-72 -1119 1129 0
-1120 1129 0
-72 -1120 1130 0
-1121 1130 0
-72 -1121 1131 0
-1122 1131 0
-72 -1122 1132 0
-1123 1132 0
-72 -1123 1133 0
-1124 1133 0
-72 -1124 1134 0
-1125 1134 0
-72 -1125 0
-73 1135 0
-1126 1135 0
-73 -1126 1136 0
-1127 1136 0
-73 -1127 1137 0
-1128 1137 0
-73 -1128 1138 0
-1129 1138 0
-73 -1129 1139 0
-1130 1139 0
-73 -1130 1140 0
-1131 1140 0
-73 -1131 1141 0
-1132 1141 0
-73 -1132 1142 0
-1133 1142 0
-73 -1133 1143 0
-1134 1143 0
-73 -1134 0
-74 1144 0
-1135 1144 0
-74 -1135 1145 0
-1136 1145 0
-74 -1136 1146 0
-1137 1146 0
-74 -1137 1147 0
-1138 1147 0
-74 -1138 1148 0
-1139 1148 0
-74 -1139 1149 0
-1140 1149 0
-74 -1140 1150 0
-1141 1150 0
-74 -1141 1151 0
-1142 1151 0
-74 -1142 1152 0
-1143 1152 0
-74 -1143 0
-75 1153 0
-1144 1153 0
-75 -1144 1154 0
-1145 1154 0
-75 -1145 1155 0
-1146 1155 0
-75 -1146 1156 0
-1147 1156 0
-75 -1147 1157 0
-1148 1157 0
-75 -1148 1158 0
-1149 1158 0
-75 -1149 1159 0
-1150 1159 0
-75 -1150 1160 0
-1151 1160 0
-75 -1151 1161 0
-1152 1161 0
-75 -1152 0
-76 1162 0
-1153 1162 0
-76 -1153 1163 0
-1154 1163 0
-76 -1154 1164 0
-1155 1164 0
-76 -1155 1165 0
-1156 1165 0
-76 -1156 1166 0
-1157 1166 0
-76 -1157 1167 0
-1158 1167 0
-76 -1158 1168 0
-1159 1168 0
-76 -1159 1169 0
-1160 1169 0
-76 -1160 1170 0
-1161 1170 0
-76 -1161 0
-77 1171 0
-1162 1171 0
-77 -1162 1172 0
-1163 1172 0
-77 -1163 1173 0
-1164 1173 0
-77 -1164 1174 0
-1165 1174 0
-77 -1165 1175 0
-1166 1175 0
-77 -1166 1176 0
-1167 1176 0
-77 -1167 1177 0
-1168 1177 0
-77 -1168 1178 0
-1169 1178 0
-77 -1169 1179 0
-1170 1179 0
-77 -1170 0
-78 1180 0
-1171 1180 0
-78 -1171 1181 0
-1172 1181 0
-78 -1172 1182 0
-1173 1182 0
-78 -1173 1183 0
-1174 1183 0
-78 -1174 1184 0
-1175 1184 0
-78 -1175 1185 0
-1176 1185 0
-78 -1176 1186 0
-1177 1186 0
-78 -1177 1187 0
-1178 1187 0
-78 -1178 1188 0
-1179 1188 0
-78 -1179 0
-79 1189 0
-1180 1189 0
-79 -1180 1190 0
-1181 1190 0
-79 -1181 1191 0
-1182 1191 0
-79 -1182 1192 0
-1183 1192 0
-79 -1183 1193 0
-1184 1193 0
-79 -1184 1194 0
-1185 1194 0
-79 -1185 1195 0
-1186 1195 0
-79 -1186 1196 0
-1187 1196 0
-79 -1187 1197 0
-1188 1197 0
-79 -1188 0
-80 1198 0
-1189 1198 0
-80 -1189 1199 0
-1190 1199 0
-80 -1190 1200 0
-1191 1200 0
-80 -1191 1201 0
-1192 1201 0
-80 -1192 1202 0
-1193 1202 0
-80 -1193 1203 0
-1194 1203 0
-80 -1194 1204 0
-1195 1204 0
-80 -1195 1205 0
-1196 1205 0
-80 -1196 1206 0
-1197 1206 0
-80 -1197 0
-81 1207 0
-1198 1207 0
-81 -1198 1208 0
-1199 1208 0
-81 -1199 1209 0
-1200 1209 0
-81 -1200 1210 0
-1201 1210 0
-81 -1201 1211 0
-1202 1211 0
-81 -1202 1212 0
-1203 1212 0
-81 -1203 1213 0
-1204 1213 0
-81 -1204 1214 0
-1205 1214 0
-81 -1205 1215 0
-1206 1215 0
-81 -1206 0
-82 1216 0
-1207 1216 0
-82 -1207 1217 0
-1208 1217 0
-82 -1208 1218 0
-1209 1218 0
-82 -1209 1219 0
-1210 1219 0
-82 -1210 1220 0
-1211 1220 0
-82 -1211 1221 0
-1212 1221 0
-82 -1212 1222 0
-1213 1222 0
-82 -1213 1223 0
-1214 1223 0
-82 -1214 1224 0
-1215 1224 0
-82 -1215 0
-83 1225 0
-1216 1225 0
-83 -1216 1226 0
-1217 1226 0
-83 -1217 1227 0
-1218 1227 0
-83 -1218 1228 0
-1219 1228 0
-83 -1219 1229 0
-1220 1229 0
-83 -1220 1230 0
-1221 1230 0
-83 -1221 1231 0
-1222 1231 0
-83 -1222 1232 0
-1223 1232 0
-83 -1223 1233 0
-1224 1233 0
-83 -1224 0
-84 1234 0
-1225 1234 0
-84 -1225 1235 0
-1226 1235 0
-84 -1226 1236 0
-1227 1236 0
-84 -1227 1237 0
-1228 1237 0
-84 -1228 1238 0
-1229 1238 0
-84 -1229 1239 0
-1230 1239 0
-84 -1230 1240 0
-1231 1240 0
-84 -1231 1241 0
-1232 1241 0
-84 -1232 1242 0
-1233 1242 0
-84 -1233 0
-85 1243 0
-1234 1243 0
-85 -1234 1244 0
-1235 1244 0
-85 -1235 1245 0
-1236 1245 0
-85 -1236 1246 0
-1237 1246 0
-85 -1237 1247 0
-1238 1247 0
-85 -1238 1248 0
-1239 1248 0
-85 -1239 1249 0
-1240 1249 0
-85 -1240 1250 0
-1241 1250 0
-85 -1241 1251 0
-1242 1251 0
-85 -1242 0
-86 1252 0
-1243 1252 0
-86 -1243 1253 0
-1244 1253 0
-86 -1244 1254 0
-1245 1254 0
-86 -1245 1255 0
-1246 1255 0
-86 -1246 1256 0
-1247 1256 0
-86 -1247 1257 0
-1248 1257 0
-86 -1248 1258 0
-1249 1258 0
-86 -1249 1259 0
-1250 1259 0
-86 -1250 1260 0
-1251 1260 0
-86 -1251 0
-87 1261 0
-1252 1261 0
-87 -1252 1262 0
-1253 1262 0
-87 -1253 1263 0
-1254 1263 0
-87 -1254 1264 0
-1255 1264 0
-87 -1255 1265 0
-1256 1265 0
-87 -1256 1266 0
-1257 1266 0
-87 -1257 1267 0
-1258 1267 0
-87 -1258 1268 0
-1259 1268 0
-87 -1259 1269 0
-1260 1269 0
-87 -1260 0
-88 1270 0
-1261 1270 0
-88 -1261 1271 0
-1262 1271 0
-88 -1262 1272 0
-1263 1272 0
-88 -1263 1273 0
-1264 1273 0
-88 -1264 1274 0
-1265 1274 0
-88 -1265 1275 0
-1266 1275 0
-88 -1266 1276 0
-1267 1276 0
-88 -1267 1277 0
-1268 1277 0
-88 -1268 1278 0
-1269 1278 0
-88 -1269 0
-89 1279 0
-1270 1279 0
-89 -1270 1280 0
-1271 1280 0
-89 -1271 1281 0
-1272 1281 0
-89 -1272 1282 0
-1273 1282 0
-89 -1273 1283 0
-1274 1283 0
-89 -1274 1284 0
-1275 1284 0
-89 -1275 1285 0
-1276 1285 0
-89 -1276 1286 0
-1277 1286 0
-89 -1277 1287 0
-1278 1287 0
-89 -1278 0
-90 1288 0
-1279 1288 0
-90 -1279 1289 0
-1280 1289 0
-90 -1280 1290 0
-1281 1290 0
-90 -1281 1291 0
-1282 1291 0
-90 -1282 1292 0
-1283 1292 0
-90 -1283 1293 0
-1284 1293 0
-90 -1284 1294 0
-1285 1294 0
-90 -1285 1295 0
-1286 1295 0
-90 -1286 1296 0
-1287 1296 0
-90 -1287 0
-91 1297 0
-1288 1297 0
-91 -1288 1298 0
-1289 1298 0
-91 -1289 1299 0
-1290 1299 0
-91 -1290 1300 0
-1291 1300 0
-91 -1291 1301 0
-1292 1301 0
-91 -1292 1302 0
-1293 1302 0
-91 -1293 1303 0
-1294 1303 0
-91 -1294 1304 0
-1295 1304 0
-91 -1295 1305 0
-1296 1305 0
-91 -1296 0
-92 1306 0
-1297 1306 0
-92 -1297 1307 0
-1298 1307 0
-92 -1298 1308 0
-1299 1308 0
-92 -1299 1309 0
-1300 1309 0
-92 -1300 1310 0
-1301 1310 0
-92 -1301 1311 0
-1302 1311 0
-92 -1302 1312 0
-1303 1312 0
-92 -1303 1313 0
-1304 1313 0
-92 -1304 1314 0
-1305 1314 0
-92 -1305 0
-93 1315 0
-1306 1315 0
-93 -1306 1316 0
-1307 1316 0
-93 -1307 1317 0
-1308 1317 0
-93 -1308 1318 0
-1309 1318 0
-93 -1309 1319 0
-1310 1319 0
-93 -1310 1320 0
-1311 1320 0
-93 -1311 1321 0
-1312 1321 0
-93 -1312 1322 0
-1313 1322 0
-93 -1313 1323 0
-1314 1323 0
-93 -1314 0
-94 1324 0
-1315 1324 0
-94 -1315 1325 0
-1316 1325 0
-94 -1316 1326 0
-1317 1326 0
-94 -1317 1327 0
-1318 1327 0
-94 -1318 1328 0
-1319 1328 0
-94 -1319 1329 0
-1320 1329 0
-94 -1320 1330 0
-1321 1330 0
-94 -1321 1331 0
-1322 1331 0
-94 -1322 1332 0
-1323 1332 0
-94 -1323 0
-95 1333 0
-1324 1333 0
-95 -1324 1334 0
-1325 1334 0
-95 -1325 1335 0
-1326 1335 0
-95 -1326 1336 0
-1327 1336 0
-95 -1327 1337 0
-1328 1337 0
-95 -1328 1338 0
-1329 1338 0
-95 -1329 1339 0
-1330 1339 0
-95 -1330 1340 0
-1331 1340 0
-95 -1331 1341 0
-1332 1341 0
-95 -1332 0
-96 1342 0
-1333 1342 0
-96 -1333 1343 0
-1334 1343 0
-96 -1334 1344 0
-1335 1344 0
-96 -1335 1345 0
-1336 1345 0
-96 -1336 1346 0
-1337 1346 0
-96 -1337 1347 0
-1338 1347 0
-96 -1338 1348 0
-1339 1348 0
-96 -1339 1349 0
-1340 1349 0
-96 -1340 1350 0
-1341 1350 0
-96 -1341 0
-97 1351 0
-1342 1351 0
-97 -1342 1352 0
-1343 1352 0
-97 -1343 1353 0
-1344 1353 0
-97 -1344 1354 0
-1345 1354 0
-97 -1345 1355 0
-1346 1355 0
-97 -1346 1356 0
-1347 1356 0
-97 -1347 1357 0
-1348 1357 0
-97 -1348 1358 0
-1349 1358 0
-97 -1349 1359 0
-1350 1359 0
-97 -1350 0
-98 1360 0
-1351 1360 0
-98 -1351 1361 0
-1352 1361 0
-98 -1352 1362 0
-1353 1362 0
-98 -1353 1363 0
-1354 1363 0
-98 -1354 1364 0
-1355 1364 0
-98 -1355 1365 0
-1356 1365 0
-98 -1356 1366 0
-1357 1366 0
-98 -1357 1367 0
-1358 1367 0
-98 -1358 1368 0
-1359 1368 0
-98 -1359 0
-99 1369 0
-1360 1369 0
-99 -1360 1370 0
-1361 1370 0
-99 -1361 1371 0
-1362 1371 0
-99 -1362 1372 0
-1363 1372 0
-99 -1363 1373 0
-1364 1373 0
-99 -1364 1374 0
-1365 1374 0
-99 -1365 1375 0
-1366 1375 0
-99 -1366 1376 0
-1367 1376 0
-99 -1367 1377 0
-1368 1377 0
-99 -1368 0
-100 1378 0
-1369 1378 0
-100 -1369 1379 0
-1370 1379 0
-100 -1370 1380 0
-1371 1380 0
-100 -1371 1381 0
-1372 1381 0
-100 -1372 1382 0
-1373 1382 0
-100 -1373 1383 0
-1374 1383 0
-100 -1374 1384 0
-1375 1384 0
-100 -1375 1385 0
-1376 1385 0
-100 -1376 1386 0
-1377 1386 0
-100 -1377 0
-101 1387 0
-1378 1387 0
-101 -1378 1388 0
-1379 1388 0
-101 -1379 1389 0
-1380 1389 0
-101 -1380 1390 0
-1381 1390 0
-101 -1381 1391 0
-1382 1391 0
-101 -1382 1392 0
-1383 1392 0
-101 -1383 1393 0
-1384 1393 0
-101 -1384 1394 0
-1385 1394 0
-101 -1385 1395 0
-1386 1395 0
-101 -1386 0
-102 1396 0
-1387 1396 0
-102 -1387 1397 0
-1388 1397 0
-102 -1388 1398 0
-1389 1398 0
-102 -1389 1399 0
-1390 1399 0
-102 -1390 1400 0
-1391 1400 0
-102 -1391 1401 0
-1392 1401 0
-102 -1392 1402 0
-1393 1402 0
-102 -1393 1403 0
-1394 1403 0
-102 -1394 1404 0
-1395 1404 0
-102 -1395 0
-103 1405 0
-1396 1405 0
-103 -1396 1406 0
-1397 1406 0
-103 -1397 1407 0
-1398 1407 0
-103 -1398 1408 0
-1399 1408 0
-103 -1399 1409 0
-1400 1409 0
-103 -1400 1410 0
-1401 1410 0
-103 -1401 1411 0
-1402 1411 0
-103 -1402 1412 0
-1403 1412 0
-103 -1403 1413 0
-1404 1413 0
-103 -1404 0
-104 1414 0
-1405 1414 0
-104 -1405 1415 0
-1406 1415 0
-104 -1406 1416 0
-1407 1416 0
-104 -1407 1417 0
-1408 1417 0
-104 -1408 1418 0
-1409 1418 0
-104 -1409 1419 0
-1410 1419 0
-104 -1410 1420 0
-1411 1420 0
-104 -1411 1421 0
-1412 1421 0
-104 -1412 1422 0
-1413 1422 0
-104 -1413 0
-105 1423 0
-1414 1423 0
-105 -1414 1424 0
-1415 1424 0
-105 -1415 1425 0
-1416 1425 0
-105 -1416 1426 0
-1417 1426 0
-105 -1417 1427 0
-1418 1427 0
-105 -1418 1428 0
-1419 1428 0
-105 -1419 1429 0
-1420 1429 0
-105 -1420 1430 0
-1421 1430 0
-105 -1421 1431 0
-1422 1431 0
-105 -1422 0
-106 1432 0
-1423 1432 0
-106 -1423 1433 0
-1424 1433 0
-106 -1424 1434 0
-1425 1434 0
-106 -1425 1435 0
-1426 1435 0
-106 -1426 1436 0
-1427 1436 0
-106 -1427 1437 0
-1428 1437 0
-106 -1428 1438 0
-1429 1438 0
-106 -1429 1439 0
-1430 1439 0
-106 -1430 1440 0
-1431 1440 0
-106 -1431 0
-107 1441 0
-1432 1441 0
-107 -1432 1442 0
-1433 1442 0
-107 -1433 1443 0
-1434 1443 0
-107 -1434 1444 0
-1435 1444 0
-107 -1435 1445 0
-1436 1445 0
-107 -1436 1446 0
-1437 1446 0
-107 -1437 1447 0
-1438 1447 0
-107 -1438 1448 0
-1439 1448 0
-107 -1439 1449 0
-1440 1449 0
-107 -1440 0
-108 -1449 0
