p cnf 1467 3663
-109 2 3 0
-109 -2 -3 0
109 -2 3 0
109 2 -3 0
-110 109 19 0
-110 -109 -19 0
110 -109 19 0
110 109 -19 0
-111 110 58 0
-111 -110 -58 0
111 -110 58 0
111 110 -58 0
-112 111 61 0
-112 -111 -61 0
112 -111 61 0
112 111 -61 0
-113 112 67 0
-113 -112 -67 0
113 -112 67 0
113 112 -67 0
-113 0
-114 3 4 0
-114 -3 -4 0
114 -3 4 0
114 3 -4 0
-115 114 20 0
-115 -114 -20 0
115 -114 20 0
115 114 -20 0
-116 115 59 0
-116 -115 -59 0
116 -115 59 0
116 115 -59 0
-117 116 62 0
-117 -116 -62 0
117 -116 62 0
117 116 -62 0
-118 117 68 0
-118 -117 -68 0
118 -117 68 0
118 117 -68 0
-118 0
-119 4 5 0
-119 -4 -5 0
119 -4 5 0
119 4 -5 0
-120 119 21 0
-120 -119 -21 0
120 -119 21 0
120 119 -21 0
-121 120 60 0
-121 -120 -60 0
121 -120 60 0
121 120 -60 0
-122 121 63 0
-122 -121 -63 0
122 -121 63 0
122 121 -63 0
-123 122 69 0
-123 -122 -69 0
123 -122 69 0
123 122 -69 0
-123 0
-124 5 6 0
-124 -5 -6 0
124 -5 6 0
124 5 -6 0
-125 124 22 0
-125 -124 -22 0
125 -124 22 0
125 124 -22 0
-126 125 55 0
-126 -125 -55 0
126 -125 55 0
126 125 -55 0
-127 126 64 0
-127 -126 -64 0
127 -126 64 0
127 126 -64 0
-128 127 70 0
-128 -127 -70 0
128 -127 70 0
128 127 -70 0
-128 0
-129 1 6 0
-129 -1 -6 0
129 -1 6 0
129 1 -6 0
-130 129 23 0
-130 -129 -23 0
130 -129 23 0
130 129 -23 0
-131 130 56 0
-131 -130 -56 0
131 -130 56 0
131 130 -56 0
-132 131 65 0
-132 -131 -65 0
132 -131 65 0
132 131 -65 0
-133 132 71 0
-133 -132 -71 0
133 -132 71 0
133 132 -71 0
-133 0
-134 1 2 0
-134 -1 -2 0
134 -1 2 0
134 1 -2 0
-135 134 24 0
-135 -134 -24 0
135 -134 24 0
135 134 -24 0
-136 135 57 0
-136 -135 -57 0
136 -135 57 0
136 135 -57 0
-137 136 66 0
-137 -136 -66 0
137 -136 66 0
137 136 -66 0
-138 137 72 0
-138 -137 -72 0
138 -137 72 0
138 137 -72 0
-138 0
-139 8 9 0
-139 -8 -9 0
139 -8 9 0
139 8 -9 0
-140 139 25 0
-140 -139 -25 0
140 -139 25 0
140 139 -25 0
-141 140 64 0
-141 -140 -64 0
141 -140 64 0
141 140 -64 0
-142 141 67 0
-142 -141 -67 0
142 -141 67 0
142 141 -67 0
-143 142 73 0
-143 -142 -73 0
143 -142 73 0
143 142 -73 0
-143 0
-144 9 10 0
-144 -9 -10 0
144 -9 10 0
144 9 -10 0
-145 144 26 0
-145 -144 -26 0
145 -144 26 0
145 144 -26 0
-146 145 65 0
-146 -145 -65 0
146 -145 65 0
146 145 -65 0
-147 146 68 0
-147 -146 -68 0
147 -146 68 0
147 146 -68 0
-148 147 74 0
-148 -147 -74 0
148 -147 74 0
148 147 -74 0
-148 0
-149 10 11 0
-149 -10 -11 0
149 -10 11 0
149 10 -11 0
-150 149 27 0
-150 -149 -27 0
150 -149 27 0
150 149 -27 0
-151 150 66 0
-151 -150 -66 0
151 -150 66 0
151 150 -66 0
-152 151 69 0
-152 -151 -69 0
152 -151 69 0
152 151 -69 0
-153 152 75 0
-153 -152 -75 0
153 -152 75 0
153 152 -75 0
-153 0
-154 11 12 0
-154 -11 -12 0
154 -11 12 0
154 11 -12 0
-155 154 28 0
-155 -154 -28 0
155 -154 28 0
155 154 -28 0
-156 155 61 0
-156 -155 -61 0
156 -155 61 0
156 155 -61 0
-157 156 70 0
-157 -156 -70 0
157 -156 70 0
157 156 -70 0
-158 157 76 0
-158 -157 -76 0
158 -157 76 0
158 157 -76 0
-158 0
-159 7 12 0
-159 -7 -12 0
159 -7 12 0
159 7 -12 0
-160 159 29 0
-160 -159 -29 0
160 -159 29 0
160 159 -29 0
-161 160 62 0
-161 -160 -62 0
161 -160 62 0
161 160 -62 0
-162 161 71 0
-162 -161 -71 0
162 -161 71 0
162 161 -71 0
-163 162 77 0
-163 -162 -77 0
163 -162 77 0
163 162 -77 0
-163 0
-164 7 8 0
-164 -7 -8 0
164 -7 8 0
164 7 -8 0
-165 164 30 0
-165 -164 -30 0
165 -164 30 0
165 164 -30 0
-166 165 63 0
-166 -165 -63 0
166 -165 63 0
166 165 -63 0
-167 166 72 0
-167 -166 -72 0
167 -166 72 0
167 166 -72 0
-168 167 78 0
-168 -167 -78 0
168 -167 78 0
168 167 -78 0
-168 0
-169 14 15 0
-169 -14 -15 0
169 -14 15 0
169 14 -15 0
-170 169 31 0
-170 -169 -31 0
170 -169 31 0
170 169 -31 0
-171 170 70 0
-171 -170 -70 0
171 -170 70 0
171 170 -70 0
-172 171 73 0
-172 -171 -73 0
172 -171 73 0
172 171 -73 0
-173 172 79 0
-173 -172 -79 0
173 -172 79 0
173 172 -79 0
-173 0
-174 15 16 0
-174 -15 -16 0
174 -15 16 0
174 15 -16 0
-175 174 32 0
-175 -174 -32 0
175 -174 32 0
175 174 -32 0
-176 175 71 0
-176 -175 -71 0
176 -175 71 0
176 175 -71 0
-177 176 74 0
-177 -176 -74 0
177 -176 74 0
177 176 -74 0
-178 177 80 0
-178 -177 -80 0
178 -177 80 0
178 177 -80 0
-178 0
-179 16 17 0
-179 -16 -17 0
179 -16 17 0
179 16 -17 0
-180 179 33 0
-180 -179 -33 0
180 -179 33 0
180 179 -33 0
-181 180 72 0
-181 -180 -72 0
181 -180 72 0
181 180 -72 0
-182 181 75 0
-182 -181 -75 0
182 -181 75 0
182 181 -75 0
-183 182 81 0
-183 -182 -81 0
183 -182 81 0
183 182 -81 0
-183 0
-184 17 18 0
-184 -17 -18 0
184 -17 18 0
184 17 -18 0
-185 184 34 0
-185 -184 -34 0
185 -184 34 0
185 184 -34 0
-186 185 67 0
-186 -185 -67 0
186 -185 67 0
186 185 -67 0
-187 186 76 0
-187 -186 -76 0
187 -186 76 0
187 186 -76 0
-188 187 82 0
-188 -187 -82 0
188 -187 82 0
188 187 -82 0
-188 0
-189 13 18 0
-189 -13 -18 0
189 -13 18 0
189 13 -18 0
-190 189 35 0
-190 -189 -35 0
190 -189 35 0
190 189 -35 0
-191 190 68 0
-191 -190 -68 0
191 -190 68 0
191 190 -68 0
-192 191 77 0
-192 -191 -77 0
192 -191 77 0
192 191 -77 0
-193 192 83 0
-193 -192 -83 0
193 -192 83 0
193 192 -83 0
-193 0
-194 13 14 0
-194 -13 -14 0
194 -13 14 0
194 13 -14 0
-195 194 36 0
-195 -194 -36 0
195 -194 36 0
195 194 -36 0
-196 195 69 0
-196 -195 -69 0
196 -195 69 0
196 195 -69 0
-197 196 78 0
-197 -196 -78 0
197 -196 78 0
197 196 -78 0
-198 197 84 0
-198 -197 -84 0
198 -197 84 0
198 197 -84 0
-198 0
-199 20 21 0
-199 -20 -21 0
199 -20 21 0
199 20 -21 0
-200 199 37 0
-200 -199 -37 0
200 -199 37 0
200 199 -37 0
-201 200 76 0
-201 -200 -76 0
201 -200 76 0
201 200 -76 0
-202 201 79 0
-202 -201 -79 0
202 -201 79 0
202 201 -79 0
-203 202 85 0
-203 -202 -85 0
203 -202 85 0
203 202 -85 0
-203 0
-204 21 22 0
-204 -21 -22 0
204 -21 22 0
204 21 -22 0
-205 204 38 0
-205 -204 -38 0
205 -204 38 0
205 204 -38 0
-206 205 77 0
-206 -205 -77 0
206 -205 77 0
206 205 -77 0
-207 206 80 0
-207 -206 -80 0
207 -206 80 0
207 206 -80 0
-208 207 86 0
-208 -207 -86 0
208 -207 86 0
208 207 -86 0
-208 0
-209 22 23 0
-209 -22 -23 0
209 -22 23 0
209 22 -23 0
-210 209 39 0
-210 -209 -39 0
210 -209 39 0
210 209 -39 0
-211 210 78 0
-211 -210 -78 0
211 -210 78 0
211 210 -78 0
-212 211 81 0
-212 -211 -81 0
212 -211 81 0
212 211 -81 0
-213 212 87 0
-213 -212 -87 0
213 -212 87 0
213 212 -87 0
-213 0
-214 23 24 0
-214 -23 -24 0
214 -23 24 0
214 23 -24 0
-215 214 40 0
-215 -214 -40 0
215 -214 40 0
215 214 -40 0
-216 215 73 0
-216 -215 -73 0
216 -215 73 0
216 215 -73 0
-217 216 82 0
-217 -216 -82 0
217 -216 82 0
217 216 -82 0
-218 217 88 0
-218 -217 -88 0
218 -217 88 0
218 217 -88 0
-218 0
-219 19 24 0
-219 -19 -24 0
219 -19 24 0
219 19 -24 0
-220 219 41 0
-220 -219 -41 0
220 -219 41 0
220 219 -41 0
-221 220 74 0
-221 -220 -74 0
221 -220 74 0
221 220 -74 0
-222 221 83 0
-222 -221 -83 0
222 -221 83 0
222 221 -83 0
-223 222 89 0
-223 -222 -89 0
223 -222 89 0
223 222 -89 0
-223 0
-224 19 20 0
-224 -19 -20 0
224 -19 20 0
224 19 -20 0
-225 224 42 0
-225 -224 -42 0
225 -224 42 0
225 224 -42 0
-226 225 75 0
-226 -225 -75 0
226 -225 75 0
226 225 -75 0
-227 226 84 0
-227 -226 -84 0
227 -226 84 0
227 226 -84 0
-228 227 90 0
-228 -227 -90 0
228 -227 90 0
228 227 -90 0
-228 0
-229 26 27 0
-229 -26 -27 0
229 -26 27 0
229 26 -27 0
-230 229 43 0
-230 -229 -43 0
230 -229 43 0
230 229 -43 0
-231 230 82 0
-231 -230 -82 0
231 -230 82 0
231 230 -82 0
-232 231 85 0
-232 -231 -85 0
232 -231 85 0
232 231 -85 0
-233 232 91 0
-233 -232 -91 0
233 -232 91 0
233 232 -91 0
-233 0
-234 27 28 0
-234 -27 -28 0
234 -27 28 0
234 27 -28 0
-235 234 44 0
-235 -234 -44 0
235 -234 44 0
235 234 -44 0
-236 235 83 0
-236 -235 -83 0
236 -235 83 0
236 235 -83 0
-237 236 86 0
-237 -236 -86 0
237 -236 86 0
237 236 -86 0
-238 237 92 0
-238 -237 -92 0
238 -237 92 0
238 237 -92 0
-238 0
-239 28 29 0
-239 -28 -29 0
239 -28 29 0
239 28 -29 0
-240 239 45 0
-240 -239 -45 0
240 -239 45 0
240 239 -45 0
-241 240 84 0
-241 -240 -84 0
241 -240 84 0
241 240 -84 0
-242 241 87 0
-242 -241 -87 0
242 -241 87 0
242 241 -87 0
-243 242 93 0
-243 -242 -93 0
243 -242 93 0
243 242 -93 0
-243 0
-244 29 30 0
-244 -29 -30 0
244 -29 30 0
244 29 -30 0
-245 244 46 0
-245 -244 -46 0
245 -244 46 0
245 244 -46 0
-246 245 79 0
-246 -245 -79 0
246 -245 79 0
246 245 -79 0
-247 246 88 0
-247 -246 -88 0
247 -246 88 0
247 246 -88 0
-248 247 94 0
-248 -247 -94 0
248 -247 94 0
248 247 -94 0
-248 0
-249 25 30 0
-249 -25 -30 0
249 -25 30 0
249 25 -30 0
-250 249 47 0
-250 -249 -47 0
250 -249 47 0
250 249 -47 0
-251 250 80 0
-251 -250 -80 0
251 -250 80 0
251 250 -80 0
-252 251 89 0
-252 -251 -89 0
252 -251 89 0
252 251 -89 0
-253 252 95 0
-253 -252 -95 0
253 -252 95 0
253 252 -95 0
-253 0
-254 25 26 0
-254 -25 -26 0
254 -25 26 0
254 25 -26 0
-255 254 48 0
-255 -254 -48 0
255 -254 48 0
255 254 -48 0
-256 255 81 0
-256 -255 -81 0
256 -255 81 0
256 255 -81 0
-257 256 90 0
-257 -256 -90 0
257 -256 90 0
257 256 -90 0
-258 257 96 0
-258 -257 -96 0
258 -257 96 0
258 257 -96 0
-258 0
-259 32 33 0
-259 -32 -33 0
259 -32 33 0
259 32 -33 0
-260 259 49 0
-260 -259 -49 0
260 -259 49 0
260 259 -49 0
-261 260 88 0
-261 -260 -88 0
261 -260 88 0
261 260 -88 0
-262 261 91 0
-262 -261 -91 0
262 -261 91 0
262 261 -91 0
-263 262 97 0
-263 -262 -97 0
263 -262 97 0
263 262 -97 0
-263 0
-264 33 34 0
-264 -33 -34 0
264 -33 34 0
264 33 -34 0
-265 264 50 0
-265 -264 -50 0
265 -264 50 0
265 264 -50 0
-266 265 89 0
-266 -265 -89 0
266 -265 89 0
266 265 -89 0
-267 266 92 0
-267 -266 -92 0
267 -266 92 0
267 266 -92 0
-268 267 98 0
-268 -267 -98 0
268 -267 98 0
268 267 -98 0
-268 0
-269 34 35 0
-269 -34 -35 0
269 -34 35 0
269 34 -35 0
-270 269 51 0
-270 -269 -51 0
270 -269 51 0
270 269 -51 0
-271 270 90 0
-271 -270 -90 0
271 -270 90 0
271 270 -90 0
-272 271 93 0
-272 -271 -93 0
272 -271 93 0
272 271 -93 0
-273 272 99 0
-273 -272 -99 0
273 -272 99 0
273 272 -99 0
-273 0
-274 35 36 0
-274 -35 -36 0
274 -35 36 0
274 35 -36 0
-275 274 52 0
-275 -274 -52 0
275 -274 52 0
275 274 -52 0
-276 275 85 0
-276 -275 -85 0
276 -275 85 0
276 275 -85 0
-277 276 94 0
-277 -276 -94 0
277 -276 94 0
277 276 -94 0
-278 277 100 0
-278 -277 -100 0
278 -277 100 0
278 277 -100 0
-278 0
-279 31 36 0
-279 -31 -36 0
279 -31 36 0
279 31 -36 0
-280 279 53 0
-280 -279 -53 0
280 -279 53 0
280 279 -53 0
-281 280 86 0
-281 -280 -86 0
281 -280 86 0
281 280 -86 0
-282 281 95 0
-282 -281 -95 0
282 -281 95 0
282 281 -95 0
-283 282 101 0
-283 -282 -101 0
283 -282 101 0
283 282 -101 0
-283 0
-284 31 32 0
-284 -31 -32 0
284 -31 32 0
284 31 -32 0
-285 284 54 0
-285 -284 -54 0
285 -284 54 0
285 284 -54 0
-286 285 87 0
-286 -285 -87 0
286 -285 87 0
286 285 -87 0
-287 286 96 0
-287 -286 -96 0
287 -286 96 0
287 286 -96 0
-288 287 102 0
-288 -287 -102 0
288 -287 102 0
288 287 -102 0
-288 0
-289 1 38 0
-289 -1 -38 0
289 -1 38 0
289 1 -38 0
-290 289 39 0
-290 -289 -39 0
290 -289 39 0
290 289 -39 0
-291 290 94 0
-291 -290 -94 0
291 -290 94 0
291 290 -94 0
-292 291 97 0
-292 -291 -97 0
292 -291 97 0
292 291 -97 0
-293 292 103 0
-293 -292 -103 0
293 -292 103 0
293 292 -103 0
-293 0
-294 2 39 0
-294 -2 -39 0
294 -2 39 0
294 2 -39 0
-295 294 40 0
-295 -294 -40 0
295 -294 40 0
295 294 -40 0
-296 295 95 0
-296 -295 -95 0
296 -295 95 0
296 295 -95 0
-297 296 98 0
-297 -296 -98 0
297 -296 98 0
297 296 -98 0
-298 297 104 0
-298 -297 -104 0
298 -297 104 0
298 297 -104 0
-298 0
-299 3 40 0
-299 -3 -40 0
299 -3 40 0
299 3 -40 0
-300 299 41 0
-300 -299 -41 0
300 -299 41 0
300 299 -41 0
-301 300 96 0
-301 -300 -96 0
301 -300 96 0
301 300 -96 0
-302 301 99 0
-302 -301 -99 0
302 -301 99 0
302 301 -99 0
-303 302 105 0
-303 -302 -105 0
303 -302 105 0
303 302 -105 0
-303 0
-304 4 41 0
-304 -4 -41 0
304 -4 41 0
304 4 -41 0
-305 304 42 0
-305 -304 -42 0
305 -304 42 0
305 304 -42 0
-306 305 91 0
-306 -305 -91 0
306 -305 91 0
306 305 -91 0
-307 306 100 0
-307 -306 -100 0
307 -306 100 0
307 306 -100 0
-308 307 106 0
-308 -307 -106 0
308 -307 106 0
308 307 -106 0
-308 0
-309 5 37 0
-309 -5 -37 0
309 -5 37 0
309 5 -37 0
-310 309 42 0
-310 -309 -42 0
310 -309 42 0
310 309 -42 0
-311 310 92 0
-311 -310 -92 0
311 -310 92 0
311 310 -92 0
-312 311 101 0
-312 -311 -101 0
312 -311 101 0
312 311 -101 0
-313 312 107 0
-313 -312 -107 0
313 -312 107 0
313 312 -107 0
-313 0
-314 6 37 0
-314 -6 -37 0
314 -6 37 0
314 6 -37 0
-315 314 38 0
-315 -314 -38 0
315 -314 38 0
315 314 -38 0
-316 315 93 0
-316 -315 -93 0
316 -315 93 0
316 315 -93 0
-317 316 102 0
-317 -316 -102 0
317 -316 102 0
317 316 -102 0
-318 317 108 0
-318 -317 -108 0
318 -317 108 0
318 317 -108 0
-318 0
-319 7 44 0
-319 -7 -44 0
319 -7 44 0
319 7 -44 0
-320 319 45 0
-320 -319 -45 0
320 -319 45 0
320 319 -45 0
-321 320 55 0
-321 -320 -55 0
321 -320 55 0
321 320 -55 0
-322 321 100 0
-322 -321 -100 0
322 -321 100 0
322 321 -100 0
-323 322 103 0
-323 -322 -103 0
323 -322 103 0
323 322 -103 0
-323 0
-324 8 45 0
-324 -8 -45 0
324 -8 45 0
324 8 -45 0
-325 324 46 0
-325 -324 -46 0
325 -324 46 0
325 324 -46 0
-326 325 56 0
-326 -325 -56 0
326 -325 56 0
326 325 -56 0
-327 326 101 0
-327 -326 -101 0
327 -326 101 0
327 326 -101 0
-328 327 104 0
-328 -327 -104 0
328 -327 104 0
328 327 -104 0
-328 0
-329 9 46 0
-329 -9 -46 0
329 -9 46 0
329 9 -46 0
-330 329 47 0
-330 -329 -47 0
330 -329 47 0
330 329 -47 0
-331 330 57 0
-331 -330 -57 0
331 -330 57 0
331 330 -57 0
-332 331 102 0
-332 -331 -102 0
332 -331 102 0
332 331 -102 0
-333 332 105 0
-333 -332 -105 0
333 -332 105 0
333 332 -105 0
-333 0
-334 10 47 0
-334 -10 -47 0
334 -10 47 0
334 10 -47 0
-335 334 48 0
-335 -334 -48 0
335 -334 48 0
335 334 -48 0
-336 335 58 0
-336 -335 -58 0
336 -335 58 0
336 335 -58 0
-337 336 97 0
-337 -336 -97 0
337 -336 97 0
337 336 -97 0
-338 337 106 0
-338 -337 -106 0
338 -337 106 0
338 337 -106 0
-338 0
-339 11 43 0
-339 -11 -43 0
339 -11 43 0
339 11 -43 0
-340 339 48 0
-340 -339 -48 0
340 -339 48 0
340 339 -48 0
-341 340 59 0
-341 -340 -59 0
341 -340 59 0
341 340 -59 0
-342 341 98 0
-342 -341 -98 0
342 -341 98 0
342 341 -98 0
-343 342 107 0
-343 -342 -107 0
343 -342 107 0
343 342 -107 0
-343 0
-344 12 43 0
-344 -12 -43 0
344 -12 43 0
344 12 -43 0
-345 344 44 0
-345 -344 -44 0
345 -344 44 0
345 344 -44 0
-346 345 60 0
-346 -345 -60 0
346 -345 60 0
346 345 -60 0
-347 346 99 0
-347 -346 -99 0
347 -346 99 0
347 346 -99 0
-348 347 108 0
-348 -347 -108 0
348 -347 108 0
348 347 -108 0
-348 0
-349 13 50 0
-349 -13 -50 0
349 -13 50 0
349 13 -50 0
-350 349 51 0
-350 -349 -51 0
350 -349 51 0
350 349 -51 0
-351 350 55 0
-351 -350 -55 0
351 -350 55 0
351 350 -55 0
-352 351 61 0
-352 -351 -61 0
352 -351 61 0
352 351 -61 0
-353 352 106 0
-353 -352 -106 0
353 -352 106 0
353 352 -106 0
-353 0
-354 14 51 0
-354 -14 -51 0
354 -14 51 0
354 14 -51 0
-355 354 52 0
-355 -354 -52 0
355 -354 52 0
355 354 -52 0
-356 355 56 0
-356 -355 -56 0
356 -355 56 0
356 355 -56 0
-357 356 62 0
-357 -356 -62 0
357 -356 62 0
357 356 -62 0
-358 357 107 0
-358 -357 -107 0
358 -357 107 0
358 357 -107 0
-358 0
-359 15 52 0
-359 -15 -52 0
359 -15 52 0
359 15 -52 0
-360 359 53 0
-360 -359 -53 0
360 -359 53 0
360 359 -53 0
-361 360 57 0
-361 -360 -57 0
361 -360 57 0
361 360 -57 0
-362 361 63 0
-362 -361 -63 0
362 -361 63 0
362 361 -63 0
-363 362 108 0
-363 -362 -108 0
363 -362 108 0
363 362 -108 0
-363 0
-364 16 53 0
-364 -16 -53 0
364 -16 53 0
364 16 -53 0
-365 364 54 0
-365 -364 -54 0
365 -364 54 0
365 364 -54 0
-366 365 58 0
-366 -365 -58 0
366 -365 58 0
366 365 -58 0
-367 366 64 0
-367 -366 -64 0
367 -366 64 0
367 366 -64 0
-368 367 103 0
-368 -367 -103 0
368 -367 103 0
368 367 -103 0
-368 0
-369 17 49 0
-369 -17 -49 0
369 -17 49 0
369 17 -49 0
-370 369 54 0
-370 -369 -54 0
370 -369 54 0
370 369 -54 0
-371 370 59 0
-371 -370 -59 0
371 -370 59 0
371 370 -59 0
-372 371 65 0
-372 -371 -65 0
372 -371 65 0
372 371 -65 0
-373 372 104 0
-373 -372 -104 0
373 -372 104 0
373 372 -104 0
-373 0
-374 18 49 0
-374 -18 -49 0
374 -18 49 0
374 18 -49 0
-375 374 50 0
-375 -374 -50 0
375 -374 50 0
375 374 -50 0
-376 375 60 0
-376 -375 -60 0
376 -375 60 0
376 375 -60 0
-377 376 66 0
-377 -376 -66 0
377 -376 66 0
377 376 -66 0
-378 377 105 0
-378 -377 -105 0
378 -377 105 0
378 377 -105 0
-378 0
-379 1 4 0
-379 -1 -4 0
379 -1 4 0
379 1 -4 0
-380 379 7 0
-380 -379 -7 0
380 -379 7 0
380 379 -7 0
-381 380 10 0
-381 -380 -10 0
381 -380 10 0
381 380 -10 0
-382 381 19 0
-382 -381 -19 0
382 -381 19 0
382 381 -19 0
-383 382 22 0
-383 -382 -22 0
383 -382 22 0
383 382 -22 0
-384 383 25 0
-384 -383 -25 0
384 -383 25 0
384 383 -25 0
-385 384 28 0
-385 -384 -28 0
385 -384 28 0
385 384 -28 0
-386 385 37 0
-386 -385 -37 0
386 -385 37 0
386 385 -37 0
-387 386 40 0
-387 -386 -40 0
387 -386 40 0
387 386 -40 0
-388 387 43 0
-388 -387 -43 0
388 -387 43 0
388 387 -43 0
-389 388 46 0
-389 -388 -46 0
389 -388 46 0
389 388 -46 0
-390 2 5 0
-390 -2 -5 0
390 -2 5 0
390 2 -5 0
-391 390 8 0
-391 -390 -8 0
391 -390 8 0
391 390 -8 0
-392 391 11 0
-392 -391 -11 0
392 -391 11 0
392 391 -11 0
-393 392 20 0
-393 -392 -20 0
393 -392 20 0
393 392 -20 0
-394 393 23 0
-394 -393 -23 0
394 -393 23 0
394 393 -23 0
-395 394 26 0
-395 -394 -26 0
395 -394 26 0
395 394 -26 0
-396 395 29 0
-396 -395 -29 0
396 -395 29 0
396 395 -29 0
-397 396 38 0
-397 -396 -38 0
397 -396 38 0
397 396 -38 0
-398 397 41 0
-398 -397 -41 0
398 -397 41 0
398 397 -41 0
-399 398 44 0
-399 -398 -44 0
399 -398 44 0
399 398 -44 0
-400 399 47 0
-400 -399 -47 0
400 -399 47 0
400 399 -47 0
-401 1 4 0
-401 -1 -4 0
401 -1 4 0
401 1 -4 0
-402 401 13 0
-402 -401 -13 0
402 -401 13 0
402 401 -13 0
-403 402 16 0
-403 -402 -16 0
403 -402 16 0
403 402 -16 0
-404 403 19 0
-404 -403 -19 0
404 -403 19 0
404 403 -19 0
-405 404 22 0
-405 -404 -22 0
405 -404 22 0
405 404 -22 0
-406 405 31 0
-406 -405 -31 0
406 -405 31 0
406 405 -31 0
-407 406 34 0
-407 -406 -34 0
407 -406 34 0
407 406 -34 0
-408 407 37 0
-408 -407 -37 0
408 -407 37 0
408 407 -37 0
-409 408 40 0
-409 -408 -40 0
409 -408 40 0
409 408 -40 0
-410 409 49 0
-410 -409 -49 0
410 -409 49 0
410 409 -49 0
-411 410 52 0
-411 -410 -52 0
411 -410 52 0
411 410 -52 0
-412 2 5 0
-412 -2 -5 0
412 -2 5 0
412 2 -5 0
-413 412 14 0
-413 -412 -14 0
413 -412 14 0
413 412 -14 0
-414 413 17 0
-414 -413 -17 0
414 -413 17 0
414 413 -17 0
-415 414 20 0
-415 -414 -20 0
415 -414 20 0
415 414 -20 0
-416 415 23 0
-416 -415 -23 0
416 -415 23 0
416 415 -23 0
-417 416 32 0
-417 -416 -32 0
417 -416 32 0
417 416 -32 0
-418 417 35 0
-418 -417 -35 0
418 -417 35 0
418 417 -35 0
-419 418 38 0
-419 -418 -38 0
419 -418 38 0
419 418 -38 0
-420 419 41 0
-420 -419 -41 0
420 -419 41 0
420 419 -41 0
-421 420 50 0
-421 -420 -50 0
421 -420 50 0
421 420 -50 0
-422 421 53 0
-422 -421 -53 0
422 -421 53 0
422 421 -53 0
-423 1 4 0
-423 -1 -4 0
423 -1 4 0
423 1 -4 0
-424 423 7 0
-424 -423 -7 0
424 -423 7 0
424 423 -7 0
-425 424 13 0
-425 -424 -13 0
425 -424 13 0
425 424 -13 0
-426 425 22 0
-426 -425 -22 0
426 -425 22 0
426 425 -22 0
-427 426 23 0
-427 -426 -23 0
427 -426 23 0
427 426 -23 0
-428 427 25 0
-428 -427 -25 0
428 -427 25 0
428 427 -25 0
-429 428 26 0
-429 -428 -26 0
429 -428 26 0
429 428 -26 0
-430 429 28 0
-430 -429 -28 0
430 -429 28 0
430 429 -28 0
-431 430 32 0
-431 -430 -32 0
431 -430 32 0
431 430 -32 0
-432 431 34 0
-432 -431 -34 0
432 -431 34 0
432 431 -34 0
-433 432 35 0
-433 -432 -35 0
433 -432 35 0
433 432 -35 0
-434 433 38 0
-434 -433 -38 0
434 -433 38 0
434 433 -38 0
-435 434 40 0
-435 -434 -40 0
435 -434 40 0
435 434 -40 0
-436 435 44 0
-436 -435 -44 0
436 -435 44 0
436 435 -44 0
-437 436 49 0
-437 -436 -49 0
437 -436 49 0
437 436 -49 0
-438 437 55 0
-438 -437 -55 0
438 -437 55 0
438 437 -55 0
-439 438 56 0
-439 -438 -56 0
439 -438 56 0
439 438 -56 0
-440 1 2 0
-440 -1 -2 0
440 -1 2 0
440 1 -2 0
-441 440 4 0
-441 -440 -4 0
441 -440 4 0
441 440 -4 0
-442 441 5 0
-442 -441 -5 0
442 -441 5 0
442 441 -5 0
-443 442 7 0
-443 -442 -7 0
443 -442 7 0
443 442 -7 0
-444 443 8 0
-444 -443 -8 0
444 -443 8 0
444 443 -8 0
-445 444 13 0
-445 -444 -13 0
445 -444 13 0
445 444 -13 0
-446 445 14 0
-446 -445 -14 0
446 -445 14 0
446 445 -14 0
-447 446 22 0
-447 -446 -22 0
447 -446 22 0
447 446 -22 0
-448 447 24 0
-448 -447 -24 0
448 -447 24 0
448 447 -24 0
-449 448 25 0
-449 -448 -25 0
449 -448 25 0
449 448 -25 0
-450 449 27 0
-450 -449 -27 0
450 -449 27 0
450 449 -27 0
-451 450 28 0
-451 -450 -28 0
451 -450 28 0
451 450 -28 0
-452 451 29 0
-452 -451 -29 0
452 -451 29 0
452 451 -29 0
-453 452 32 0
-453 -452 -32 0
453 -452 32 0
453 452 -32 0
-454 453 33 0
-454 -453 -33 0
454 -453 33 0
454 453 -33 0
-455 454 34 0
-455 -454 -34 0
455 -454 34 0
455 454 -34 0
-456 455 36 0
-456 -455 -36 0
456 -455 36 0
456 455 -36 0
-457 456 38 0
-457 -456 -38 0
457 -456 38 0
457 456 -38 0
-458 457 39 0
-458 -457 -39 0
458 -457 39 0
458 457 -39 0
-459 458 40 0
-459 -458 -40 0
459 -458 40 0
459 458 -40 0
-460 459 41 0
-460 -459 -41 0
460 -459 41 0
460 459 -41 0
-461 460 44 0
-461 -460 -44 0
461 -460 44 0
461 460 -44 0
-462 461 45 0
-462 -461 -45 0
462 -461 45 0
462 461 -45 0
-463 462 49 0
-463 -462 -49 0
463 -462 49 0
463 462 -49 0
-464 463 50 0
-464 -463 -50 0
464 -463 50 0
464 463 -50 0
-465 464 55 0
-465 -464 -55 0
465 -464 55 0
465 464 -55 0
-466 465 57 0
-466 -465 -57 0
466 -465 57 0
466 465 -57 0
-467 4 13 0
-467 -4 -13 0
467 -4 13 0
467 4 -13 0
-468 467 22 0
-468 -467 -22 0
468 -467 22 0
468 467 -22 0
-469 468 25 0
-469 -468 -25 0
469 -468 25 0
469 468 -25 0
-470 469 29 0
-470 -469 -29 0
470 -469 29 0
470 469 -29 0
-471 470 31 0
-471 -470 -31 0
471 -470 31 0
471 470 -31 0
-472 471 32 0
-472 -471 -32 0
472 -471 32 0
472 471 -32 0
-473 472 34 0
-473 -472 -34 0
473 -472 34 0
473 472 -34 0
-474 473 37 0
-474 -473 -37 0
474 -473 37 0
474 473 -37 0
-475 474 38 0
-475 -474 -38 0
475 -474 38 0
475 474 -38 0
-476 475 41 0
-476 -475 -41 0
476 -475 41 0
476 475 -41 0
-477 476 43 0
-477 -476 -43 0
477 -476 43 0
477 476 -43 0
-478 477 44 0
-478 -477 -44 0
478 -477 44 0
478 477 -44 0
-479 478 50 0
-479 -478 -50 0
479 -478 50 0
479 478 -50 0
-480 479 61 0
-480 -479 -61 0
480 -479 61 0
480 479 -61 0
-481 480 62 0
-481 -480 -62 0
481 -480 62 0
481 480 -62 0
-482 4 5 0
-482 -4 -5 0
482 -4 5 0
482 4 -5 0
-483 482 13 0
-483 -482 -13 0
483 -482 13 0
483 482 -13 0
-484 483 14 0
-484 -483 -14 0
484 -483 14 0
484 483 -14 0
-485 484 22 0
-485 -484 -22 0
485 -484 22 0
485 484 -22 0
-486 485 23 0
-486 -485 -23 0
486 -485 23 0
486 485 -23 0
-487 486 25 0
-487 -486 -25 0
487 -486 25 0
487 486 -25 0
-488 487 26 0
-488 -487 -26 0
488 -487 26 0
488 487 -26 0
-489 488 29 0
-489 -488 -29 0
489 -488 29 0
489 488 -29 0
-490 489 30 0
-490 -489 -30 0
490 -489 30 0
490 489 -30 0
-491 490 31 0
-491 -490 -31 0
491 -490 31 0
491 490 -31 0
-492 491 33 0
-492 -491 -33 0
492 -491 33 0
492 491 -33 0
-493 492 34 0
-493 -492 -34 0
493 -492 34 0
493 492 -34 0
-494 493 35 0
-494 -493 -35 0
494 -493 35 0
494 493 -35 0
-495 494 37 0
-495 -494 -37 0
495 -494 37 0
495 494 -37 0
-496 495 39 0
-496 -495 -39 0
496 -495 39 0
496 495 -39 0
-497 496 41 0
-497 -496 -41 0
497 -496 41 0
497 496 -41 0
-498 497 42 0
-498 -497 -42 0
498 -497 42 0
498 497 -42 0
-499 498 43 0
-499 -498 -43 0
499 -498 43 0
499 498 -43 0
-500 499 45 0
-500 -499 -45 0
500 -499 45 0
500 499 -45 0
-501 500 50 0
-501 -500 -50 0
501 -500 50 0
501 500 -50 0
-502 501 51 0
-502 -501 -51 0
502 -501 51 0
502 501 -51 0
-503 502 61 0
-503 -502 -61 0
503 -502 61 0
503 502 -61 0
-504 503 63 0
-504 -503 -63 0
504 -503 63 0
504 503 -63 0
389 400 411 422 439 466 481 504 0
-1 505 0
-506 0
-507 0
-508 0
-509 0
-510 0
-511 0
-512 0
-513 0
-2 514 0
-505 514 0
-2 -505 515 0
-506 515 0
-2 -506 516 0
-507 516 0
-2 -507 517 0
-508 517 0
-2 -508 518 0
-509 518 0
-2 -509 519 0
-510 519 0
-2 -510 520 0
-511 520 0
-2 -511 521 0
-512 521 0
-2 -512 522 0
-513 522 0
-2 -513 0
-3 523 0
-514 523 0
-3 -514 524 0
-515 524 0
-3 -515 525 0
-516 525 0
-3 -516 526 0
-517 526 0
-3 -517 527 0
-518 527 0
-3 -518 528 0
-519 528 0
-3 -519 529 0
-520 529 0
-3 -520 530 0
-521 530 0
-3 -521 531 0
-522 531 0
-3 -522 0
-4 532 0
-523 532 0
-4 -523 533 0
-524 533 0
-4 -524 534 0
-525 534 0
-4 -525 535 0
-526 535 0
-4 -526 536 0
-527 536 0
-4 -527 537 0
-528 537 0
-4 -528 538 0
-529 538 0
-4 -529 539 0
-530 539 0
-4 -530 540 0
-531 540 0
-4 -531 0
-5 541 0
-532 541 0
-5 -532 542 0
-533 542 0
-5 -533 543 0
-534 543 0
-5 -534 544 0
-535 544 0
-5 -535 545 0
-536 545 0
-5 -536 546 0
-537 546 0
-5 -537 547 0
-538 547 0
-5 -538 548 0
-539 548 0
-5 -539 549 0
-540 549 0
-5 -540 0
-6 550 0
-541 550 0
-6 -541 551 0
-542 551 0
-6 -542 552 0
-543 552 0
-6 -543 553 0
-544 553 0
-6 -544 554 0
-545 554 0
-6 -545 555 0
-546 555 0
-6 -546 556 0
-547 556 0
-6 -547 557 0
-548 557 0
-6 -548 558 0
-549 558 0
-6 -549 0
-7 559 0
-550 559 0
-7 -550 560 0
-551 560 0
-7 -551 561 0
-552 561 0
-7 -552 562 0
-553 562 0
-7 -553 563 0
-554 563 0
-7 -554 564 0
-555 564 0
-7 -555 565 0
-556 565 0
-7 -556 566 0
-557 566 0
-7 -557 567 0
-558 567 0
-7 -558 0
-8 568 0
-559 568 0
-8 -559 569 0
-560 569 0
-8 -560 570 0
-561 570 0
-8 -561 571 0
-562 571 0
-8 -562 572 0
-563 572 0
-8 -563 573 0
-564 573 0
-8 -564 574 0
-565 574 0
-8 -565 575 0
-566 575 0
-8 -566 576 0
-567 576 0
-8 -567 0
-9 577 0
-568 577 0
-9 -568 578 0
-569 578 0
-9 -569 579 0
-570 579 0
-9 -570 580 0
-571 580 0
-9 -571 581 0
-572 581 0
-9 -572 582 0
-573 582 0
-9 -573 583 0
-574 583 0
-9 -574 584 0
-575 584 0
-9 -575 585 0
-576 585 0
-9 -576 0
-10 586 0
-577 586 0
-10 -577 587 0
-578 587 0
-10 -578 588 0
-579 588 0
-10 -579 589 0
-580 589 0
-10 -580 590 0
-581 590 0
-10 -581 591 0
-582 591 0
-10 -582 592 0
-583 592 0
-10 -583 593 0
-584 593 0
-10 -584 594 0
-585 594 0
-10 -585 0
-11 595 0
-586 595 0
-11 -586 596 0
-587 596 0
-11 -587 597 0
-588 597 0
-11 -588 598 0
-589 598 0
-11 -589 599 0
-590 599 0
-11 -590 600 0
-591 600 0
-11 -591 601 0
-592 601 0
-11 -592 602 0
-593 602 0
-11 -593 603 0
-594 603 0
-11 -594 0
-12 604 0
-595 604 0
-12 -595 605 0
-596 605 0
-12 -596 606 0
-597 606 0
-12 -597 607 0
-598 607 0
-12 -598 608 0
-599 608 0
-12 -599 609 0
-600 609 0
-12 -600 610 0
-601 610 0
-12 -601 611 0
-602 611 0
-12 -602 612 0
-603 612 0
-12 -603 0
-13 613 0
-604 613 0
-13 -604 614 0
-605 614 0
-13 -605 615 0
-606 615 0
-13 -606 616 0
-607 616 0
-13 -607 617 0
-608 617 0
-13 -608 618 0
-609 618 0
-13 -609 619 0
-610 619 0
-13 -610 620 0
-611 620 0
-13 -611 621 0
-612 621 0
-13 -612 0
-14 622 0
-613 622 0
-14 -613 623 0
-614 623 0
-14 -614 624 0
-615 624 0
-14 -615 625 0
-616 625 0
-14 -616 626 0
-617 626 0
-14 -617 627 0
-618 627 0
-14 -618 628 0
-619 628 0
-14 -619 629 0
-620 629 0
-14 -620 630 0
-621 630 0
-14 -621 0
-15 631 0
-622 631 0
-15 -622 632 0
-623 632 0
-15 -623 633 0
-624 633 0
-15 -624 634 0
-625 634 0
-15 -625 635 0
-626 635 0
-15 -626 636 0
-627 636 0
-15 -627 637 0
-628 637 0
-15 -628 638 0
-629 638 0
-15 -629 639 0
-630 639 0
-15 -630 0
-16 640 0
-631 640 0
-16 -631 641 0
-632 641 0
-16 -632 642 0
-633 642 0
-16 -633 643 0
-634 643 0
-16 -634 644 0
-635 644 0
-16 -635 645 0
-636 645 0
-16 -636 646 0
-637 646 0
-16 -637 647 0
-638 647 0
-16 -638 648 0
-639 648 0
-16 -639 0
-17 649 0
-640 649 0
-17 -640 650 0
-641 650 0
-17 -641 651 0
-642 651 0
-17 -642 652 0
-643 652 0
-17 -643 653 0
-644 653 0
-17 -644 654 0
-645 654 0
-17 -645 655 0
-646 655 0
-17 -646 656 0
-647 656 0
-17 -647 657 0
-648 657 0
-17 -648 0
-18 658 0
-649 658 0
-18 -649 659 0
-650 659 0
-18 -650 660 0
-651 660 0
-18 -651 661 0
-652 661 0
-18 -652 662 0
-653 662 0
-18 -653 663 0
-654 663 0
-18 -654 664 0
-655 664 0
-18 -655 665 0
-656 665 0
-18 -656 666 0
-657 666 0
-18 -657 0
-19 667 0
-658 667 0
-19 -658 668 0
-659 668 0
-19 -659 669 0
-660 669 0
-19 -660 670 0
-661 670 0
-19 -661 671 0
-662 671 0
-19 -662 672 0
-663 672 0
-19 -663 673 0
-664 673 0
-19 -664 674 0
-665 674 0
-19 -665 675 0
-666 675 0
-19 -666 0
-20 676 0
-667 676 0
-20 -667 677 0
-668 677 0
-20 -668 678 0
-669 678 0
-20 -669 679 0
-670 679 0
-20 -670 680 0
-671 680 0
-20 -671 681 0
-672 681 0
-20 -672 682 0
-673 682 0
-20 -673 683 0
-674 683 0
-20 -674 684 0
-675 684 0
-20 -675 0
-21 685 0
-676 685 0
-21 -676 686 0
-677 686 0
-21 -677 687 0
-678 687 0
-21 -678 688 0
-679 688 0
-21 -679 689 0
-680 689 0
-21 -680 690 0
-681 690 0
-21 -681 691 0
-682 691 0
-21 -682 692 0
-683 692 0
-21 -683 693 0
-684 693 0
-21 -684 0
-22 694 0
-685 694 0
-22 -685 695 0
-686 695 0
-22 -686 696 0
-687 696 0
-22 -687 697 0
-688 697 0
-22 -688 698 0
-689 698 0
-22 -689 699 0
-690 699 0
-22 -690 700 0
-691 700 0
-22 -691 701 0
-692 701 0
-22 -692 702 0
-693 702 0
-22 -693 0
-23 703 0
-694 703 0
-23 -694 704 0
-695 704 0
-23 -695 705 0
-696 705 0
-23 -696 706 0
-697 706 0
-23 -697 707 0
-698 707 0
-23 -698 708 0
-699 708 0
-23 -699 709 0
-700 709 0
-23 -700 710 0
-701 710 0
-23 -701 711 0
-702 711 0
-23 -702 0
-24 712 0
-703 712 0
-24 -703 713 0
-704 713 0
-24 -704 714 0
-705 714 0
-24 -705 715 0
-706 715 0
-24 -706 716 0
-707 716 0
-24 -707 717 0
-708 717 0
-24 -708 718 0
-709 718 0
-24 -709 719 0
-710 719 0
-24 -710 720 0
-711 720 0
-24 -711 0
-25 721 0
-712 721 0
-25 -712 722 0
-713 722 0
-25 -713 723 0
-714 723 0
-25 -714 724 0
-715 724 0
-25 -715 725 0
-716 725 0
-25 -716 726 0
-717 726 0
-25 -717 727 0
-718 727 0
-25 -718 728 0
-719 728 0
-25 -719 729 0
-720 729 0
-25 -720 0
-26 730 0
-721 730 0
-26 -721 731 0
-722 731 0
-26 -722 732 0
-723 732 0
-26 -723 733 0
-724 733 0
-26 -724 734 0
-725 734 0
-26 -725 735 0
-726 735 0
-26 -726 736 0
-727 736 0
-26 -727 737 0
-728 737 0
-26 -728 738 0
-729 738 0
-26 -729 0
-27 739 0
-730 739 0
-27 -730 740 0
-731 740 0
-27 -731 741 0
-732 741 0
-27 -732 742 0
-733 742 0
-27 -733 743 0
-734 743 0
-27 -734 744 0
-735 744 0
-27 -735 745 0
-736 745 0
-27 -736 746 0
-737 746 0
-27 -737 747 0
-738 747 0
-27 -738 0
-28 748 0
-739 748 0
-28 -739 749 0
-740 749 0
-28 -740 750 0
-741 750 0
-28 -741 751 0
-742 751 0
-28 -742 752 0
-743 752 0
-28 -743 753 0
-744 753 0
-28 -744 754 0
-745 754 0
-28 -745 755 0
-746 755 0
-28 -746 756 0
-747 756 0
-28 -747 0
-29 757 0
-748 757 0
-29 -748 758 0
-749 758 0
-29 -749 759 0
-750 759 0
-29 -750 760 0
-751 760 0
-29 -751 761 0
-752 761 0
-29 -752 762 0
-753 762 0
-29 -753 763 0
-754 763 0
-29 -754 764 0
-755 764 0
-29 -755 765 0
-756 765 0
-29 -756 0
-30 766 0
-757 766 0
-30 -757 767 0
-758 767 0
-30 -758 768 0
-759 768 0
-30 -759 769 0
-760 769 0
-30 -760 770 0
-761 770 0
-30 -761 771 0
-762 771 0
-30 -762 772 0
-763 772 0
-30 -763 773 0
-764 773 0
-30 -764 774 0
-765 774 0
-30 -765 0
-31 775 0
-766 775 0
-31 -766 776 0
-767 776 0
-31 -767 777 0
-768 777 0
-31 -768 778 0
-769 778 0
-31 -769 779 0
-770 779 0
-31 -770 780 0
-771 780 0
-31 -771 781 0
-772 781 0
-31 -772 782 0
-773 782 0
-31 -773 783 0
-774 783 0
-31 -774 0
-32 784 0
-775 784 0
-32 -775 785 0
-776 785 0
-32 -776 786 0
-777 786 0
-32 -777 787 0
-778 787 0
-32 -778 788 0
-779 788 0
-32 -779 789 0
-780 789 0
-32 -780 790 0
-781 790 0
-32 -781 791 0
-782 791 0
-32 -782 792 0
-783 792 0
-32 -783 0
-33 793 0
-784 793 0
-33 -784 794 0
-785 794 0
-33 -785 795 0
-786 795 0
-33 -786 796 0
-787 796 0
-33 -787 797 0
-788 797 0
-33 -788 798 0
-789 798 0
-33 -789 799 0
-790 799 0
-33 -790 800 0
-791 800 0
-33 -791 801 0
-792 801 0
-33 -792 0
-34 802 0
-793 802 0
-34 -793 803 0
-794 803 0
-34 -794 804 0
-795 804 0
-34 -795 805 0
-796 805 0
-34 -796 806 0
-797 806 0
-34 -797 807 0
-798 807 0
-34 -798 808 0
-799 808 0
-34 -799 809 0
-800 809 0
-34 -800 810 0
-801 810 0
-34 -801 0
-35 811 0
-802 811 0
-35 -802 812 0
-803 812 0
-35 -803 813 0
-804 813 0
-35 -804 814 0
-805 814 0
-35 -805 815 0
-806 815 0
-35 -806 816 0
-807 816 0
-35 -807 817 0
-808 817 0
-35 -808 818 0
-809 818 0
-35 -809 819 0
-810 819 0
-35 -810 0
-36 820 0
-811 820 0
-36 -811 821 0
-812 821 0
-36 -812 822 0
-813 822 0
-36 -813 823 0
-814 823 0
-36 -814 824 0
-815 824 0
-36 -815 825 0
-816 825 0
-36 -816 826 0
-817 826 0
-36 -817 827 0
-818 827 0
-36 -818 828 0
-819 828 0
-36 -819 0
-37 829 0
-820 829 0
-37 -820 830 0
-821 830 0
-37 -821 831 0
-822 831 0
-37 -822 832 0
-823 832 0
-37 -823 833 0
-824 833 0
-37 -824 834 0
-825 834 0
-37 -825 835 0
-826 835 0
-37 -826 836 0
-827 836 0
-37 -827 837 0
-828 837 0
-37 -828 0
-38 838 0
-829 838 0
-38 -829 839 0
-830 839 0
-38 -830 840 0
-831 840 0
-38 -831 841 0
-832 841 0
-38 -832 842 0
-833 842 0
-38 -833 843 0
-834 843 0
-38 -834 844 0
-835 844 0
-38 -835 845 0
-836 845 0
-38 -836 846 0
-837 846 0
-38 -837 0
-39 847 0
-838 847 0
-39 -838 848 0
-839 848 0
-39 -839 849 0
-840 849 0
-39 -840 850 0
-841 850 0
-39 -841 851 0
-842 851 0
-39 -842 852 0
-843 852 0
-39 -843 853 0
-844 853 0
-39 -844 854 0
-845 854 0
-39 -845 855 0
-846 855 0
-39 -846 0
-40 856 0
-847 856 0
-40 -847 857 0
-848 857 0
-40 -848 858 0
-849 858 0
-40 -849 859 0
-850 859 0
-40 -850 860 0
-851 860 0
-40 -851 861 0
-852 861 0
-40 -852 862 0
-853 862 0
-40 -853 863 0
-854 863 0
-40 -854 864 0
-855 864 0
-40 -855 0
-41 865 0
-856 865 0
-41 -856 866 0
-857 866 0
-41 -857 867 0
-858 867 0
-41 -858 868 0
-859 868 0
-41 -859 869 0
-860 869 0
-41 -860 870 0
-861 870 0
-41 -861 871 0
-862 871 0
-41 -862 872 0
-863 872 0
-41 -863 873 0
-864 873 0
-41 -864 0
-42 874 0
-865 874 0
-42 -865 875 0
-866 875 0
-42 -866 876 0
-867 876 0
-42 -867 877 0
-868 877 0
-42 -868 878 0
-869 878 0
-42 -869 879 0
-870 879 0
-42 -870 880 0
-871 880 0
-42 -871 881 0
-872 881 0
-42 -872 882 0
-873 882 0
-42 -873 0
-43 883 0
-874 883 0
-43 -874 884 0
-875 884 0
-43 -875 885 0
-876 885 0
-43 -876 886 0
-877 886 0
-43 -877 887 0
-878 887 0
-43 -878 888 0
-879 888 0
-43 -879 889 0
-880 889 0
-43 -880 890 0
-881 890 0
-43 -881 891 0
-882 891 0
-43 -882 0
-44 892 0
-883 892 0
-44 -883 893 0
-884 893 0
-44 -884 894 0
-885 894 0
-44 -885 895 0
-886 895 0
-44 -886 896 0
-887 896 0
-44 -887 897 0
-888 897 0
-44 -888 898 0
-889 898 0
-44 -889 899 0
-890 899 0
-44 -890 900 0
-891 900 0
-44 -891 0
-45 901 0
-892 901 0
-45 -892 902 0
-893 902 0
-45 -893 903 0
-894 903 0
-45 -894 904 0
-895 904 0
-45 -895 905 0
-896 905 0
-45 -896 906 0
-897 906 0
-45 -897 907 0
-898 907 0
-45 -898 908 0
-899 908 0
-45 -899 909 0
-900 909 0
-45 -900 0
-46 910 0
-901 910 0
-46 -901 911 0
-902 911 0
-46 -902 912 0
-903 912 0
-46 -903 913 0
-904 913 0
-46 -904 914 0
-905 914 0
-46 -905 915 0
-906 915 0
-46 -906 916 0
-907 916 0
-46 -907 917 0
-908 917 0
-46 -908 918 0
-909 918 0
-46 -909 0
-47 919 0
-910 919 0
-47 -910 920 0
-911 920 0
-47 -911 921 0
-912 921 0
-47 -912 922 0
-913 922 0
-47 -913 923 0
-914 923 0
-47 -914 924 0
-915 924 0
-47 -915 925 0
-916 925 0
-47 -916 926 0
-917 926 0
-47 -917 927 0
-918 927 0
-47 -918 0
-48 928 0
-919 928 0
-48 -919 929 0
-920 929 0
-48 -920 930 0
-921 930 0
-48 -921 931 0
-922 931 0
-48 -922 932 0
-923 932 0
-48 -923 933 0
-924 933 0
-48 -924 934 0
-925 934 0
-48 -925 935 0
-926 935 0
-48 -926 936 0
-927 936 0
-48 -927 0
-49 937 0
-928 937 0
-49 -928 938 0
-929 938 0
-49 -929 939 0
-930 939 0
-49 -930 940 0
-931 940 0
-49 -931 941 0
-932 941 0
-49 -932 942 0
-933 942 0
-49 -933 943 0
-934 943 0
-49 -934 944 0
-935 944 0
-49 -935 945 0
-936 945 0
-49 -936 0
-50 946 0
-937 946 0
-50 -937 947 0
-938 947 0
-50 -938 948 0
-939 948 0
-50 -939 949 0
-940 949 0
-50 -940 950 0
-941 950 0
-50 -941 951 0
-942 951 0
-50 -942 952 0
-943 952 0
-50 -943 953 0
-944 953 0
-50 -944 954 0
-945 954 0
-50 -945 0
-51 955 0
-946 955 0
-51 -946 956 0
-947 956 0
-51 -947 957 0
-948 957 0
-51 -948 958 0
-949 958 0
-51 -949 959 0
-950 959 0
-51 -950 960 0
-951 960 0
-51 -951 961 0
-952 961 0
-51 -952 962 0
-953 962 0
-51 -953 963 0
-954 963 0
-51 -954 0
-52 964 0
-955 964 0
-52 -955 965 0
-956 965 0
-52 -956 966 0
-957 966 0
-52 -957 967 0
-958 967 0
-52 -958 968 0
-959 968 0
-52 -959 969 0
-960 969 0
-52 -960 970 0
-961 970 0
-52 -961 971 0
-962 971 0
-52 -962 972 0
-963 972 0
-52 -963 0
-53 973 0
-964 973 0
-53 -964 974 0
-965 974 0
-53 -965 975 0
-966 975 0
-53 -966 976 0
-967 976 0
-53 -967 977 0
-968 977 0
-53 -968 978 0
-969 978 0
-53 -969 979 0
-970 979 0
-53 -970 980 0
-971 980 0
-53 -971 981 0
-972 981 0
-53 -972 0
-54 982 0
-973 982 0
-54 -973 983 0
-974 983 0
-54 -974 984 0
-975 984 0
-54 -975 985 0
-976 985 0
-54 -976 986 0
-977 986 0
-54 -977 987 0
-978 987 0
-54 -978 988 0
-979 988 0
-54 -979 989 0
-980 989 0
-54 -980 990 0
-981 990 0
-54 -981 0
-55 991 0
-982 991 0
-55 -982 992 0
-983 992 0
-55 -983 993 0
-984 993 0
-55 -984 994 0
-985 994 0
-55 -985 995 0
-986 995 0
-55 -986 996 0
-987 996 0
-55 -987 997 0
-988 997 0
-55 -988 998 0
-989 998 0
-55 -989 999 0
-990 999 0
-55 -990 0
-56 1000 0
-991 1000 0
-56 -991 1001 0
-992 1001 0
-56 -992 1002 0
-993 1002 0
-56 -993 1003 0
-994 1003 0
-56 -994 1004 0
-995 1004 0
-56 -995 1005 0
-996 1005 0
-56 -996 1006 0
-997 1006 0
-56 -997 1007 0
-998 1007 0
-56 -998 1008 0
-999 1008 0
-56 -999 0
-57 1009 0
-1000 1009 0
-57 -1000 1010 0
-1001 1010 0
-57 -1001 1011 0
-1002 1011 0
-57 -1002 1012 0
-1003 1012 0
-57 -1003 1013 0
-1004 1013 0
-57 -1004 1014 0
-1005 1014 0
-57 -1005 1015 0
-1006 1015 0
-57 -1006 1016 0
-1007 1016 0
-57 -1007 1017 0
-1008 1017 0
-57 -1008 0
-58 1018 0
-1009 1018 0
-58 -1009 1019 0
-1010 1019 0
-58 -1010 1020 0
-1011 1020 0
-58 -1011 1021 0
-1012 1021 0
-58 -1012 1022 0
-1013 1022 0
-58 -1013 1023 0
-1014 1023 0
-58 -1014 1024 0
-1015 1024 0
-58 -1015 1025 0
-1016 1025 0
-58 -1016 1026 0
-1017 1026 0
-58 -1017 0
-59 1027 0
-1018 1027 0
-59 -1018 1028 0
-1019 1028 0
-59 -1019 1029 0
-1020 1029 0
-59 -1020 1030 0
-1021 1030 0
-59 -1021 1031 0
-1022 1031 0
-59 -1022 1032 0
-1023 1032 0
-59 -1023 1033 0
-1024 1033 0
-59 -1024 1034 0
-1025 1034 0
-59 -1025 1035 0
-1026 1035 0
-59 -1026 0
-60 1036 0
-1027 1036 0
-60 -1027 1037 0
-1028 1037 0
-60 -1028 1038 0
-1029 1038 0
-60 -1029 1039 0
-1030 1039 0
-60 -1030 1040 0
-1031 1040 0
-60 -1031 1041 0
-1032 1041 0
-60 -1032 1042 0
-1033 1042 0
-60 -1033 1043 0
-1034 1043 0
-60 -1034 1044 0
-1035 1044 0
-60 -1035 0
-61 1045 0
-1036 1045 0
-61 -1036 1046 0
-1037 1046 0
-61 -1037 1047 0
-1038 1047 0
-61 -1038 1048 0
-1039 1048 0
-61 -1039 1049 0
-1040 1049 0
-61 -1040 1050 0
-1041 1050 0
-61 -1041 1051 0
-1042 1051 0
-61 -1042 1052 0
-1043 1052 0
-61 -1043 1053 0
-1044 1053 0
-61 -1044 0
-62 1054 0
-1045 1054 0
-62 -1045 1055 0
-1046 1055 0
-62 -1046 1056 0
-1047 1056 0
-62 -1047 1057 0
-1048 1057 0
-62 -1048 1058 0
-1049 1058 0
-62 -1049 1059 0
-1050 1059 0
-62 -1050 1060 0
-1051 1060 0
-62 -1051 1061 0
-1052 1061 0
-62 -1052 1062 0
-1053 1062 0
-62 -1053 0
-63 1063 0
-1054 1063 0
-63 -1054 1064 0
-1055 1064 0
-63 -1055 1065 0
-1056 1065 0
-63 -1056 1066 0
-1057 1066 0
-63 -1057 1067 0
-1058 1067 0
-63 -1058 1068 0
-1059 1068 0
-63 -1059 1069 0
-1060 1069 0
-63 -1060 1070 0
-1061 1070 0
-63 -1061 1071 0
-1062 1071 0
-63 -1062 0
-64 1072 0
-1063 1072 0
-64 -1063 1073 0
-1064 1073 0
-64 -1064 1074 0
-1065 1074 0
-64 -1065 1075 0
-1066 1075 0
-64 -1066 1076 0
-1067 1076 0
-64 -1067 1077 0
-1068 1077 0
-64 -1068 1078 0
-1069 1078 0
-64 -1069 1079 0
-1070 1079 0
-64 -1070 1080 0
-1071 1080 0
-64 -1071 0
-65 1081 0
-1072 1081 0
-65 -1072 1082 0
-1073 1082 0
-65 -1073 1083 0
-1074 1083 0
-65 -1074 1084 0
-1075 1084 0
-65 -1075 1085 0
-1076 1085 0
-65 -1076 1086 0
-1077 1086 0
-65 -1077 1087 0
-1078 1087 0
-65 -1078 1088 0
-1079 1088 0
-65 -1079 1089 0
-1080 1089 0
-65 -1080 0
-66 1090 0
-1081 1090 0
-66 -1081 1091 0
-1082 1091 0
-66 -1082 1092 0
-1083 1092 0
-66 -1083 1093 0
-1084 1093 0
-66 -1084 1094 0
-1085 1094 0
-66 -1085 1095 0
-1086 1095 0
-66 -1086 1096 0
-1087 1096 0
-66 -1087 1097 0
-1088 1097 0
-66 -1088 1098 0
-1089 1098 0
-66 -1089 0
-67 1099 0
-1090 1099 0
-67 -1090 1100 0
-1091 1100 0
-67 -1091 1101 0
-1092 1101 0
-67 -1092 1102 0
-1093 1102 0
-67 -1093 1103 0
-1094 1103 0
-67 -1094 1104 0
-1095 1104 0
-67 -1095 1105 0
-1096 1105 0
-67 -1096 1106 0
-1097 1106 0
-67 -1097 1107 0
-1098 1107 0
-67 -1098 0
-68 1108 0
-1099 1108 0
-68 -1099 1109 0
-1100 1109 0
-68 -1100 1110 0
-1101 1110 0
-68 -1101 1111 0
-1102 1111 0
-68 -1102 1112 0
-1103 1112 0
-68 -1103 1113 0
-1104 1113 0
-68 -1104 1114 0
-1105 1114 0
-68 -1105 1115 0
-1106 1115 0
-68 -1106 1116 0
-1107 1116 0
-68 -1107 0
-69 1117 0
-1108 1117 0
-69 -1108 1118 0
-1109 1118 0
-69 -1109 1119 0
-1110 1119 0
-69 -1110 1120 0
-1111 1120 0
-69 -1111 1121 0
-1112 1121 0
-69 -1112 1122 0
-1113 1122 0
-69 -1113 1123 0
-1114 1123 0
-69 -1114 1124 0
-1115 1124 0
-69 -1115 1125 0
-1116 1125 0
-69 -1116 0
-70 1126 0
-1117 1126 0
-70 -1117 1127 0
-1118 1127 0
-70 -1118 1128 0
-1119 1128 0
-70 -1119 1129 0
-1120 1129 0
-70 -1120 1130 0
-1121 1130 0
-70 -1121 1131 0
-1122 1131 0
-70 -1122 1132 0
-1123 1132 0
-70 -1123 1133 0
-1124 1133 0
-70 -1124 1134 0
-1125 1134 0
-70 -1125 0
-71 1135 0
-1126 1135 0
-71 -1126 1136 0
-1127 1136 0
-71 -1127 1137 0
-1128 1137 0
-71 -1128 1138 0
-1129 1138 0
-71 -1129 1139 0
-1130 1139 0
-71 -1130 1140 0
-1131 1140 0
-71 -1131 1141 0
-1132 1141 0
-71 -1132 1142 0
-1133 1142 0
-71 -1133 1143 0
-1134 1143 0
-71 -1134 0
-72 1144 0
-1135 1144 0
-72 -1135 1145 0
-1136 1145 0
-72 -1136 1146 0
-1137 1146 0
-72 -1137 1147 0
-1138 1147 0
-72 -1138 1148 0
-1139 1148 0
-72 -1139 1149 0
-1140 1149 0
-72 -1140 1150 0
-1141 1150 0
-72 -1141 1151 0
-1142 1151 0
-72 -1142 1152 0
-1143 1152 0
-72 -1143 0
-73 1153 0
-1144 1153 0
-73 -1144 1154 0
-1145 1154 0
-73 -1145 1155 0
-1146 1155 0
-73 -1146 1156 0
-1147 1156 0
-73 -1147 1157 0
-1148 1157 0
-73 -1148 1158 0
-1149 1158 0
-73 -1149 1159 0
-1150 1159 0
-73 -1150 1160 0
-1151 1160 0
-73 -1151 1161 0
-1152 1161 0
-73 -1152 0
-74 1162 0
-1153 1162 0
-74 -1153 1163 0
-1154 1163 0
-74 -1154 1164 0
-1155 1164 0
-74 -1155 1165 0
-1156 1165 0
-74 -1156 1166 0
-1157 1166 0
-74 -1157 1167 0
-1158 1167 0
-74 -1158 1168 0
-1159 1168 0
-74 -1159 1169 0
-1160 1169 0
-74 -1160 1170 0
-1161 1170 0
-74 -1161 0
-75 1171 0
-1162 1171 0
-75 -1162 1172 0
-1163 1172 0
-75 -1163 1173 0
-1164 1173 0
-75 -1164 1174 0
-1165 1174 0
-75 -1165 1175 0
-1166 1175 0
-75 -1166 1176 0
-1167 1176 0
-75 -1167 1177 0
-1168 1177 0
-75 -1168 1178 0
-1169 1178 0
-75 -1169 1179 0
-1170 1179 0
-75 -1170 0
-76 1180 0
-1171 1180 0
-76 -1171 1181 0
-1172 1181 0
-76 -1172 1182 0
-1173 1182 0
-76 -1173 1183 0
-1174 1183 0
-76 -1174 1184 0
-1175 1184 0
-76 -1175 1185 0
-1176 1185 0
-76 -1176 1186 0
-1177 1186 0
-76 -1177 1187 0
-1178 1187 0
-76 -1178 1188 0
-1179 1188 0
-76 -1179 0
-77 1189 0
-1180 1189 0
-77 -1180 1190 0
-1181 1190 0
-77 -1181 1191 0
-1182 1191 0
-77 -1182 1192 0
-1183 1192 0
-77 -1183 1193 0
-1184 1193 0
-77 -1184 1194 0
-1185 1194 0
-77 -1185 1195 0
-1186 1195 0
-77 -1186 1196 0
-1187 1196 0
-77 -1187 1197 0
-1188 1197 0
-77 -1188 0
-78 1198 0
-1189 1198 0
-78 -1189 1199 0
-1190 1199 0
-78 -1190 1200 0
-1191 1200 0
-78 -1191 1201 0
-1192 1201 0
-78 -1192 1202 0
-1193 1202 0
-78 -1193 1203 0
-1194 1203 0
-78 -1194 1204 0
-1195 1204 0
-78 -1195 1205 0
-1196 1205 0
-78 -1196 1206 0
-1197 1206 0
-78 -1197 0
-79 1207 0
-1198 1207 0
-79 -1198 1208 0
-1199 1208 0
-79 -1199 1209 0
-1200 1209 0
-79 -1200 1210 0
-1201 1210 0
-79 -1201 1211 0
-1202 1211 0
-79 -1202 1212 0
-1203 1212 0
-79 -1203 1213 0
-1204 1213 0
-79 -1204 1214 0
-1205 1214 0
-79 -1205 1215 0
-1206 1215 0
-79 -1206 0
-80 1216 0
-1207 1216 0
-80 -1207 1217 0
-1208 1217 0
-80 -1208 1218 0
-1209 1218 0
-80 -1209 1219 0
-1210 1219 0
-80 -1210 1220 0
-1211 1220 0
-80 -1211 1221 0
-1212 1221 0
-80 -1212 1222 0
-1213 1222 0
-80 -1213 1223 0
-1214 1223 0
-80 -1214 1224 0
-1215 1224 0
-80 -1215 0
-81 1225 0
-1216 1225 0
-81 -1216 1226 0
-1217 1226 0
-81 -1217 1227 0
-1218 1227 0
-81 -1218 1228 0
-1219 1228 0
-81 -1219 1229 0
-1220 1229 0
-81 -1220 1230 0
-1221 1230 0
-81 -1221 1231 0
-1222 1231 0
-81 -1222 1232 0
-1223 1232 0
-81 -1223 1233 0
-1224 1233 0
-81 -1224 0
-82 1234 0
-1225 1234 0
-82 -1225 1235 0
-1226 1235 0
-82 -1226 1236 0
-1227 1236 0
-82 -1227 1237 0
-1228 1237 0
-82 -1228 1238 0
-1229 1238 0
-82 -1229 1239 0
-1230 1239 0
-82 -1230 1240 0
-1231 1240 0
-82 -1231 1241 0
-1232 1241 0
-82 -1232 1242 0
-1233 1242 0
-82 -1233 0
-83 1243 0
-1234 1243 0
-83 -1234 1244 0
-1235 1244 0
-83 -1235 1245 0
-1236 1245 0
-83 -1236 1246 0
-1237 1246 0
-83 -1237 1247 0
-1238 1247 0
-83 -1238 1248 0
-1239 1248 0
-83 -1239 1249 0
-1240 1249 0
-83 -1240 1250 0
-1241 1250 0
-83 -1241 1251 0
-1242 1251 0
-83 -1242 0
-84 1252 0
-1243 1252 0
-84 -1243 1253 0
-1244 1253 0
-84 -1244 1254 0
-1245 1254 0
-84 -1245 1255 0
-1246 1255 0
-84 -1246 1256 0
-1247 1256 0
-84 -1247 1257 0
-1248 1257 0
-84 -1248 1258 0
-1249 1258 0
-84 -1249 1259 0
-1250 1259 0
-84 -1250 1260 0
-1251 1260 0
-84 -1251 0
-85 1261 0
-1252 1261 0
-85 -1252 1262 0
-1253 1262 0
-85 -1253 1263 0
-1254 1263 0
-85 -1254 1264 0
-1255 1264 0
-85 -1255 1265 0
-1256 1265 0
-85 -1256 1266 0
-1257 1266 0
-85 -1257 1267 0
-1258 1267 0
-85 -1258 1268 0
-1259 1268 0
-85 -1259 1269 0
-1260 1269 0
-85 -1260 0
-86 1270 0
-1261 1270 0
-86 -1261 1271 0
-1262 1271 0
-86 -1262 1272 0
-1263 1272 0
-86 -1263 1273 0
-1264 1273 0
-86 -1264 1274 0
-1265 1274 0
-86 -1265 1275 0
-1266 1275 0
-86 -1266 1276 0
-1267 1276 0
-86 -1267 1277 0
-1268 1277 0
-86 -1268 1278 0
-1269 1278 0
-86 -1269 0
-87 1279 0
-1270 1279 0
-87 -1270 1280 0
-1271 1280 0
-87 -1271 1281 0
-1272 1281 0
-87 -1272 1282 0
-1273 1282 0
-87 -1273 1283 0
-1274 1283 0
-87 -1274 1284 0
-1275 1284 0
-87 -1275 1285 0
-1276 1285 0
-87 -1276 1286 0
-1277 1286 0
-87 -1277 1287 0
-1278 1287 0
-87 -1278 0
-88 1288 0
-1279 1288 0
-88 -1279 1289 0
-1280 1289 0
-88 -1280 1290 0
-1281 1290 0
-88 -1281 1291 0
-1282 1291 0
-88 -1282 1292 0
-1283 1292 0
-88 -1283 1293 0
-1284 1293 0
-88 -1284 1294 0
-1285 1294 0
-88 -1285 1295 0
-1286 1295 0
-88 -1286 1296 0
-1287 1296 0
-88 -1287 0
-89 1297 0
-1288 1297 0
-89 -1288 1298 0
-1289 1298 0
-89 -1289 1299 0
-1290 1299 0
-89 -1290 1300 0
-1291 1300 0
-89 -1291 1301 0
-1292 1301 0
-89 -1292 1302 0
-1293 1302 0
-89 -1293 1303 0
-1294 1303 0
-89 -1294 1304 0
-1295 1304 0
-89 -1295 1305 0
-1296 1305 0
-89 -1296 0
-90 1306 0
-1297 1306 0
-90 -1297 1307 0
-1298 1307 0
-90 -1298 1308 0
-1299 1308 0
-90 -1299 1309 0
-1300 1309 0
-90 -1300 1310 0
-1301 1310 0
-90 -1301 1311 0
-1302 1311 0
-90 -1302 1312 0
-1303 1312 0
-90 -1303 1313 0
-1304 1313 0
-90 -1304 1314 0
-1305 1314 0
-90 -1305 0
-91 1315 0
-1306 1315 0
-91 -1306 1316 0
-1307 1316 0
-91 -1307 1317 0
-1308 1317 0
-91 -1308 1318 0
-1309 1318 0
-91 -1309 1319 0
-1310 1319 0
-91 -1310 1320 0
-1311 1320 0
-91 -1311 1321 0
-1312 1321 0
-91 -1312 1322 0
-1313 1322 0
-91 -1313 1323 0
-1314 1323 0
-91 -1314 0
-92 1324 0
-1315 1324 0
-92 -1315 1325 0
-1316 1325 0
-92 -1316 1326 0
-1317 1326 0
-92 -1317 1327 0
-1318 1327 0
-92 -1318 1328 0
-1319 1328 0
-92 -1319 1329 0
-1320 1329 0
-92 -1320 1330 0
-1321 1330 0
-92 -1321 1331 0
-1322 1331 0
-92 -1322 1332 0
-1323 1332 0
-92 -1323 0
-93 1333 0
-1324 1333 0
-93 -1324 1334 0
-1325 1334 0
-93 -1325 1335 0
-1326 1335 0
-93 -1326 1336 0
-1327 1336 0
-93 -1327 1337 0
-1328 1337 0
-93 -1328 1338 0
-1329 1338 0
-93 -1329 1339 0
-1330 1339 0
-93 -1330 1340 0
-1331 1340 0
-93 -1331 1341 0
-1332 1341 0
-93 -1332 0
-94 1342 0
-1333 1342 0
-94 -1333 1343 0
-1334 1343 0
-94 -1334 1344 0
-1335 1344 0
-94 -1335 1345 0
-1336 1345 0
-94 -1336 1346 0
-1337 1346 0
-94 -1337 1347 0
-1338 1347 0
-94 -1338 1348 0
-1339 1348 0
-94 -1339 1349 0
-1340 1349 0
-94 -1340 1350 0
-1341 1350 0
-94 -1341 0
-95 1351 0
-1342 1351 0
-95 -1342 1352 0
-1343 1352 0
-95 -1343 1353 0
-1344 1353 0
-95 -1344 1354 0
-1345 1354 0
-95 -1345 1355 0
-1346 1355 0
-95 -1346 1356 0
-1347 1356 0
-95 -1347 1357 0
-1348 1357 0
-95 -1348 1358 0
-1349 1358 0
-95 -1349 1359 0
-1350 1359 0
-95 -1350 0
-96 1360 0
-1351 1360 0
-96 -1351 1361 0
-1352 1361 0
-96 -1352 1362 0
-1353 1362 0
-96 -1353 1363 0
-1354 1363 0
-96 -1354 1364 0
-1355 1364 0
-96 -1355 1365 0
-1356 1365 0
-96 -1356 1366 0
-1357 1366 0
-96 -1357 1367 0
-1358 1367 0
-96 -1358 1368 0
-1359 1368 0
-96 -1359 0
-97 1369 0
-1360 1369 0
-97 -1360 1370 0
-1361 1370 0
-97 -1361 1371 0
-1362 1371 0
-97 -1362 1372 0
-1363 1372 0
-97 -1363 1373 0
-1364 1373 0
-97 -1364 1374 0
-1365 1374 0
-97 -1365 1375 0
-1366 1375 0
-97 -1366 1376 0
-1367 1376 0
-97 -1367 1377 0
-1368 1377 0
-97 -1368 0
-98 1378 0
-1369 1378 0
-98 -1369 1379 0
-1370 1379 0
-98 -1370 1380 0
-1371 1380 0
-98 -1371 1381 0
-1372 1381 0
-98 -1372 1382 0
-1373 1382 0
-98 -1373 1383 0
-1374 1383 0
-98 -1374 1384 0
-1375 1384 0
-98 -1375 1385 0
-1376 1385 0
-98 -1376 1386 0
-1377 1386 0
-98 -1377 0
-99 1387 0
-1378 1387 0
-99 -1378 1388 0
-1379 1388 0
-99 -1379 1389 0
-1380 1389 0
-99 -1380 1390 0
-1381 1390 0
-99 -1381 1391 0
-1382 1391 0
-99 -1382 1392 0
-1383 1392 0
-99 -1383 1393 0
-1384 1393 0
-99 -1384 1394 0
-1385 1394 0
-99 -1385 1395 0
-1386 1395 0
-99 -1386 0
-100 1396 0
-1387 1396 0
-100 -1387 1397 0
-1388 1397 0
-100 -1388 1398 0
-1389 1398 0
-100 -1389 1399 0
-1390 1399 0
-100 -1390 1400 0
-1391 1400 0
-100 -1391 1401 0
-1392 1401 0
-100 -1392 1402 0
-1393 1402 0
-100 -1393 1403 0
-1394 1403 0
-100 -1394 1404 0
-1395 1404 0
-100 -1395 0
-101 1405 0
-1396 1405 0
-101 -1396 1406 0
-1397 1406 0
-101 -1397 1407 0
-1398 1407 0
-101 -1398 1408 0
-1399 1408 0
-101 -1399 1409 0
-1400 1409 0
-101 -1400 1410 0
-1401 1410 0
-101 -1401 1411 0
-1402 1411 0
-101 -1402 1412 0
-1403 1412 0
-101 -1403 1413 0
-1404 1413 0
-101 -1404 0
-102 1414 0
-1405 1414 0
-102 -1405 1415 0
-1406 1415 0
-102 -1406 1416 0
-1407 1416 0
-102 -1407 1417 0
-1408 1417 0
-102 -1408 1418 0
-1409 1418 0
-102 -1409 1419 0
-1410 1419 0
-102 -1410 1420 0
-1411 1420 0
-102 -1411 1421 0
-1412 1421 0
-102 -1412 1422 0
-1413 1422 0
-102 -1413 0
-103 1423 0
-1414 1423 0
-103 -1414 1424 0
-1415 1424 0
-103 -1415 1425 0
-1416 1425 0
-103 -1416 1426 0
-1417 1426 0
-103 -1417 1427 0
-1418 1427 0
-103 -1418 1428 0
-1419 1428 0
-103 -1419 1429 0
-1420 1429 0
-103 -1420 1430 0
-1421 1430 0
-103 -1421 1431 0
-1422 1431 0
-103 -1422 0
-104 1432 0
-1423 1432 0
-104 -1423 1433 0
-1424 1433 0
-104 -1424 1434 0
-1425 1434 0
-104 -1425 1435 0
-1426 1435 0
-104 -1426 1436 0
-1427 1436 0
-104 -1427 1437 0
-1428 1437 0
-104 -1428 1438 0
-1429 1438 0
-104 -1429 1439 0
-1430 1439 0
-104 -1430 1440 0
-1431 1440 0
-104 -1431 0
-105 1441 0
-1432 1441 0
-105 -1432 1442 0
-1433 1442 0
-105 -1433 1443 0
-1434 1443 0
-105 -1434 1444 0
-1435 1444 0
-105 -1435 1445 0
-1436 1445 0
-105 -1436 1446 0
-1437 1446 0
-105 -1437 1447 0
-1438 1447 0
-105 -1438 1448 0
-1439 1448 0
-105 -1439 1449 0
-1440 1449 0
-105 -1440 0
-106 1450 0
-1441 1450 0
-106 -1441 1451 0
-1442 1451 0
-106 -1442 1452 0
-1443 1452 0
-106 -1443 1453 0
-1444 1453 0
-106 -1444 1454 0
-1445 1454 0
-106 -1445 1455 0
-1446 1455 0
-106 -1446 1456 0
-1447 1456 0
-106 -1447 1457 0
-1448 1457 0
-106 -1448 1458 0
-1449 1458 0
-106 -1449 0
-107 1459 0
-1450 1459 0
-107 -1450 1460 0
-1451 1460 0
-107 -1451 1461 0
-1452 1461 0
-107 -1452 1462 0
-1453 1462 0
-107 -1453 1463 0
-1454 1463 0
-107 -1454 1464 0
-1455 1464 0
-107 -1455 1465 0
-1456 1465 0
-107 -1456 1466 0
-1457 1466 0
-107 -1457 1467 0
-1458 1467 0
-107 -1458 0
-108 -1467 0
