p cnf 1556 3804
-109 4 43 0
-109 -4 -43 0
109 -4 43 0
109 4 -43 0
-110 109 49 0
-110 -109 -49 0
110 -109 49 0
110 109 -49 0
-111 110 59 0
-111 -110 -59 0
111 -110 59 0
111 110 -59 0
-112 111 60 0
-112 -111 -60 0
112 -111 60 0
112 111 -60 0
-113 112 91 0
-113 -112 -91 0
113 -112 91 0
113 112 -91 0
-113 0
-114 5 44 0
-114 -5 -44 0
114 -5 44 0
114 5 -44 0
-115 114 50 0
-115 -114 -50 0
115 -114 50 0
115 114 -50 0
-116 115 55 0
-116 -115 -55 0
116 -115 55 0
116 115 -55 0
-117 116 60 0
-117 -116 -60 0
117 -116 60 0
117 116 -60 0
-118 117 92 0
-118 -117 -92 0
118 -117 92 0
118 117 -92 0
-118 0
-119 6 45 0
-119 -6 -45 0
119 -6 45 0
119 6 -45 0
-120 119 51 0
-120 -119 -51 0
120 -119 51 0
120 119 -51 0
-121 120 55 0
-121 -120 -55 0
121 -120 55 0
121 120 -55 0
-122 121 56 0
-122 -121 -56 0
122 -121 56 0
122 121 -56 0
-123 122 93 0
-123 -122 -93 0
123 -122 93 0
123 122 -93 0
-123 0
-124 1 46 0
-124 -1 -46 0
124 -1 46 0
124 1 -46 0
-125 124 52 0
-125 -124 -52 0
125 -124 52 0
125 124 -52 0
-126 125 56 0
-126 -125 -56 0
126 -125 56 0
126 125 -56 0
-127 126 57 0
-127 -126 -57 0
127 -126 57 0
127 126 -57 0
-128 127 94 0
-128 -127 -94 0
128 -127 94 0
128 127 -94 0
-128 0
-129 2 47 0
-129 -2 -47 0
129 -2 47 0
129 2 -47 0
-130 129 53 0
-130 -129 -53 0
130 -129 53 0
130 129 -53 0
-131 130 57 0
-131 -130 -57 0
131 -130 57 0
131 130 -57 0
-132 131 58 0
-132 -131 -58 0
132 -131 58 0
132 131 -58 0
-133 132 95 0
-133 -132 -95 0
133 -132 95 0
133 132 -95 0
-133 0
-134 3 48 0
-134 -3 -48 0
134 -3 48 0
134 3 -48 0
-135 134 54 0
-135 -134 -54 0
135 -134 54 0
135 134 -54 0
-136 135 58 0
-136 -135 -58 0
136 -135 58 0
136 135 -58 0
-137 136 59 0
-137 -136 -59 0
137 -136 59 0
137 136 -59 0
-138 137 96 0
-138 -137 -96 0
138 -137 96 0
138 137 -96 0
-138 0
-139 1 10 0
-139 -1 -10 0
139 -1 10 0
139 1 -10 0
-140 139 49 0
-140 -139 -49 0
140 -139 49 0
140 139 -49 0
-141 140 65 0
-141 -140 -65 0
141 -140 65 0
141 140 -65 0
-142 141 66 0
-142 -141 -66 0
142 -141 66 0
142 141 -66 0
-143 142 97 0
-143 -142 -97 0
143 -142 97 0
143 142 -97 0
-143 0
-144 2 11 0
-144 -2 -11 0
144 -2 11 0
144 2 -11 0
-145 144 50 0
-145 -144 -50 0
145 -144 50 0
145 144 -50 0
-146 145 61 0
-146 -145 -61 0
146 -145 61 0
146 145 -61 0
-147 146 66 0
-147 -146 -66 0
147 -146 66 0
147 146 -66 0
-148 147 98 0
-148 -147 -98 0
148 -147 98 0
148 147 -98 0
-148 0
-149 3 12 0
-149 -3 -12 0
149 -3 12 0
149 3 -12 0
-150 149 51 0
-150 -149 -51 0
150 -149 51 0
150 149 -51 0
-151 150 61 0
-151 -150 -61 0
151 -150 61 0
151 150 -61 0
-152 151 62 0
-152 -151 -62 0
152 -151 62 0
152 151 -62 0
-153 152 99 0
-153 -152 -99 0
153 -152 99 0
153 152 -99 0
-153 0
-154 4 7 0
-154 -4 -7 0
154 -4 7 0
154 4 -7 0
-155 154 52 0
-155 -154 -52 0
155 -154 52 0
155 154 -52 0
-156 155 62 0
-156 -155 -62 0
156 -155 62 0
156 155 -62 0
-157 156 63 0
-157 -156 -63 0
157 -156 63 0
157 156 -63 0
-158 157 100 0
-158 -157 -100 0
158 -157 100 0
158 157 -100 0
-158 0
-159 5 8 0
-159 -5 -8 0
159 -5 8 0
159 5 -8 0
-160 159 53 0
-160 -159 -53 0
160 -159 53 0
160 159 -53 0
-161 160 63 0
-161 -160 -63 0
161 -160 63 0
161 160 -63 0
-162 161 64 0
-162 -161 -64 0
162 -161 64 0
162 161 -64 0
-163 162 101 0
-163 -162 -101 0
163 -162 101 0
163 162 -101 0
-163 0
-164 6 9 0
-164 -6 -9 0
164 -6 9 0
164 6 -9 0
-165 164 54 0
-165 -164 -54 0
165 -164 54 0
165 164 -54 0
-166 165 64 0
-166 -165 -64 0
166 -165 64 0
166 165 -64 0
-167 166 65 0
-167 -166 -65 0
167 -166 65 0
167 166 -65 0
-168 167 102 0
-168 -167 -102 0
168 -167 102 0
168 167 -102 0
-168 0
-169 1 7 0
-169 -1 -7 0
169 -1 7 0
169 1 -7 0
-170 169 16 0
-170 -169 -16 0
170 -169 16 0
170 169 -16 0
-171 170 71 0
-171 -170 -71 0
171 -170 71 0
171 170 -71 0
-172 171 72 0
-172 -171 -72 0
172 -171 72 0
172 171 -72 0
-173 172 103 0
-173 -172 -103 0
173 -172 103 0
173 172 -103 0
-173 0
-174 2 8 0
-174 -2 -8 0
174 -2 8 0
174 2 -8 0
-175 174 17 0
-175 -174 -17 0
175 -174 17 0
175 174 -17 0
-176 175 67 0
-176 -175 -67 0
176 -175 67 0
176 175 -67 0
-177 176 72 0
-177 -176 -72 0
177 -176 72 0
177 176 -72 0
-178 177 104 0
-178 -177 -104 0
178 -177 104 0
178 177 -104 0
-178 0
-179 3 9 0
-179 -3 -9 0
179 -3 9 0
179 3 -9 0
-180 179 18 0
-180 -179 -18 0
180 -179 18 0
180 179 -18 0
-181 180 67 0
-181 -180 -67 0
181 -180 67 0
181 180 -67 0
-182 181 68 0
-182 -181 -68 0
182 -181 68 0
182 181 -68 0
-183 182 105 0
-183 -182 -105 0
183 -182 105 0
183 182 -105 0
-183 0
-184 4 10 0
-184 -4 -10 0
184 -4 10 0
184 4 -10 0
-185 184 13 0
-185 -184 -13 0
185 -184 13 0
185 184 -13 0
-186 185 68 0
-186 -185 -68 0
186 -185 68 0
186 185 -68 0
-187 186 69 0
-187 -186 -69 0
187 -186 69 0
187 186 -69 0
-188 187 106 0
-188 -187 -106 0
188 -187 106 0
188 187 -106 0
-188 0
-189 5 11 0
-189 -5 -11 0
189 -5 11 0
189 5 -11 0
-190 189 14 0
-190 -189 -14 0
190 -189 14 0
190 189 -14 0
-191 190 69 0
-191 -190 -69 0
191 -190 69 0
191 190 -69 0
-192 191 70 0
-192 -191 -70 0
192 -191 70 0
192 191 -70 0
-193 192 107 0
-193 -192 -107 0
193 -192 107 0
193 192 -107 0
-193 0
-194 6 12 0
-194 -6 -12 0
194 -6 12 0
194 6 -12 0
-195 194 15 0
-195 -194 -15 0
195 -194 15 0
195 194 -15 0
-196 195 70 0
-196 -195 -70 0
196 -195 70 0
196 195 -70 0
-197 196 71 0
-197 -196 -71 0
197 -196 71 0
197 196 -71 0
-198 197 108 0
-198 -197 -108 0
198 -197 108 0
198 197 -108 0
-198 0
-199 7 13 0
-199 -7 -13 0
199 -7 13 0
199 7 -13 0
-200 199 22 0
-200 -199 -22 0
200 -199 22 0
200 199 -22 0
-201 200 55 0
-201 -200 -55 0
201 -200 55 0
201 200 -55 0
-202 201 77 0
-202 -201 -77 0
202 -201 77 0
202 201 -77 0
-203 202 78 0
-203 -202 -78 0
203 -202 78 0
203 202 -78 0
-203 0
-204 8 14 0
-204 -8 -14 0
204 -8 14 0
204 8 -14 0
-205 204 23 0
-205 -204 -23 0
205 -204 23 0
205 204 -23 0
-206 205 56 0
-206 -205 -56 0
206 -205 56 0
206 205 -56 0
-207 206 73 0
-207 -206 -73 0
207 -206 73 0
207 206 -73 0
-208 207 78 0
-208 -207 -78 0
208 -207 78 0
208 207 -78 0
-208 0
-209 9 15 0
-209 -9 -15 0
209 -9 15 0
209 9 -15 0
-210 209 24 0
-210 -209 -24 0
210 -209 24 0
210 209 -24 0
-211 210 57 0
-211 -210 -57 0
211 -210 57 0
211 210 -57 0
-212 211 73 0
-212 -211 -73 0
212 -211 73 0
212 211 -73 0
-213 212 74 0
-213 -212 -74 0
213 -212 74 0
213 212 -74 0
-213 0
-214 10 16 0
-214 -10 -16 0
214 -10 16 0
214 10 -16 0
-215 214 19 0
-215 -214 -19 0
215 -214 19 0
215 214 -19 0
-216 215 58 0
-216 -215 -58 0
216 -215 58 0
216 215 -58 0
-217 216 74 0
-217 -216 -74 0
217 -216 74 0
217 216 -74 0
-218 217 75 0
-218 -217 -75 0
218 -217 75 0
218 217 -75 0
-218 0
-219 11 17 0
-219 -11 -17 0
219 -11 17 0
219 11 -17 0
-220 219 20 0
-220 -219 -20 0
220 -219 20 0
220 219 -20 0
-221 220 59 0
-221 -220 -59 0
221 -220 59 0
221 220 -59 0
-222 221 75 0
-222 -221 -75 0
222 -221 75 0
222 221 -75 0
-223 222 76 0
-223 -222 -76 0
223 -222 76 0
223 222 -76 0
-223 0
-224 12 18 0
-224 -12 -18 0
224 -12 18 0
224 12 -18 0
-225 224 21 0
-225 -224 -21 0
225 -224 21 0
225 224 -21 0
-226 225 60 0
-226 -225 -60 0
226 -225 60 0
226 225 -60 0
-227 226 76 0
-227 -226 -76 0
227 -226 76 0
227 226 -76 0
-228 227 77 0
-228 -227 -77 0
228 -227 77 0
228 227 -77 0
-228 0
-229 13 19 0
-229 -13 -19 0
229 -13 19 0
229 13 -19 0
-230 229 28 0
-230 -229 -28 0
230 -229 28 0
230 229 -28 0
-231 230 61 0
-231 -230 -61 0
231 -230 61 0
231 230 -61 0
-232 231 83 0
-232 -231 -83 0
232 -231 83 0
232 231 -83 0
-233 232 84 0
-233 -232 -84 0
233 -232 84 0
233 232 -84 0
-233 0
-234 14 20 0
-234 -14 -20 0
234 -14 20 0
234 14 -20 0
-235 234 29 0
-235 -234 -29 0
235 -234 29 0
235 234 -29 0
-236 235 62 0
-236 -235 -62 0
236 -235 62 0
236 235 -62 0
-237 236 79 0
-237 -236 -79 0
237 -236 79 0
237 236 -79 0
-238 237 84 0
-238 -237 -84 0
238 -237 84 0
238 237 -84 0
-238 0
-239 15 21 0
-239 -15 -21 0
239 -15 21 0
239 15 -21 0
-240 239 30 0
-240 -239 -30 0
240 -239 30 0
240 239 -30 0
-241 240 63 0
-241 -240 -63 0
241 -240 63 0
241 240 -63 0
-242 241 79 0
-242 -241 -79 0
242 -241 79 0
242 241 -79 0
-243 242 80 0
-243 -242 -80 0
243 -242 80 0
243 242 -80 0
-243 0
-244 16 22 0
-244 -16 -22 0
244 -16 22 0
244 16 -22 0
-245 244 25 0
-245 -244 -25 0
245 -244 25 0
245 244 -25 0
-246 245 64 0
-246 -245 -64 0
246 -245 64 0
246 245 -64 0
-247 246 80 0
-247 -246 -80 0
247 -246 80 0
247 246 -80 0
-248 247 81 0
-248 -247 -81 0
248 -247 81 0
248 247 -81 0
-248 0
-249 17 23 0
-249 -17 -23 0
249 -17 23 0
249 17 -23 0
-250 249 26 0
-250 -249 -26 0
250 -249 26 0
250 249 -26 0
-251 250 65 0
-251 -250 -65 0
251 -250 65 0
251 250 -65 0
-252 251 81 0
-252 -251 -81 0
252 -251 81 0
252 251 -81 0
-253 252 82 0
-253 -252 -82 0
253 -252 82 0
253 252 -82 0
-253 0
-254 18 24 0
-254 -18 -24 0
254 -18 24 0
254 18 -24 0
-255 254 27 0
-255 -254 -27 0
255 -254 27 0
255 254 -27 0
-256 255 66 0
-256 -255 -66 0
256 -255 66 0
256 255 -66 0
-257 256 82 0
-257 -256 -82 0
257 -256 82 0
257 256 -82 0
-258 257 83 0
-258 -257 -83 0
258 -257 83 0
258 257 -83 0
-258 0
-259 19 25 0
-259 -19 -25 0
259 -19 25 0
259 19 -25 0
-260 259 34 0
-260 -259 -34 0
260 -259 34 0
260 259 -34 0
-261 260 67 0
-261 -260 -67 0
261 -260 67 0
261 260 -67 0
-262 261 89 0
-262 -261 -89 0
262 -261 89 0
262 261 -89 0
-263 262 90 0
-263 -262 -90 0
263 -262 90 0
263 262 -90 0
-263 0
-264 20 26 0
-264 -20 -26 0
264 -20 26 0
264 20 -26 0
-265 264 35 0
-265 -264 -35 0
265 -264 35 0
265 264 -35 0
-266 265 68 0
-266 -265 -68 0
266 -265 68 0
266 265 -68 0
-267 266 85 0
-267 -266 -85 0
267 -266 85 0
267 266 -85 0
-268 267 90 0
-268 -267 -90 0
268 -267 90 0
268 267 -90 0
-268 0
-269 21 27 0
-269 -21 -27 0
269 -21 27 0
269 21 -27 0
-270 269 36 0
-270 -269 -36 0
270 -269 36 0
270 269 -36 0
-271 270 69 0
-271 -270 -69 0
271 -270 69 0
271 270 -69 0
-272 271 85 0
-272 -271 -85 0
272 -271 85 0
272 271 -85 0
-273 272 86 0
-273 -272 -86 0
273 -272 86 0
273 272 -86 0
-273 0
-274 22 28 0
-274 -22 -28 0
274 -22 28 0
274 22 -28 0
-275 274 31 0
-275 -274 -31 0
275 -274 31 0
275 274 -31 0
-276 275 70 0
-276 -275 -70 0
276 -275 70 0
276 275 -70 0
-277 276 86 0
-277 -276 -86 0
277 -276 86 0
277 276 -86 0
-278 277 87 0
-278 -277 -87 0
278 -277 87 0
278 277 -87 0
-278 0
-279 23 29 0
-279 -23 -29 0
279 -23 29 0
279 23 -29 0
-280 279 32 0
-280 -279 -32 0
280 -279 32 0
280 279 -32 0
-281 280 71 0
-281 -280 -71 0
281 -280 71 0
281 280 -71 0
-282 281 87 0
-282 -281 -87 0
282 -281 87 0
282 281 -87 0
-283 282 88 0
-283 -282 -88 0
283 -282 88 0
283 282 -88 0
-283 0
-284 24 30 0
-284 -24 -30 0
284 -24 30 0
284 24 -30 0
-285 284 33 0
-285 -284 -33 0
285 -284 33 0
285 284 -33 0
-286 285 72 0
-286 -285 -72 0
286 -285 72 0
286 285 -72 0
-287 286 88 0
-287 -286 -88 0
287 -286 88 0
287 286 -88 0
-288 287 89 0
-288 -287 -89 0
288 -287 89 0
288 287 -89 0
-288 0
-289 25 31 0
-289 -25 -31 0
289 -25 31 0
289 25 -31 0
-290 289 40 0
-290 -289 -40 0
290 -289 40 0
290 289 -40 0
-291 290 73 0
-291 -290 -73 0
291 -290 73 0
291 290 -73 0
-292 291 95 0
-292 -291 -95 0
292 -291 95 0
292 291 -95 0
-293 292 96 0
-293 -292 -96 0
293 -292 96 0
293 292 -96 0
-293 0
-294 26 32 0
-294 -26 -32 0
294 -26 32 0
294 26 -32 0
-295 294 41 0
-295 -294 -41 0
295 -294 41 0
295 294 -41 0
-296 295 74 0
-296 -295 -74 0
296 -295 74 0
296 295 -74 0
-297 296 91 0
-297 -296 -91 0
297 -296 91 0
297 296 -91 0
-298 297 96 0
-298 -297 -96 0
298 -297 96 0
298 297 -96 0
-298 0
-299 27 33 0
-299 -27 -33 0
299 -27 33 0
299 27 -33 0
-300 299 42 0
-300 -299 -42 0
300 -299 42 0
300 299 -42 0
-301 300 75 0
-301 -300 -75 0
301 -300 75 0
301 300 -75 0
-302 301 91 0
-302 -301 -91 0
302 -301 91 0
302 301 -91 0
-303 302 92 0
-303 -302 -92 0
303 -302 92 0
303 302 -92 0
-303 0
-304 28 34 0
-304 -28 -34 0
304 -28 34 0
304 28 -34 0
-305 304 37 0
-305 -304 -37 0
305 -304 37 0
305 304 -37 0
-306 305 76 0
-306 -305 -76 0
306 -305 76 0
306 305 -76 0
-307 306 92 0
-307 -306 -92 0
307 -306 92 0
307 306 -92 0
-308 307 93 0
-308 -307 -93 0
308 -307 93 0
308 307 -93 0
-308 0
-309 29 35 0
-309 -29 -35 0
309 -29 35 0
309 29 -35 0
-310 309 38 0
-310 -309 -38 0
310 -309 38 0
310 309 -38 0
-311 310 77 0
-311 -310 -77 0
311 -310 77 0
311 310 -77 0
-312 311 93 0
-312 -311 -93 0
312 -311 93 0
312 311 -93 0
-313 312 94 0
-313 -312 -94 0
313 -312 94 0
313 312 -94 0
-313 0
-314 30 36 0
-314 -30 -36 0
314 -30 36 0
314 30 -36 0
-315 314 39 0
-315 -314 -39 0
315 -314 39 0
315 314 -39 0
-316 315 78 0
-316 -315 -78 0
316 -315 78 0
316 315 -78 0
-317 316 94 0
-317 -316 -94 0
317 -316 94 0
317 316 -94 0
-318 317 95 0
-318 -317 -95 0
318 -317 95 0
318 317 -95 0
-318 0
-319 31 37 0
-319 -31 -37 0
319 -31 37 0
319 31 -37 0
-320 319 46 0
-320 -319 -46 0
320 -319 46 0
320 319 -46 0
-321 320 79 0
-321 -320 -79 0
321 -320 79 0
321 320 -79 0
-322 321 101 0
-322 -321 -101 0
322 -321 101 0
322 321 -101 0
-323 322 102 0
-323 -322 -102 0
323 -322 102 0
323 322 -102 0
-323 0
-324 32 38 0
-324 -32 -38 0
324 -32 38 0
324 32 -38 0
-325 324 47 0
-325 -324 -47 0
325 -324 47 0
325 324 -47 0
-326 325 80 0
-326 -325 -80 0
326 -325 80 0
326 325 -80 0
-327 326 97 0
-327 -326 -97 0
327 -326 97 0
327 326 -97 0
-328 327 102 0
-328 -327 -102 0
328 -327 102 0
328 327 -102 0
-328 0
-329 33 39 0
-329 -33 -39 0
329 -33 39 0
329 33 -39 0
-330 329 48 0
-330 -329 -48 0
330 -329 48 0
330 329 -48 0
-331 330 81 0
-331 -330 -81 0
331 -330 81 0
331 330 -81 0
-332 331 97 0
-332 -331 -97 0
332 -331 97 0
332 331 -97 0
-333 332 98 0
-333 -332 -98 0
333 -332 98 0
333 332 -98 0
-333 0
-334 34 40 0
-334 -34 -40 0
334 -34 40 0
334 34 -40 0
-335 334 43 0
-335 -334 -43 0
335 -334 43 0
335 334 -43 0
-336 335 82 0
-336 -335 -82 0
336 -335 82 0
336 335 -82 0
-337 336 98 0
-337 -336 -98 0
337 -336 98 0
337 336 -98 0
-338 337 99 0
-338 -337 -99 0
338 -337 99 0
338 337 -99 0
-338 0
-339 35 41 0
-339 -35 -41 0
339 -35 41 0
339 35 -41 0
-340 339 44 0
-340 -339 -44 0
340 -339 44 0
340 339 -44 0
-341 340 83 0
-341 -340 -83 0
341 -340 83 0
341 340 -83 0
-342 341 99 0
-342 -341 -99 0
342 -341 99 0
342 341 -99 0
-343 342 100 0
-343 -342 -100 0
343 -342 100 0
343 342 -100 0
-343 0
-344 36 42 0
-344 -36 -42 0
344 -36 42 0
344 36 -42 0
-345 344 45 0
-345 -344 -45 0
345 -344 45 0
345 344 -45 0
-346 345 84 0
-346 -345 -84 0
346 -345 84 0
346 345 -84 0
-347 346 100 0
-347 -346 -100 0
347 -346 100 0
347 346 -100 0
-348 347 101 0
-348 -347 -101 0
348 -347 101 0
348 347 -101 0
-348 0
-349 37 43 0
-349 -37 -43 0
349 -37 43 0
349 37 -43 0
-350 349 52 0
-350 -349 -52 0
350 -349 52 0
350 349 -52 0
-351 350 85 0
-351 -350 -85 0
351 -350 85 0
351 350 -85 0
-352 351 107 0
-352 -351 -107 0
352 -351 107 0
352 351 -107 0
-353 352 108 0
-353 -352 -108 0
353 -352 108 0
353 352 -108 0
-353 0
-354 38 44 0
-354 -38 -44 0
354 -38 44 0
354 38 -44 0
-355 354 53 0
-355 -354 -53 0
355 -354 53 0
355 354 -53 0
-356 355 86 0
-356 -355 -86 0
356 -355 86 0
356 355 -86 0
-357 356 103 0
-357 -356 -103 0
357 -356 103 0
357 356 -103 0
-358 357 108 0
-358 -357 -108 0
358 -357 108 0
358 357 -108 0
-358 0
-359 39 45 0
-359 -39 -45 0
359 -39 45 0
359 39 -45 0
-360 359 54 0
-360 -359 -54 0
360 -359 54 0
360 359 -54 0
-361 360 87 0
-361 -360 -87 0
361 -360 87 0
361 360 -87 0
-362 361 103 0
-362 -361 -103 0
362 -361 103 0
362 361 -103 0
-363 362 104 0
-363 -362 -104 0
363 -362 104 0
363 362 -104 0
-363 0
-364 40 46 0
-364 -40 -46 0
364 -40 46 0
364 40 -46 0
-365 364 49 0
-365 -364 -49 0
365 -364 49 0
365 364 -49 0
-366 365 88 0
-366 -365 -88 0
366 -365 88 0
366 365 -88 0
-367 366 104 0
-367 -366 -104 0
367 -366 104 0
367 366 -104 0
-368 367 105 0
-368 -367 -105 0
368 -367 105 0
368 367 -105 0
-368 0
-369 41 47 0
-369 -41 -47 0
369 -41 47 0
369 41 -47 0
-370 369 50 0
-370 -369 -50 0
370 -369 50 0
370 369 -50 0
-371 370 89 0
-371 -370 -89 0
371 -370 89 0
371 370 -89 0
-372 371 105 0
-372 -371 -105 0
372 -371 105 0
372 371 -105 0
-373 372 106 0
-373 -372 -106 0
373 -372 106 0
373 372 -106 0
-373 0
-374 42 48 0
-374 -42 -48 0
374 -42 48 0
374 42 -48 0
-375 374 51 0
-375 -374 -51 0
375 -374 51 0
375 374 -51 0
-376 375 90 0
-376 -375 -90 0
376 -375 90 0
376 375 -90 0
-377 376 106 0
-377 -376 -106 0
377 -376 106 0
377 376 -106 0
-378 377 107 0
-378 -377 -107 0
378 -377 107 0
378 377 -107 0
-378 0
-379 1 2 0
-379 -1 -2 0
379 -1 2 0
379 1 -2 0
-380 379 4 0
-380 -379 -4 0
380 -379 4 0
380 379 -4 0
-381 380 5 0
-381 -380 -5 0
381 -380 5 0
381 380 -5 0
-382 381 19 0
-382 -381 -19 0
382 -381 19 0
382 381 -19 0
-383 382 20 0
-383 -382 -20 0
383 -382 20 0
383 382 -20 0
-384 383 22 0
-384 -383 -22 0
384 -383 22 0
384 383 -22 0
-385 384 23 0
-385 -384 -23 0
385 -384 23 0
385 384 -23 0
-386 385 37 0
-386 -385 -37 0
386 -385 37 0
386 385 -37 0
-387 386 38 0
-387 -386 -38 0
387 -386 38 0
387 386 -38 0
-388 387 40 0
-388 -387 -40 0
388 -387 40 0
388 387 -40 0
-389 388 41 0
-389 -388 -41 0
389 -388 41 0
389 388 -41 0
-390 1 3 0
-390 -1 -3 0
390 -1 3 0
390 1 -3 0
-391 390 4 0
-391 -390 -4 0
391 -390 4 0
391 390 -4 0
-392 391 6 0
-392 -391 -6 0
392 -391 6 0
392 391 -6 0
-393 392 19 0
-393 -392 -19 0
393 -392 19 0
393 392 -19 0
-394 393 21 0
-394 -393 -21 0
394 -393 21 0
394 393 -21 0
-395 394 22 0
-395 -394 -22 0
395 -394 22 0
395 394 -22 0
-396 395 24 0
-396 -395 -24 0
396 -395 24 0
396 395 -24 0
-397 396 37 0
-397 -396 -37 0
397 -396 37 0
397 396 -37 0
-398 397 39 0
-398 -397 -39 0
398 -397 39 0
398 397 -39 0
-399 398 40 0
-399 -398 -40 0
399 -398 40 0
399 398 -40 0
-400 399 42 0
-400 -399 -42 0
400 -399 42 0
400 399 -42 0
-401 7 8 0
-401 -7 -8 0
401 -7 8 0
401 7 -8 0
-402 401 10 0
-402 -401 -10 0
402 -401 10 0
402 401 -10 0
-403 402 11 0
-403 -402 -11 0
403 -402 11 0
403 402 -11 0
-404 403 25 0
-404 -403 -25 0
404 -403 25 0
404 403 -25 0
-405 404 26 0
-405 -404 -26 0
405 -404 26 0
405 404 -26 0
-406 405 28 0
-406 -405 -28 0
406 -405 28 0
406 405 -28 0
-407 406 29 0
-407 -406 -29 0
407 -406 29 0
407 406 -29 0
-408 407 43 0
-408 -407 -43 0
408 -407 43 0
408 407 -43 0
-409 408 44 0
-409 -408 -44 0
409 -408 44 0
409 408 -44 0
-410 409 46 0
-410 -409 -46 0
410 -409 46 0
410 409 -46 0
-411 410 47 0
-411 -410 -47 0
411 -410 47 0
411 410 -47 0
-412 7 9 0
-412 -7 -9 0
412 -7 9 0
412 7 -9 0
-413 412 10 0
-413 -412 -10 0
413 -412 10 0
413 412 -10 0
-414 413 12 0
-414 -413 -12 0
414 -413 12 0
414 413 -12 0
-415 414 25 0
-415 -414 -25 0
415 -414 25 0
415 414 -25 0
-416 415 27 0
-416 -415 -27 0
416 -415 27 0
416 415 -27 0
-417 416 28 0
-417 -416 -28 0
417 -416 28 0
417 416 -28 0
-418 417 30 0
-418 -417 -30 0
418 -417 30 0
418 417 -30 0
-419 418 43 0
-419 -418 -43 0
419 -418 43 0
419 418 -43 0
-420 419 45 0
-420 -419 -45 0
420 -419 45 0
420 419 -45 0
-421 420 46 0
-421 -420 -46 0
421 -420 46 0
421 420 -46 0
-422 421 48 0
-422 -421 -48 0
422 -421 48 0
422 421 -48 0
-423 1 2 0
-423 -1 -2 0
423 -1 2 0
423 1 -2 0
-424 423 5 0
-424 -423 -5 0
424 -423 5 0
424 423 -5 0
-425 424 6 0
-425 -424 -6 0
425 -424 6 0
425 424 -6 0
-426 425 11 0
-426 -425 -11 0
426 -425 11 0
426 425 -11 0
-427 426 21 0
-427 -426 -21 0
427 -426 21 0
427 426 -21 0
-428 427 22 0
-428 -427 -22 0
428 -427 22 0
428 427 -22 0
-429 428 27 0
-429 -428 -27 0
429 -428 27 0
429 428 -27 0
-430 429 37 0
-430 -429 -37 0
430 -429 37 0
430 429 -37 0
-431 430 39 0
-431 -430 -39 0
431 -430 39 0
431 430 -39 0
-432 431 43 0
-432 -431 -43 0
432 -431 43 0
432 431 -43 0
-433 432 44 0
-433 -432 -44 0
433 -432 44 0
433 432 -44 0
-434 433 55 0
-434 -433 -55 0
434 -433 55 0
434 433 -55 0
-435 434 61 0
-435 -434 -61 0
435 -434 61 0
435 434 -61 0
-436 1 2 0
-436 -1 -2 0
436 -1 2 0
436 1 -2 0
-437 436 3 0
-437 -436 -3 0
437 -436 3 0
437 436 -3 0
-438 437 6 0
-438 -437 -6 0
438 -437 6 0
438 437 -6 0
-439 438 12 0
-439 -438 -12 0
439 -438 12 0
439 438 -12 0
-440 439 22 0
-440 -439 -22 0
440 -439 22 0
440 439 -22 0
-441 440 23 0
-441 -440 -23 0
441 -440 23 0
441 440 -23 0
-442 441 28 0
-442 -441 -28 0
442 -441 28 0
442 441 -28 0
-443 442 38 0
-443 -442 -38 0
443 -442 38 0
443 442 -38 0
-444 443 40 0
-444 -443 -40 0
444 -443 40 0
444 443 -40 0
-445 444 44 0
-445 -444 -44 0
445 -444 44 0
445 444 -44 0
-446 445 45 0
-446 -445 -45 0
446 -445 45 0
446 445 -45 0
-447 446 56 0
-447 -446 -56 0
447 -446 56 0
447 446 -56 0
-448 447 62 0
-448 -447 -62 0
448 -447 62 0
448 447 -62 0
-449 1 2 0
-449 -1 -2 0
449 -1 2 0
449 1 -2 0
-450 449 5 0
-450 -449 -5 0
450 -449 5 0
450 449 -5 0
-451 450 6 0
-451 -450 -6 0
451 -450 6 0
451 450 -6 0
-452 451 7 0
-452 -451 -7 0
452 -451 7 0
452 451 -7 0
-453 452 8 0
-453 -452 -8 0
453 -452 8 0
453 452 -8 0
-454 453 12 0
-454 -453 -12 0
454 -453 12 0
454 453 -12 0
-455 454 17 0
-455 -454 -17 0
455 -454 17 0
455 454 -17 0
-456 455 21 0
-456 -455 -21 0
456 -455 21 0
456 455 -21 0
-457 456 22 0
-457 -456 -22 0
457 -456 22 0
457 456 -22 0
-458 457 28 0
-458 -457 -28 0
458 -457 28 0
458 457 -28 0
-459 458 33 0
-459 -458 -33 0
459 -458 33 0
459 458 -33 0
-460 459 37 0
-460 -459 -37 0
460 -459 37 0
460 459 -37 0
-461 460 39 0
-461 -460 -39 0
461 -460 39 0
461 460 -39 0
-462 461 44 0
-462 -461 -44 0
462 -461 44 0
462 461 -44 0
-463 462 45 0
-463 -462 -45 0
463 -462 45 0
463 462 -45 0
-464 463 49 0
-464 -463 -49 0
464 -463 49 0
464 463 -49 0
-465 464 50 0
-465 -464 -50 0
465 -464 50 0
465 464 -50 0
-466 465 55 0
-466 -465 -55 0
466 -465 55 0
466 465 -55 0
-467 466 67 0
-467 -466 -67 0
467 -466 67 0
467 466 -67 0
-468 1 2 0
-468 -1 -2 0
468 -1 2 0
468 1 -2 0
-469 468 3 0
-469 -468 -3 0
469 -468 3 0
469 468 -3 0
-470 469 6 0
-470 -469 -6 0
470 -469 6 0
470 469 -6 0
-471 470 7 0
-471 -470 -7 0
471 -470 7 0
471 470 -7 0
-472 471 8 0
-472 -471 -8 0
472 -471 8 0
472 471 -8 0
-473 472 9 0
-473 -472 -9 0
473 -472 9 0
473 472 -9 0
-474 473 18 0
-474 -473 -18 0
474 -473 18 0
474 473 -18 0
-475 474 22 0
-475 -474 -22 0
475 -474 22 0
475 474 -22 0
-476 475 23 0
-476 -475 -23 0
476 -475 23 0
476 475 -23 0
-477 476 29 0
-477 -476 -29 0
477 -476 29 0
477 476 -29 0
-478 477 34 0
-478 -477 -34 0
478 -477 34 0
478 477 -34 0
-479 478 38 0
-479 -478 -38 0
479 -478 38 0
479 478 -38 0
-480 479 40 0
-480 -479 -40 0
480 -479 40 0
480 479 -40 0
-481 480 45 0
-481 -480 -45 0
481 -480 45 0
481 480 -45 0
-482 481 46 0
-482 -481 -46 0
482 -481 46 0
482 481 -46 0
-483 482 50 0
-483 -482 -50 0
483 -482 50 0
483 482 -50 0
-484 483 51 0
-484 -483 -51 0
484 -483 51 0
484 483 -51 0
-485 484 56 0
-485 -484 -56 0
485 -484 56 0
485 484 -56 0
-486 485 68 0
-486 -485 -68 0
486 -485 68 0
486 485 -68 0
389 400 411 422 435 448 467 486 0
-1 487 0
-488 0
-489 0
-490 0
-491 0
-492 0
-493 0
-494 0
-495 0
-496 0
-2 497 0
-487 497 0
-2 -487 498 0
-488 498 0
-2 -488 499 0
-489 499 0
-2 -489 500 0
-490 500 0
-2 -490 501 0
-491 501 0
-2 -491 502 0
-492 502 0
-2 -492 503 0
-493 503 0
-2 -493 504 0
-494 504 0
-2 -494 505 0
-495 505 0
-2 -495 506 0
-496 506 0
-2 -496 0
-3 507 0
-497 507 0
-3 -497 508 0
-498 508 0
-3 -498 509 0
-499 509 0
-3 -499 510 0
-500 510 0
-3 -500 511 0
-501 511 0
-3 -501 512 0
-502 512 0
-3 -502 513 0
-503 513 0
-3 -503 514 0
-504 514 0
-3 -504 515 0
-505 515 0
-3 -505 516 0
-506 516 0
-3 -506 0
-4 517 0
-507 517 0
-4 -507 518 0
-508 518 0
-4 -508 519 0
-509 519 0
-4 -509 520 0
-510 520 0
-4 -510 521 0
-511 521 0
-4 -511 522 0
-512 522 0
-4 -512 523 0
-513 523 0
-4 -513 524 0
-514 524 0
-4 -514 525 0
-515 525 0
-4 -515 526 0
-516 526 0
-4 -516 0
-5 527 0
-517 527 0
-5 -517 528 0
-518 528 0
-5 -518 529 0
-519 529 0
-5 -519 530 0
-520 530 0
-5 -520 531 0
-521 531 0
-5 -521 532 0
-522 532 0
-5 -522 533 0
-523 533 0
-5 -523 534 0
-524 534 0
-5 -524 535 0
-525 535 0
-5 -525 536 0
-526 536 0
-5 -526 0
-6 537 0
-527 537 0
-6 -527 538 0
-528 538 0
-6 -528 539 0
-529 539 0
-6 -529 540 0
-530 540 0
-6 -530 541 0
-531 541 0
-6 -531 542 0
-532 542 0
-6 -532 543 0
-533 543 0
-6 -533 544 0
-534 544 0
-6 -534 545 0
-535 545 0
-6 -535 546 0
-536 546 0
-6 -536 0
-7 547 0
-537 547 0
-7 -537 548 0
-538 548 0
-7 -538 549 0
-539 549 0
-7 -539 550 0
-540 550 0
-7 -540 551 0
-541 551 0
-7 -541 552 0
-542 552 0
-7 -542 553 0
-543 553 0
-7 -543 554 0
-544 554 0
-7 -544 555 0
-545 555 0
-7 -545 556 0
-546 556 0
-7 -546 0
-8 557 0
-547 557 0
-8 -547 558 0
-548 558 0
-8 -548 559 0
-549 559 0
-8 -549 560 0
-550 560 0
-8 -550 561 0
-551 561 0
-8 -551 562 0
-552 562 0
-8 -552 563 0
-553 563 0
-8 -553 564 0
-554 564 0
-8 -554 565 0
-555 565 0
-8 -555 566 0
-556 566 0
-8 -556 0
-9 567 0
-557 567 0
-9 -557 568 0
-558 568 0
-9 -558 569 0
-559 569 0
-9 -559 570 0
-560 570 0
-9 -560 571 0
-561 571 0
-9 -561 572 0
-562 572 0
-9 -562 573 0
-563 573 0
-9 -563 574 0
-564 574 0
-9 -564 575 0
-565 575 0
-9 -565 576 0
-566 576 0
-9 -566 0
-10 577 0
-567 577 0
-10 -567 578 0
-568 578 0
-10 -568 579 0
-569 579 0
-10 -569 580 0
-570 580 0
-10 -570 581 0
-571 581 0
-10 -571 582 0
-572 582 0
-10 -572 583 0
-573 583 0
-10 -573 584 0
-574 584 0
-10 -574 585 0
-575 585 0
-10 -575 586 0
-576 586 0
-10 -576 0
-11 587 0
-577 587 0
-11 -577 588 0
-578 588 0
-11 -578 589 0
-579 589 0
-11 -579 590 0
-580 590 0
-11 -580 591 0
-581 591 0
-11 -581 592 0
-582 592 0
-11 -582 593 0
-583 593 0
-11 -583 594 0
-584 594 0
-11 -584 595 0
-585 595 0
-11 -585 596 0
-586 596 0
-11 -586 0
-12 597 0
-587 597 0
-12 -587 598 0
-588 598 0
-12 -588 599 0
-589 599 0
-12 -589 600 0
-590 600 0
-12 -590 601 0
-591 601 0
-12 -591 602 0
-592 602 0
-12 -592 603 0
-593 603 0
-12 -593 604 0
-594 604 0
-12 -594 605 0
-595 605 0
-12 -595 606 0
-596 606 0
-12 -596 0
-13 607 0
-597 607 0
-13 -597 608 0
-598 608 0
-13 -598 609 0
-599 609 0
-13 -599 610 0
-600 610 0
-13 -600 611 0
-601 611 0
-13 -601 612 0
-602 612 0
-13 -602 613 0
-603 613 0
-13 -603 614 0
-604 614 0
-13 -604 615 0
-605 615 0
-13 -605 616 0
-606 616 0
-13 -606 0
-14 617 0
-607 617 0
-14 -607 618 0
-608 618 0
-14 -608 619 0
-609 619 0
-14 -609 620 0
-610 620 0
-14 -610 621 0
-611 621 0
-14 -611 622 0
-612 622 0
-14 -612 623 0
-613 623 0
-14 -613 624 0
-614 624 0
-14 -614 625 0
-615 625 0
-14 -615 626 0
-616 626 0
-14 -616 0
-15 627 0
-617 627 0
-15 -617 628 0
-618 628 0
-15 -618 629 0
-619 629 0
-15 -619 630 0
-620 630 0
-15 -620 631 0
-621 631 0
-15 -621 632 0
-622 632 0
-15 -622 633 0
-623 633 0
-15 -623 634 0
-624 634 0
-15 -624 635 0
-625 635 0
-15 -625 636 0
-626 636 0
-15 -626 0
-16 637 0
-627 637 0
-16 -627 638 0
-628 638 0
-16 -628 639 0
-629 639 0
-16 -629 640 0
-630 640 0
-16 -630 641 0
-631 641 0
-16 -631 642 0
-632 642 0
-16 -632 643 0
-633 643 0
-16 -633 644 0
-634 644 0
-16 -634 645 0
-635 645 0
-16 -635 646 0
-636 646 0
-16 -636 0
-17 647 0
-637 647 0
-17 -637 648 0
-638 648 0
-17 -638 649 0
-639 649 0
-17 -639 650 0
-640 650 0
-17 -640 651 0
-641 651 0
-17 -641 652 0
-642 652 0
-17 -642 653 0
-643 653 0
-17 -643 654 0
-644 654 0
-17 -644 655 0
-645 655 0
-17 -645 656 0
-646 656 0
-17 -646 0
-18 657 0
-647 657 0
-18 -647 658 0
-648 658 0
-18 -648 659 0
-649 659 0
-18 -649 660 0
-650 660 0
-18 -650 661 0
-651 661 0
-18 -651 662 0
-652 662 0
-18 -652 663 0
-653 663 0
-18 -653 664 0
-654 664 0
-18 -654 665 0
-655 665 0
-18 -655 666 0
-656 666 0
-18 -656 0
-19 667 0
-657 667 0
-19 -657 668 0
-658 668 0
-19 -658 669 0
-659 669 0
-19 -659 670 0
-660 670 0
-19 -660 671 0
-661 671 0
-19 -661 672 0
-662 672 0
-19 -662 673 0
-663 673 0
-19 -663 674 0
-664 674 0
-19 -664 675 0
-665 675 0
-19 -665 676 0
-666 676 0
-19 -666 0
-20 677 0
-667 677 0
-20 -667 678 0
-668 678 0
-20 -668 679 0
-669 679 0
-20 -669 680 0
-670 680 0
-20 -670 681 0
-671 681 0
-20 -671 682 0
-672 682 0
-20 -672 683 0
-673 683 0
-20 -673 684 0
-674 684 0
-20 -674 685 0
-675 685 0
-20 -675 686 0
-676 686 0
-20 -676 0
-21 687 0
-677 687 0
-21 -677 688 0
-678 688 0
-21 -678 689 0
-679 689 0
-21 -679 690 0
-680 690 0
-21 -680 691 0
-681 691 0
-21 -681 692 0
-682 692 0
-21 -682 693 0
-683 693 0
-21 -683 694 0
-684 694 0
-21 -684 695 0
-685 695 0
-21 -685 696 0
-686 696 0
-21 -686 0
-22 697 0
-687 697 0
-22 -687 698 0
-688 698 0
-22 -688 699 0
-689 699 0
-22 -689 700 0
-690 700 0
-22 -690 701 0
-691 701 0
-22 -691 702 0
-692 702 0
-22 -692 703 0
-693 703 0
-22 -693 704 0
-694 704 0
-22 -694 705 0
-695 705 0
-22 -695 706 0
-696 706 0
-22 -696 0
-23 707 0
-697 707 0
-23 -697 708 0
-698 708 0
-23 -698 709 0
-699 709 0
-23 -699 710 0
-700 710 0
-23 -700 711 0
-701 711 0
-23 -701 712 0
-702 712 0
-23 -702 713 0
-703 713 0
-23 -703 714 0
-704 714 0
-23 -704 715 0
-705 715 0
-23 -705 716 0
-706 716 0
-23 -706 0
-24 717 0
-707 717 0
-24 -707 718 0
-708 718 0
-24 -708 719 0
-709 719 0
-24 -709 720 0
-710 720 0
-24 -710 721 0
-711 721 0
-24 -711 722 0
-712 722 0
-24 -712 723 0
-713 723 0
-24 -713 724 0
-714 724 0
-24 -714 725 0
-715 725 0
-24 -715 726 0
-716 726 0
-24 -716 0
-25 727 0
-717 727 0
-25 -717 728 0
-718 728 0
-25 -718 729 0
-719 729 0
-25 -719 730 0
-720 730 0
-25 -720 731 0
-721 731 0
-25 -721 732 0
-722 732 0
-25 -722 733 0
-723 733 0
-25 -723 734 0
-724 734 0
-25 -724 735 0
-725 735 0
-25 -725 736 0
-726 736 0
-25 -726 0
-26 737 0
-727 737 0
-26 -727 738 0
-728 738 0
-26 -728 739 0
-729 739 0
-26 -729 740 0
-730 740 0
-26 -730 741 0
-731 741 0
-26 -731 742 0
-732 742 0
-26 -732 743 0
-733 743 0
-26 -733 744 0
-734 744 0
-26 -734 745 0
-735 745 0
-26 -735 746 0
-736 746 0
-26 -736 0
-27 747 0
-737 747 0
-27 -737 748 0
-738 748 0
-27 -738 749 0
-739 749 0
-27 -739 750 0
-740 750 0
-27 -740 751 0
-741 751 0
-27 -741 752 0
-742 752 0
-27 -742 753 0
-743 753 0
-27 -743 754 0
-744 754 0
-27 -744 755 0
-745 755 0
-27 -745 756 0
-746 756 0
-27 -746 0
-28 757 0
-747 757 0
-28 -747 758 0
-748 758 0
-28 -748 759 0
-749 759 0
-28 -749 760 0
-750 760 0
-28 -750 761 0
-751 761 0
-28 -751 762 0
-752 762 0
-28 -752 763 0
-753 763 0
-28 -753 764 0
-754 764 0
-28 -754 765 0
-755 765 0
-28 -755 766 0
-756 766 0
-28 -756 0
-29 767 0
-757 767 0
-29 -757 768 0
-758 768 0
-29 -758 769 0
-759 769 0
-29 -759 770 0
-760 770 0
-29 -760 771 0
-761 771 0
-29 -761 772 0
-762 772 0
-29 -762 773 0
-763 773 0
-29 -763 774 0
-764 774 0
-29 -764 775 0
-765 775 0
-29 -765 776 0
-766 776 0
-29 -766 0
-30 777 0
-767 777 0
-30 -767 778 0
-768 778 0
-30 -768 779 0
-769 779 0
-30 -769 780 0
-770 780 0
-30 -770 781 0
-771 781 0
-30 -771 782 0
-772 782 0
-30 -772 783 0
-773 783 0
-30 -773 784 0
-774 784 0
-30 -774 785 0
-775 785 0
-30 -775 786 0
-776 786 0
-30 -776 0
-31 787 0
-777 787 0
-31 -777 788 0
-778 788 0
-31 -778 789 0
-779 789 0
-31 -779 790 0
-780 790 0
-31 -780 791 0
-781 791 0
-31 -781 792 0
-782 792 0
-31 -782 793 0
-783 793 0
-31 -783 794 0
-784 794 0
-31 -784 795 0
-785 795 0
-31 -785 796 0
-786 796 0
-31 -786 0
-32 797 0
-787 797 0
-32 -787 798 0
-788 798 0
-32 -788 799 0
-789 799 0
-32 -789 800 0
-790 800 0
-32 -790 801 0
-791 801 0
-32 -791 802 0
-792 802 0
-32 -792 803 0
-793 803 0
-32 -793 804 0
-794 804 0
-32 -794 805 0
-795 805 0
-32 -795 806 0
-796 806 0
-32 -796 0
-33 807 0
-797 807 0
-33 -797 808 0
-798 808 0
-33 -798 809 0
-799 809 0
-33 -799 810 0
-800 810 0
-33 -800 811 0
-801 811 0
-33 -801 812 0
-802 812 0
-33 -802 813 0
-803 813 0
-33 -803 814 0
-804 814 0
-33 -804 815 0
-805 815 0
-33 -805 816 0
-806 816 0
-33 -806 0
-34 817 0
-807 817 0
-34 -807 818 0
-808 818 0
-34 -808 819 0
-809 819 0
-34 -809 820 0
-810 820 0
-34 -810 821 0
-811 821 0
-34 -811 822 0
-812 822 0
-34 -812 823 0
-813 823 0
-34 -813 824 0
-814 824 0
-34 -814 825 0
-815 825 0
-34 -815 826 0
-816 826 0
-34 -816 0
-35 827 0
-817 827 0
-35 -817 828 0
-818 828 0
-35 -818 829 0
-819 829 0
-35 -819 830 0
-820 830 0
-35 -820 831 0
-821 831 0
-35 -821 832 0
-822 832 0
-35 -822 833 0
-823 833 0
-35 -823 834 0
-824 834 0
-35 -824 835 0
-825 835 0
-35 -825 836 0
-826 836 0
-35 -826 0
-36 837 0
-827 837 0
-36 -827 838 0
-828 838 0
-36 -828 839 0
-829 839 0
-36 -829 840 0
-830 840 0
-36 -830 841 0
-831 841 0
-36 -831 842 0
-832 842 0
-36 -832 843 0
-833 843 0
-36 -833 844 0
-834 844 0
-36 -834 845 0
-835 845 0
-36 -835 846 0
-836 846 0
-36 -836 0
-37 847 0
-837 847 0
-37 -837 848 0
-838 848 0
-37 -838 849 0
-839 849 0
-37 -839 850 0
-840 850 0
-37 -840 851 0
-841 851 0
-37 -841 852 0
-842 852 0
-37 -842 853 0
-843 853 0
-37 -843 854 0
-844 854 0
-37 -844 855 0
-845 855 0
-37 -845 856 0
-846 856 0
-37 -846 0
-38 857 0
-847 857 0
-38 -847 858 0
-848 858 0
-38 -848 859 0
-849 859 0
-38 -849 860 0
-850 860 0
-38 -850 861 0
-851 861 0
-38 -851 862 0
-852 862 0
-38 -852 863 0
-853 863 0
-38 -853 864 0
-854 864 0
-38 -854 865 0
-855 865 0
-38 -855 866 0
-856 866 0
-38 -856 0
-39 867 0
-857 867 0
-39 -857 868 0
-858 868 0
-39 -858 869 0
-859 869 0
-39 -859 870 0
-860 870 0
-39 -860 871 0
-861 871 0
-39 -861 872 0
-862 872 0
-39 -862 873 0
-863 873 0
-39 -863 874 0
-864 874 0
-39 -864 875 0
-865 875 0
-39 -865 876 0
-866 876 0
-39 -866 0
-40 877 0
-867 877 0
-40 -867 878 0
-868 878 0
-40 -868 879 0
-869 879 0
-40 -869 880 0
-870 880 0
-40 -870 881 0
-871 881 0
-40 -871 882 0
-872 882 0
-40 -872 883 0
-873 883 0
-40 -873 884 0
-874 884 0
-40 -874 885 0
-875 885 0
-40 -875 886 0
-876 886 0
-40 -876 0
-41 887 0
-877 887 0
-41 -877 888 0
-878 888 0
-41 -878 889 0
-879 889 0
-41 -879 890 0
-880 890 0
-41 -880 891 0
-881 891 0
-41 -881 892 0
-882 892 0
-41 -882 893 0
-883 893 0
-41 -883 894 0
-884 894 0
-41 -884 895 0
-885 895 0
-41 -885 896 0
-886 896 0
-41 -886 0
-42 897 0
-887 897 0
-42 -887 898 0
-888 898 0
-42 -888 899 0
-889 899 0
-42 -889 900 0
-890 900 0
-42 -890 901 0
-891 901 0
-42 -891 902 0
-892 902 0
-42 -892 903 0
-893 903 0
-42 -893 904 0
-894 904 0
-42 -894 905 0
-895 905 0
-42 -895 906 0
-896 906 0
-42 -896 0
-43 907 0
-897 907 0
-43 -897 908 0
-898 908 0
-43 -898 909 0
-899 909 0
-43 -899 910 0
-900 910 0
-43 -900 911 0
-901 911 0
-43 -901 912 0
-902 912 0
-43 -902 913 0
-903 913 0
-43 -903 914 0
-904 914 0
-43 -904 915 0
-905 915 0
-43 -905 916 0
-906 916 0
-43 -906 0
-44 917 0
-907 917 0
-44 -907 918 0
-908 918 0
-44 -908 919 0
-909 919 0
-44 -909 920 0
-910 920 0
-44 -910 921 0
-911 921 0
-44 -911 922 0
-912 922 0
-44 -912 923 0
-913 923 0
-44 -913 924 0
-914 924 0
-44 -914 925 0
-915 925 0
-44 -915 926 0
-916 926 0
-44 -916 0
-45 927 0
-917 927 0
-45 -917 928 0
-918 928 0
-45 -918 929 0
-919 929 0
-45 -919 930 0
-920 930 0
-45 -920 931 0
-921 931 0
-45 -921 932 0
-922 932 0
-45 -922 933 0
-923 933 0
-45 -923 934 0
-924 934 0
-45 -924 935 0
-925 935 0
-45 -925 936 0
-926 936 0
-45 -926 0
-46 937 0
-927 937 0
-46 -927 938 0
-928 938 0
-46 -928 939 0
-929 939 0
-46 -929 940 0
-930 940 0
-46 -930 941 0
-931 941 0
-46 -931 942 0
-932 942 0
-46 -932 943 0
-933 943 0
-46 -933 944 0
-934 944 0
-46 -934 945 0
-935 945 0
-46 -935 946 0
-936 946 0
-46 -936 0
-47 947 0
-937 947 0
-47 -937 948 0
-938 948 0
-47 -938 949 0
-939 949 0
-47 -939 950 0
-940 950 0
-47 -940 951 0
-941 951 0
-47 -941 952 0
-942 952 0
-47 -942 953 0
-943 953 0
-47 -943 954 0
-944 954 0
-47 -944 955 0
-945 955 0
-47 -945 956 0
-946 956 0
-47 -946 0
-48 957 0
-947 957 0
-48 -947 958 0
-948 958 0
-48 -948 959 0
-949 959 0
-48 -949 960 0
-950 960 0
-48 -950 961 0
-951 961 0
-48 -951 962 0
-952 962 0
-48 -952 963 0
-953 963 0
-48 -953 964 0
-954 964 0
-48 -954 965 0
-955 965 0
-48 -955 966 0
-956 966 0
-48 -956 0
-49 967 0
-957 967 0
-49 -957 968 0
-958 968 0
-49 -958 969 0
-959 969 0
-49 -959 970 0
-960 970 0
-49 -960 971 0
-961 971 0
-49 -961 972 0
-962 972 0
-49 -962 973 0
-963 973 0
-49 -963 974 0
-964 974 0
-49 -964 975 0
-965 975 0
-49 -965 976 0
-966 976 0
-49 -966 0
-50 977 0
-967 977 0
-50 -967 978 0
-968 978 0
-50 -968 979 0
-969 979 0
-50 -969 980 0
-970 980 0
-50 -970 981 0
-971 981 0
-50 -971 982 0
-972 982 0
-50 -972 983 0
-973 983 0
-50 -973 984 0
-974 984 0
-50 -974 985 0
-975 985 0
-50 -975 986 0
-976 986 0
-50 -976 0
-51 987 0
-977 987 0
-51 -977 988 0
-978 988 0
-51 -978 989 0
-979 989 0
-51 -979 990 0
-980 990 0
-51 -980 991 0
-981 991 0
-51 -981 992 0
-982 992 0
-51 -982 993 0
-983 993 0
-51 -983 994 0
-984 994 0
-51 -984 995 0
-985 995 0
-51 -985 996 0
-986 996 0
-51 -986 0
-52 997 0
-987 997 0
-52 -987 998 0
-988 998 0
-52 -988 999 0
-989 999 0
-52 -989 1000 0
-990 1000 0
-52 -990 1001 0
-991 1001 0
-52 -991 1002 0
-992 1002 0
-52 -992 1003 0
-993 1003 0
-52 -993 1004 0
-994 1004 0
-52 -994 1005 0
-995 1005 0
-52 -995 1006 0
-996 1006 0
-52 -996 0
-53 1007 0
-997 1007 0
-53 -997 1008 0
-998 1008 0
-53 -998 1009 0
-999 1009 0
-53 -999 1010 0
-1000 1010 0
-53 -1000 1011 0
-1001 1011 0
-53 -1001 1012 0
-1002 1012 0
-53 -1002 1013 0
-1003 1013 0
-53 -1003 1014 0
-1004 1014 0
-53 -1004 1015 0
-1005 1015 0
-53 -1005 1016 0
-1006 1016 0
-53 -1006 0
-54 1017 0
-1007 1017 0
-54 -1007 1018 0
-1008 1018 0
-54 -1008 1019 0
-1009 1019 0
-54 -1009 1020 0
-1010 1020 0
-54 -1010 1021 0
-1011 1021 0
-54 -1011 1022 0
-1012 1022 0
-54 -1012 1023 0
-1013 1023 0
-54 -1013 1024 0
-1014 1024 0
-54 -1014 1025 0
-1015 1025 0
-54 -1015 1026 0
-1016 1026 0
-54 -1016 0
-55 1027 0
-1017 1027 0
-55 -1017 1028 0
-1018 1028 0
-55 -1018 1029 0
-1019 1029 0
-55 -1019 1030 0
-1020 1030 0
-55 -1020 1031 0
-1021 1031 0
-55 -1021 1032 0
-1022 1032 0
-55 -1022 1033 0
-1023 1033 0
-55 -1023 1034 0
-1024 1034 0
-55 -1024 1035 0
-1025 1035 0
-55 -1025 1036 0
-1026 1036 0
-55 -1026 0
-56 1037 0
-1027 1037 0
-56 -1027 1038 0
-1028 1038 0
-56 -1028 1039 0
-1029 1039 0
-56 -1029 1040 0
-1030 1040 0
-56 -1030 1041 0
-1031 1041 0
-56 -1031 1042 0
-1032 1042 0
-56 -1032 1043 0
-1033 1043 0
-56 -1033 1044 0
-1034 1044 0
-56 -1034 1045 0
-1035 1045 0
-56 -1035 1046 0
-1036 1046 0
-56 -1036 0
-57 1047 0
-1037 1047 0
-57 -1037 1048 0
-1038 1048 0
-57 -1038 1049 0
-1039 1049 0
-57 -1039 1050 0
-1040 1050 0
-57 -1040 1051 0
-1041 1051 0
-57 -1041 1052 0
-1042 1052 0
-57 -1042 1053 0
-1043 1053 0
-57 -1043 1054 0
-1044 1054 0
-57 -1044 1055 0
-1045 1055 0
-57 -1045 1056 0
-1046 1056 0
-57 -1046 0
-58 1057 0
-1047 1057 0
-58 -1047 1058 0
-1048 1058 0
-58 -1048 1059 0
-1049 1059 0
-58 -1049 1060 0
-1050 1060 0
-58 -1050 1061 0
-1051 1061 0
-58 -1051 1062 0
-1052 1062 0
-58 -1052 1063 0
-1053 1063 0
-58 -1053 1064 0
-1054 1064 0
-58 -1054 1065 0
-1055 1065 0
-58 -1055 1066 0
-1056 1066 0
-58 -1056 0
-59 1067 0
-1057 1067 0
-59 -1057 1068 0
-1058 1068 0
-59 -1058 1069 0
-1059 1069 0
-59 -1059 1070 0
-1060 1070 0
-59 -1060 1071 0
-1061 1071 0
-59 -1061 1072 0
-1062 1072 0
-59 -1062 1073 0
-1063 1073 0
-59 -1063 1074 0
-1064 1074 0
-59 -1064 1075 0
-1065 1075 0
-59 -1065 1076 0
-1066 1076 0
-59 -1066 0
-60 1077 0
-1067 1077 0
-60 -1067 1078 0
-1068 1078 0
-60 -1068 1079 0
-1069 1079 0
-60 -1069 1080 0
-1070 1080 0
-60 -1070 1081 0
-1071 1081 0
-60 -1071 1082 0
-1072 1082 0
-60 -1072 1083 0
-1073 1083 0
-60 -1073 1084 0
-1074 1084 0
-60 -1074 1085 0
-1075 1085 0
-60 -1075 1086 0
-1076 1086 0
-60 -1076 0
-61 1087 0
-1077 1087 0
-61 -1077 1088 0
-1078 1088 0
-61 -1078 1089 0
-1079 1089 0
-61 -1079 1090 0
-1080 1090 0
-61 -1080 1091 0
-1081 1091 0
-61 -1081 1092 0
-1082 1092 0
-61 -1082 1093 0
-1083 1093 0
-61 -1083 1094 0
-1084 1094 0
-61 -1084 1095 0
-1085 1095 0
-61 -1085 1096 0
-1086 1096 0
-61 -1086 0
-62 1097 0
-1087 1097 0
-62 -1087 1098 0
-1088 1098 0
-62 -1088 1099 0
-1089 1099 0
-62 -1089 1100 0
-1090 1100 0
-62 -1090 1101 0
-1091 1101 0
-62 -1091 1102 0
-1092 1102 0
-62 -1092 1103 0
-1093 1103 0
-62 -1093 1104 0
-1094 1104 0
-62 -1094 1105 0
-1095 1105 0
-62 -1095 1106 0
-1096 1106 0
-62 -1096 0
-63 1107 0
-1097 1107 0
-63 -1097 1108 0
-1098 1108 0
-63 -1098 1109 0
-1099 1109 0
-63 -1099 1110 0
-1100 1110 0
-63 -1100 1111 0
-1101 1111 0
-63 -1101 1112 0
-1102 1112 0
-63 -1102 1113 0
-1103 1113 0
-63 -1103 1114 0
-1104 1114 0
-63 -1104 1115 0
-1105 1115 0
-63 -1105 1116 0
-1106 1116 0
-63 -1106 0
-64 1117 0
-1107 1117 0
-64 -1107 1118 0
-1108 1118 0
-64 -1108 1119 0
-1109 1119 0
-64 -1109 1120 0
-1110 1120 0
-64 -1110 1121 0
-1111 1121 0
-64 -1111 1122 0
-1112 1122 0
-64 -1112 1123 0
-1113 1123 0
-64 -1113 1124 0
-1114 1124 0
-64 -1114 1125 0
-1115 1125 0
-64 -1115 1126 0
-1116 1126 0
-64 -1116 0
-65 1127 0
-1117 1127 0
-65 -1117 1128 0
-1118 1128 0
-65 -1118 1129 0
-1119 1129 0
-65 -1119 1130 0
-1120 1130 0
-65 -1120 1131 0
-1121 1131 0
-65 -1121 1132 0
-1122 1132 0
-65 -1122 1133 0
-1123 1133 0
-65 -1123 1134 0
-1124 1134 0
-65 -1124 1135 0
-1125 1135 0
-65 -1125 1136 0
-1126 1136 0
-65 -1126 0
-66 1137 0
-1127 1137 0
-66 -1127 1138 0
-1128 1138 0
-66 -1128 1139 0
-1129 1139 0
-66 -1129 1140 0
-1130 1140 0
-66 -1130 1141 0
-1131 1141 0
-66 -1131 1142 0
-1132 1142 0
-66 -1132 1143 0
-1133 1143 0
-66 -1133 1144 0
-1134 1144 0
-66 -1134 1145 0
-1135 1145 0
-66 -1135 1146 0
-1136 1146 0
-66 -1136 0
-67 1147 0
-1137 1147 0
-67 -1137 1148 0
-1138 1148 0
-67 -1138 1149 0
-1139 1149 0
-67 -1139 1150 0
-1140 1150 0
-67 -1140 1151 0
-1141 1151 0
-67 -1141 1152 0
-1142 1152 0
-67 -1142 1153 0
-1143 1153 0
-67 -1143 1154 0
-1144 1154 0
-67 -1144 1155 0
-1145 1155 0
-67 -1145 1156 0
-1146 1156 0
-67 -1146 0
-68 1157 0
-1147 1157 0
-68 -1147 1158 0
-1148 1158 0
-68 -1148 1159 0
-1149 1159 0
-68 -1149 1160 0
-1150 1160 0
-68 -1150 1161 0
-1151 1161 0
-68 -1151 1162 0
-1152 1162 0
-68 -1152 1163 0
-1153 1163 0
-68 -1153 1164 0
-1154 1164 0
-68 -1154 1165 0
-1155 1165 0
-68 -1155 1166 0
-1156 1166 0
-68 -1156 0
-69 1167 0
-1157 1167 0
-69 -1157 1168 0
-1158 1168 0
-69 -1158 1169 0
-1159 1169 0
-69 -1159 1170 0
-1160 1170 0
-69 -1160 1171 0
-1161 1171 0
-69 -1161 1172 0
-1162 1172 0
-69 -1162 1173 0
-1163 1173 0
-69 -1163 1174 0
-1164 1174 0
-69 -1164 1175 0
-1165 1175 0
-69 -1165 1176 0
-1166 1176 0
-69 -1166 0
-70 1177 0
-1167 1177 0
-70 -1167 1178 0
-1168 1178 0
-70 -1168 1179 0
-1169 1179 0
-70 -1169 1180 0
-1170 1180 0
-70 -1170 1181 0
-1171 1181 0
-70 -1171 1182 0
-1172 1182 0
-70 -1172 1183 0
-1173 1183 0
-70 -1173 1184 0
-1174 1184 0
-70 -1174 1185 0
-1175 1185 0
-70 -1175 1186 0
-1176 1186 0
-70 -1176 0
-71 1187 0
-1177 1187 0
-71 -1177 1188 0
-1178 1188 0
-71 -1178 1189 0
-1179 1189 0
-71 -1179 1190 0
-1180 1190 0
-71 -1180 1191 0
-1181 1191 0
-71 -1181 1192 0
-1182 1192 0
-71 -1182 1193 0
-1183 1193 0
-71 -1183 1194 0
-1184 1194 0
-71 -1184 1195 0
-1185 1195 0
-71 -1185 1196 0
-1186 1196 0
-71 -1186 0
-72 1197 0
-1187 1197 0
-72 -1187 1198 0
-1188 1198 0
-72 -1188 1199 0
-1189 1199 0
-72 -1189 1200 0
-1190 1200 0
-72 -1190 1201 0
-1191 1201 0
-72 -1191 1202 0
-1192 1202 0
-72 -1192 1203 0
-1193 1203 0
-72 -1193 1204 0
-1194 1204 0
-72 -1194 1205 0
-1195 1205 0
-72 -1195 1206 0
-1196 1206 0
-72 -1196 0
-73 1207 0
-1197 1207 0
-73 -1197 1208 0
-1198 1208 0
-73 -1198 1209 0
-1199 1209 0
-73 -1199 1210 0
-1200 1210 0
-73 -1200 1211 0
-1201 1211 0
-73 -1201 1212 0
-1202 1212 0
-73 -1202 1213 0
-1203 1213 0
-73 -1203 1214 0
-1204 1214 0
-73 -1204 1215 0
-1205 1215 0
-73 -1205 1216 0
-1206 1216 0
-73 -1206 0
-74 1217 0
-1207 1217 0
-74 -1207 1218 0
-1208 1218 0
-74 -1208 1219 0
-1209 1219 0
-74 -1209 1220 0
-1210 1220 0
-74 -1210 1221 0
-1211 1221 0
-74 -1211 1222 0
-1212 1222 0
-74 -1212 1223 0
-1213 1223 0
-74 -1213 1224 0
-1214 1224 0
-74 -1214 1225 0
-1215 1225 0
-74 -1215 1226 0
-1216 1226 0
-74 -1216 0
-75 1227 0
-1217 1227 0
-75 -1217 1228 0
-1218 1228 0
-75 -1218 1229 0
-1219 1229 0
-75 -1219 1230 0
-1220 1230 0
-75 -1220 1231 0
-1221 1231 0
-75 -1221 1232 0
-1222 1232 0
-75 -1222 1233 0
-1223 1233 0
-75 -1223 1234 0
-1224 1234 0
-75 -1224 1235 0
-1225 1235 0
-75 -1225 1236 0
-1226 1236 0
-75 -1226 0
-76 1237 0
-1227 1237 0
-76 -1227 1238 0
-1228 1238 0
-76 -1228 1239 0
-1229 1239 0
-76 -1229 1240 0
-1230 1240 0
-76 -1230 1241 0
-1231 1241 0
-76 -1231 1242 0
-1232 1242 0
-76 -1232 1243 0
-1233 1243 0
-76 -1233 1244 0
-1234 1244 0
-76 -1234 1245 0
-1235 1245 0
-76 -1235 1246 0
-1236 1246 0
-76 -1236 0
-77 1247 0
-1237 1247 0
-77 -1237 1248 0
-1238 1248 0
-77 -1238 1249 0
-1239 1249 0
-77 -1239 1250 0
-1240 1250 0
-77 -1240 1251 0
-1241 1251 0
-77 -1241 1252 0
-1242 1252 0
-77 -1242 1253 0
-1243 1253 0
-77 -1243 1254 0
-1244 1254 0
-77 -1244 1255 0
-1245 1255 0
-77 -1245 1256 0
-1246 1256 0
-77 -1246 0
-78 1257 0
-1247 1257 0
-78 -1247 1258 0
-1248 1258 0
-78 -1248 1259 0
-1249 1259 0
-78 -1249 1260 0
-1250 1260 0
-78 -1250 1261 0
-1251 1261 0
-78 -1251 1262 0
-1252 1262 0
-78 -1252 1263 0
-1253 1263 0
-78 -1253 1264 0
-1254 1264 0
-78 -1254 1265 0
-1255 1265 0
-78 -1255 1266 0
-1256 1266 0
-78 -1256 0
-79 1267 0
-1257 1267 0
-79 -1257 1268 0
-1258 1268 0
-79 -1258 1269 0
-1259 1269 0
-79 -1259 1270 0
-1260 1270 0
-79 -1260 1271 0
-1261 1271 0
-79 -1261 1272 0
-1262 1272 0
-79 -1262 1273 0
-1263 1273 0
-79 -1263 1274 0
-1264 1274 0
-79 -1264 1275 0
-1265 1275 0
-79 -1265 1276 0
-1266 1276 0
-79 -1266 0
-80 1277 0
-1267 1277 0
-80 -1267 1278 0
-1268 1278 0
-80 -1268 1279 0
-1269 1279 0
-80 -1269 1280 0
-1270 1280 0
-80 -1270 1281 0
-1271 1281 0
-80 -1271 1282 0
-1272 1282 0
-80 -1272 1283 0
-1273 1283 0
-80 -1273 1284 0
-1274 1284 0
-80 -1274 1285 0
-1275 1285 0
-80 -1275 1286 0
-1276 1286 0
-80 -1276 0
-81 1287 0
-1277 1287 0
-81 -1277 1288 0
-1278 1288 0
-81 -1278 1289 0
-1279 1289 0
-81 -1279 1290 0
-1280 1290 0
-81 -1280 1291 0
-1281 1291 0
-81 -1281 1292 0
-1282 1292 0
-81 -1282 1293 0
-1283 1293 0
-81 -1283 1294 0
-1284 1294 0
-81 -1284 1295 0
-1285 1295 0
-81 -1285 1296 0
-1286 1296 0
-81 -1286 0
-82 1297 0
-1287 1297 0
-82 -1287 1298 0
-1288 1298 0
-82 -1288 1299 0
-1289 1299 0
-82 -1289 1300 0
-1290 1300 0
-82 -1290 1301 0
-1291 1301 0
-82 -1291 1302 0
-1292 1302 0
-82 -1292 1303 0
-1293 1303 0
-82 -1293 1304 0
-1294 1304 0
-82 -1294 1305 0
-1295 1305 0
-82 -1295 1306 0
-1296 1306 0
-82 -1296 0
-83 1307 0
-1297 1307 0
-83 -1297 1308 0
-1298 1308 0
-83 -1298 1309 0
-1299 1309 0
-83 -1299 1310 0
-1300 1310 0
-83 -1300 1311 0
-1301 1311 0
-83 -1301 1312 0
-1302 1312 0
-83 -1302 1313 0
-1303 1313 0
-83 -1303 1314 0
-1304 1314 0
-83 -1304 1315 0
-1305 1315 0
-83 -1305 1316 0
-1306 1316 0
-83 -1306 0
-84 1317 0
-1307 1317 0
-84 -1307 1318 0
-1308 1318 0
-84 -1308 1319 0
-1309 1319 0
-84 -1309 1320 0
-1310 1320 0
-84 -1310 1321 0
-1311 1321 0
-84 -1311 1322 0
-1312 1322 0
-84 -1312 1323 0
-1313 1323 0
-84 -1313 1324 0
-1314 1324 0
-84 -1314 1325 0
-1315 1325 0
-84 -1315 1326 0
-1316 1326 0
-84 -1316 0
-85 1327 0
-1317 1327 0
-85 -1317 1328 0
-1318 1328 0
-85 -1318 1329 0
-1319 1329 0
-85 -1319 1330 0
-1320 1330 0
-85 -1320 1331 0
-1321 1331 0
-85 -1321 1332 0
-1322 1332 0
-85 -1322 1333 0
-1323 1333 0
-85 -1323 1334 0
-1324 1334 0
-85 -1324 1335 0
-1325 1335 0
-85 -1325 1336 0
-1326 1336 0
-85 -1326 0
-86 1337 0
-1327 1337 0
-86 -1327 1338 0
-1328 1338 0
-86 -1328 1339 0
-1329 1339 0
-86 -1329 1340 0
-1330 1340 0
-86 -1330 1341 0
-1331 1341 0
-86 -1331 1342 0
-1332 1342 0
-86 -1332 1343 0
-1333 1343 0
-86 -1333 1344 0
-1334 1344 0
-86 -1334 1345 0
-1335 1345 0
-86 -1335 1346 0
-1336 1346 0
-86 -1336 0
-87 1347 0
-1337 1347 0
-87 -1337 1348 0
-1338 1348 0
-87 -1338 1349 0
-1339 1349 0
-87 -1339 1350 0
-1340 1350 0
-87 -1340 1351 0
-1341 1351 0
-87 -1341 1352 0
-1342 1352 0
-87 -1342 1353 0
-1343 1353 0
-87 -1343 1354 0
-1344 1354 0
-87 -1344 1355 0
-1345 1355 0
-87 -1345 1356 0
-1346 1356 0
-87 -1346 0
-88 1357 0
-1347 1357 0
-88 -1347 1358 0
-1348 1358 0
-88 -1348 1359 0
-1349 1359 0
-88 -1349 1360 0
-1350 1360 0
-88 -1350 1361 0
-1351 1361 0
-88 -1351 1362 0
-1352 1362 0
-88 -1352 1363 0
-1353 1363 0
-88 -1353 1364 0
-1354 1364 0
-88 -1354 1365 0
-1355 1365 0
-88 -1355 1366 0
-1356 1366 0
-88 -1356 0
-89 1367 0
-1357 1367 0
-89 -1357 1368 0
-1358 1368 0
-89 -1358 1369 0
-1359 1369 0
-89 -1359 1370 0
-1360 1370 0
-89 -1360 1371 0
-1361 1371 0
-89 -1361 1372 0
-1362 1372 0
-89 -1362 1373 0
-1363 1373 0
-89 -1363 1374 0
-1364 1374 0
-89 -1364 1375 0
-1365 1375 0
-89 -1365 1376 0
-1366 1376 0
-89 -1366 0
-90 1377 0
-1367 1377 0
-90 -1367 1378 0
-1368 1378 0
-90 -1368 1379 0
-1369 1379 0
-90 -1369 1380 0
-1370 1380 0
-90 -1370 1381 0
-1371 1381 0
-90 -1371 1382 0
-1372 1382 0
-90 -1372 1383 0
-1373 1383 0
-90 -1373 1384 0
-1374 1384 0
-90 -1374 1385 0
-1375 1385 0
-90 -1375 1386 0
-1376 1386 0
-90 -1376 0
-91 1387 0
-1377 1387 0
-91 -1377 1388 0
-1378 1388 0
-91 -1378 1389 0
-1379 1389 0
-91 -1379 1390 0
-1380 1390 0
-91 -1380 1391 0
-1381 1391 0
-91 -1381 1392 0
-1382 1392 0
-91 -1382 1393 0
-1383 1393 0
-91 -1383 1394 0
-1384 1394 0
-91 -1384 1395 0
-1385 1395 0
-91 -1385 1396 0
-1386 1396 0
-91 -1386 0
-92 1397 0
-1387 1397 0
-92 -1387 1398 0
-1388 1398 0
-92 -1388 1399 0
-1389 1399 0
-92 -1389 1400 0
-1390 1400 0
-92 -1390 1401 0
-1391 1401 0
-92 -1391 1402 0
-1392 1402 0
-92 -1392 1403 0
-1393 1403 0
-92 -1393 1404 0
-1394 1404 0
-92 -1394 1405 0
-1395 1405 0
-92 -1395 1406 0
-1396 1406 0
-92 -1396 0
-93 1407 0
-1397 1407 0
-93 -1397 1408 0
-1398 1408 0
-93 -1398 1409 0
-1399 1409 0
-93 -1399 1410 0
-1400 1410 0
-93 -1400 1411 0
-1401 1411 0
-93 -1401 1412 0
-1402 1412 0
-93 -1402 1413 0
-1403 1413 0
-93 -1403 1414 0
-1404 1414 0
-93 -1404 1415 0
-1405 1415 0
-93 -1405 1416 0
-1406 1416 0
-93 -1406 0
-94 1417 0
-1407 1417 0
-94 -1407 1418 0
-1408 1418 0
-94 -1408 1419 0
-1409 1419 0
-94 -1409 1420 0
-1410 1420 0
-94 -1410 1421 0
-1411 1421 0
-94 -1411 1422 0
-1412 1422 0
-94 -1412 1423 0
-1413 1423 0
-94 -1413 1424 0
-1414 1424 0
-94 -1414 1425 0
-1415 1425 0
-94 -1415 1426 0
-1416 1426 0
-94 -1416 0
-95 1427 0
-1417 1427 0
-95 -1417 1428 0
-1418 1428 0
-95 -1418 1429 0
-1419 1429 0
-95 -1419 1430 0
-1420 1430 0
-95 -1420 1431 0
-1421 1431 0
-95 -1421 1432 0
-1422 1432 0
-95 -1422 1433 0
-1423 1433 0
-95 -1423 1434 0
-1424 1434 0
-95 -1424 1435 0
-1425 1435 0
-95 -1425 1436 0
-1426 1436 0
-95 -1426 0
-96 1437 0
-1427 1437 0
-96 -1427 1438 0
-1428 1438 0
-96 -1428 1439 0
-1429 1439 0
-96 -1429 1440 0
-1430 1440 0
-96 -1430 1441 0
-1431 1441 0
-96 -1431 1442 0
-1432 1442 0
-96 -1432 1443 0
-1433 1443 0
-96 -1433 1444 0
-1434 1444 0
-96 -1434 1445 0
-1435 1445 0
-96 -1435 1446 0
-1436 1446 0
-96 -1436 0
-97 1447 0
-1437 1447 0
-97 -1437 1448 0
-1438 1448 0
-97 -1438 1449 0
-1439 1449 0
-97 -1439 1450 0
-1440 1450 0
-97 -1440 1451 0
-1441 1451 0
-97 -1441 1452 0
-1442 1452 0
-97 -1442 1453 0
-1443 1453 0
-97 -1443 1454 0
-1444 1454 0
-97 -1444 1455 0
-1445 1455 0
-97 -1445 1456 0
-1446 1456 0
-97 -1446 0
-98 1457 0
-1447 1457 0
-98 -1447 1458 0
-1448 1458 0
-98 -1448 1459 0
-1449 1459 0
-98 -1449 1460 0
-1450 1460 0
-98 -1450 1461 0
-1451 1461 0
-98 -1451 1462 0
-1452 1462 0
-98 -1452 1463 0
-1453 1463 0
-98 -1453 1464 0
-1454 1464 0
-98 -1454 1465 0
-1455 1465 0
-98 -1455 1466 0
-1456 1466 0
-98 -1456 0
-99 1467 0
-1457 1467 0
-99 -1457 1468 0
-1458 1468 0
-99 -1458 1469 0
-1459 1469 0
-99 -1459 1470 0
-1460 1470 0
-99 -1460 1471 0
-1461 1471 0
-99 -1461 1472 0
-1462 1472 0
-99 -1462 1473 0
-1463 1473 0
-99 -1463 1474 0
-1464 1474 0
-99 -1464 1475 0
-1465 1475 0
-99 -1465 1476 0
-1466 1476 0
-99 -1466 0
-100 1477 0
-1467 1477 0
-100 -1467 1478 0
-1468 1478 0
-100 -1468 1479 0
-1469 1479 0
-100 -1469 1480 0
-1470 1480 0
-100 -1470 1481 0
-1471 1481 0
-100 -1471 1482 0
-1472 1482 0
-100 -1472 1483 0
-1473 1483 0
-100 -1473 1484 0
-1474 1484 0
-100 -1474 1485 0
-1475 1485 0
-100 -1475 1486 0
-1476 1486 0
-100 -1476 0
-101 1487 0
-1477 1487 0
-101 -1477 1488 0
-1478 1488 0
-101 -1478 1489 0
-1479 1489 0
-101 -1479 1490 0
-1480 1490 0
-101 -1480 1491 0
-1481 1491 0
-101 -1481 1492 0
-1482 1492 0
-101 -1482 1493 0
-1483 1493 0
-101 -1483 1494 0
-1484 1494 0
-101 -1484 1495 0
-1485 1495 0
-101 -1485 1496 0
-1486 1496 0
-101 -1486 0
-102 1497 0
-1487 1497 0
-102 -1487 1498 0
-1488 1498 0
-102 -1488 1499 0
-1489 1499 0
-102 -1489 1500 0
-1490 1500 0
-102 -1490 1501 0
-1491 1501 0
-102 -1491 1502 0
-1492 1502 0
-102 -1492 1503 0
-1493 1503 0
-102 -1493 1504 0
-1494 1504 0
-102 -1494 1505 0
-1495 1505 0
-102 -1495 1506 0
-1496 1506 0
-102 -1496 0
-103 1507 0
-1497 1507 0
-103 -1497 1508 0
-1498 1508 0
-103 -1498 1509 0
-1499 1509 0
-103 -1499 1510 0
-1500 1510 0
-103 -1500 1511 0
-1501 1511 0
-103 -1501 1512 0
-1502 1512 0
-103 -1502 1513 0
-1503 1513 0
-103 -1503 1514 0
-1504 1514 0
-103 -1504 1515 0
-1505 1515 0
-103 -1505 1516 0
-1506 1516 0
-103 -1506 0
-104 1517 0
-1507 1517 0
-104 -1507 1518 0
-1508 1518 0
-104 -1508 1519 0
-1509 1519 0
-104 -1509 1520 0
-1510 1520 0
-104 -1510 1521 0
-1511 1521 0
-104 -1511 1522 0
-1512 1522 0
-104 -1512 1523 0
-1513 1523 0
-104 -1513 1524 0
-1514 1524 0
-104 -1514 1525 0
-1515 1525 0
-104 -1515 1526 0
-1516 1526 0
-104 -1516 0
-105 1527 0
-1517 1527 0
-105 -1517 1528 0
-1518 1528 0
-105 -1518 1529 0
-1519 1529 0
-105 -1519 1530 0
-1520 1530 0
-105 -1520 1531 0
-1521 1531 0
-105 -1521 1532 0
-1522 1532 0
-105 -1522 1533 0
-1523 1533 0
-105 -1523 1534 0
-1524 1534 0
-105 -1524 1535 0
-1525 1535 0
-105 -1525 1536 0
-1526 1536 0
-105 -1526 0
-106 1537 0
-1527 1537 0
-106 -1527 1538 0
-1528 1538 0
-106 -1528 1539 0
-1529 1539 0
-106 -1529 1540 0
-1530 1540 0
-106 -1530 1541 0
-1531 1541 0
-106 -1531 1542 0
-1532 1542 0
-106 -1532 1543 0
-1533 1543 0
-106 -1533 1544 0
-1534 1544 0
-106 -1534 1545 0
-1535 1545 0
-106 -1535 1546 0
-1536 1546 0
-106 -1536 0
-107 1547 0
-1537 1547 0
-107 -1537 1548 0
-1538 1548 0
-107 -1538 1549 0
-1539 1549 0
-107 -1539 1550 0
-1540 1550 0
-107 -1540 1551 0
-1541 1551 0
-107 -1541 1552 0
-1542 1552 0
-107 -1542 1553 0
-1543 1553 0
-107 -1543 1554 0
-1544 1554 0
-107 -1544 1555 0
-1545 1555 0
-107 -1545 1556 0
-1546 1556 0
-107 -1546 0
-108 -1556 0
