p cnf 1574 3876
-109 2 3 0
-109 -2 -3 0
109 -2 3 0
109 2 -3 0
-110 109 19 0
-110 -109 -19 0
110 -109 19 0
110 109 -19 0
-111 110 58 0
-111 -110 -58 0
111 -110 58 0
111 110 -58 0
-112 111 61 0
-112 -111 -61 0
112 -111 61 0
112 111 -61 0
-113 112 67 0
-113 -112 -67 0
113 -112 67 0
113 112 -67 0
-113 0
-114 3 4 0
-114 -3 -4 0
114 -3 4 0
114 3 -4 0
-115 114 20 0
-115 -114 -20 0
115 -114 20 0
115 114 -20 0
-116 115 59 0
-116 -115 -59 0
116 -115 59 0
116 115 -59 0
-117 116 62 0
-117 -116 -62 0
117 -116 62 0
117 116 -62 0
-118 117 68 0
-118 -117 -68 0
118 -117 68 0
118 117 -68 0
-118 0
-119 4 5 0
-119 -4 -5 0
119 -4 5 0
119 4 -5 0
-120 119 21 0
-120 -119 -21 0
120 -119 21 0
120 119 -21 0
-121 120 60 0
-121 -120 -60 0
121 -120 60 0
121 120 -60 0
-122 121 63 0
-122 -121 -63 0
122 -121 63 0
122 121 -63 0
-123 122 69 0
-123 -122 -69 0
123 -122 69 0
123 122 -69 0
-123 0
-124 5 6 0
-124 -5 -6 0
124 -5 6 0
124 5 -6 0
-125 124 22 0
-125 -124 -22 0
125 -124 22 0
125 124 -22 0
-126 125 55 0
-126 -125 -55 0
126 -125 55 0
126 125 -55 0
-127 126 64 0
-127 -126 -64 0
127 -126 64 0
127 126 -64 0
-128 127 70 0
-128 -127 -70 0
128 -127 70 0
128 127 -70 0
-128 0
-129 1 6 0
-129 -1 -6 0
129 -1 6 0
129 1 -6 0
-130 129 23 0
-130 -129 -23 0
130 -129 23 0
130 129 -23 0
-131 130 56 0
-131 -130 -56 0
131 -130 56 0
131 130 -56 0
-132 131 65 0
-132 -131 -65 0
132 -131 65 0
132 131 -65 0
-133 132 71 0
-133 -132 -71 0
133 -132 71 0
133 132 -71 0
-133 0
-134 1 2 0
-134 -1 -2 0
134 -1 2 0
134 1 -2 0
-135 134 24 0
-135 -134 -24 0
135 -134 24 0
135 134 -24 0
-136 135 57 0
-136 -135 -57 0
136 -135 57 0
136 135 -57 0
-137 136 66 0
-137 -136 -66 0
137 -136 66 0
137 136 -66 0
-138 137 72 0
-138 -137 -72 0
138 -137 72 0
138 137 -72 0
-138 0
-139 8 9 0
-139 -8 -9 0
139 -8 9 0
139 8 -9 0
-140 139 25 0
-140 -139 -25 0
140 -139 25 0
140 139 -25 0
-141 140 64 0
-141 -140 -64 0
141 -140 64 0
141 140 -64 0
-142 141 67 0
-142 -141 -67 0
142 -141 67 0
142 141 -67 0
-143 142 73 0
-143 -142 -73 0
143 -142 73 0
143 142 -73 0
-143 0
-144 9 10 0
-144 -9 -10 0
144 -9 10 0
144 9 -10 0
-145 144 26 0
-145 -144 -26 0
145 -144 26 0
145 144 -26 0
-146 145 65 0
-146 -145 -65 0
146 -145 65 0
146 145 -65 0
-147 146 68 0
-147 -146 -68 0
147 -146 68 0
147 146 -68 0
-148 147 74 0
-148 -147 -74 0
148 -147 74 0
148 147 -74 0
-148 0
-149 10 11 0
-149 -10 -11 0
149 -10 11 0
149 10 -11 0
-150 149 27 0
-150 -149 -27 0
150 -149 27 0
150 149 -27 0
-151 150 66 0
-151 -150 -66 0
151 -150 66 0
151 150 -66 0
-152 151 69 0
-152 -151 -69 0
152 -151 69 0
152 151 -69 0
-153 152 75 0
-153 -152 -75 0
153 -152 75 0
153 152 -75 0
-153 0
-154 11 12 0
-154 -11 -12 0
154 -11 12 0
154 11 -12 0
-155 154 28 0
-155 -154 -28 0
155 -154 28 0
155 154 -28 0
-156 155 61 0
-156 -155 -61 0
156 -155 61 0
156 155 -61 0
-157 156 70 0
-157 -156 -70 0
157 -156 70 0
157 156 -70 0
-158 157 76 0
-158 -157 -76 0
158 -157 76 0
158 157 -76 0
-158 0
-159 7 12 0
-159 -7 -12 0
159 -7 12 0
159 7 -12 0
-160 159 29 0
-160 -159 -29 0
160 -159 29 0
160 159 -29 0
-161 160 62 0
-161 -160 -62 0
161 -160 62 0
161 160 -62 0
-162 161 71 0
-162 -161 -71 0
162 -161 71 0
162 161 -71 0
-163 162 77 0
-163 -162 -77 0
163 -162 77 0
163 162 -77 0
-163 0
-164 7 8 0
-164 -7 -8 0
164 -7 8 0
164 7 -8 0
-165 164 30 0
-165 -164 -30 0
165 -164 30 0
165 164 -30 0
-166 165 63 0
-166 -165 -63 0
166 -165 63 0
166 165 -63 0
-167 166 72 0
-167 -166 -72 0
167 -166 72 0
167 166 -72 0
-168 167 78 0
-168 -167 -78 0
168 -167 78 0
168 167 -78 0
-168 0
-169 14 15 0
-169 -14 -15 0
169 -14 15 0
169 14 -15 0
-170 169 31 0
-170 -169 -31 0
170 -169 31 0
170 169 -31 0
-171 170 70 0
-171 -170 -70 0
171 -170 70 0
171 170 -70 0
-172 171 73 0
-172 -171 -73 0
172 -171 73 0
172 171 -73 0
-173 172 79 0
-173 -172 -79 0
173 -172 79 0
173 172 -79 0
-173 0
-174 15 16 0
-174 -15 -16 0
174 -15 16 0
174 15 -16 0
-175 174 32 0
-175 -174 -32 0
175 -174 32 0
175 174 -32 0
-176 175 71 0
-176 -175 -71 0
176 -175 71 0
176 175 -71 0
-177 176 74 0
-177 -176 -74 0
177 -176 74 0
177 176 -74 0
-178 177 80 0
-178 -177 -80 0
178 -177 80 0
178 177 -80 0
-178 0
-179 16 17 0
-179 -16 -17 0
179 -16 17 0
179 16 -17 0
-180 179 33 0
-180 -179 -33 0
180 -179 33 0
180 179 -33 0
-181 180 72 0
-181 -180 -72 0
181 -180 72 0
181 180 -72 0
-182 181 75 0
-182 -181 -75 0
182 -181 75 0
182 181 -75 0
-183 182 81 0
-183 -182 -81 0
183 -182 81 0
183 182 -81 0
-183 0
-184 17 18 0
-184 -17 -18 0
184 -17 18 0
184 17 -18 0
-185 184 34 0
-185 -184 -34 0
185 -184 34 0
185 184 -34 0
-186 185 67 0
-186 -185 -67 0
186 -185 67 0
186 185 -67 0
-187 186 76 0
-187 -186 -76 0
187 -186 76 0
187 186 -76 0
-188 187 82 0
-188 -187 -82 0
188 -187 82 0
188 187 -82 0
-188 0
-189 13 18 0
-189 -13 -18 0
189 -13 18 0
189 13 -18 0
-190 189 35 0
-190 -189 -35 0
190 -189 35 0
190 189 -35 0
-191 190 68 0
-191 -190 -68 0
191 -190 68 0
191 190 -68 0
-192 191 77 0
-192 -191 -77 0
192 -191 77 0
192 191 -77 0
-193 192 83 0
-193 -192 -83 0
193 -192 83 0
193 192 -83 0
-193 0
-194 13 14 0
-194 -13 -14 0
194 -13 14 0
194 13 -14 0
-195 194 36 0
-195 -194 -36 0
195 -194 36 0
195 194 -36 0
-196 195 69 0
-196 -195 -69 0
196 -195 69 0
196 195 -69 0
-197 196 78 0
-197 -196 -78 0
197 -196 78 0
197 196 -78 0
-198 197 84 0
-198 -197 -84 0
198 -197 84 0
198 197 -84 0
-198 0
-199 20 21 0
-199 -20 -21 0
199 -20 21 0
199 20 -21 0
-200 199 37 0
-200 -199 -37 0
200 -199 37 0
200 199 -37 0
-201 200 76 0
-201 -200 -76 0
201 -200 76 0
201 200 -76 0
-202 201 79 0
-202 -201 -79 0
202 -201 79 0
202 201 -79 0
-203 202 85 0
-203 -202 -85 0
203 -202 85 0
203 202 -85 0
-203 0
-204 21 22 0
-204 -21 -22 0
204 -21 22 0
204 21 -22 0
-205 204 38 0
-205 -204 -38 0
205 -204 38 0
205 204 -38 0
-206 205 77 0
-206 -205 -77 0
206 -205 77 0
206 205 -77 0
-207 206 80 0
-207 -206 -80 0
207 -206 80 0
207 206 -80 0
-208 207 86 0
-208 -207 -86 0
208 -207 86 0
208 207 -86 0
-208 0
-209 22 23 0
-209 -22 -23 0
209 -22 23 0
209 22 -23 0
-210 209 39 0
-210 -209 -39 0
210 -209 39 0
210 209 -39 0
-211 210 78 0
-211 -210 -78 0
211 -210 78 0
211 210 -78 0
-212 211 81 0
-212 -211 -81 0
212 -211 81 0
212 211 -81 0
-213 212 87 0
-213 -212 -87 0
213 -212 87 0
213 212 -87 0
-213 0
-214 23 24 0
-214 -23 -24 0
214 -23 24 0
214 23 -24 0
-215 214 40 0
-215 -214 -40 0
215 -214 40 0
215 214 -40 0
-216 215 73 0
-216 -215 -73 0
216 -215 73 0
216 215 -73 0
-217 216 82 0
-217 -216 -82 0
217 -216 82 0
217 216 -82 0
-218 217 88 0
-218 -217 -88 0
218 -217 88 0
218 217 -88 0
-218 0
-219 19 24 0
-219 -19 -24 0
219 -19 24 0
219 19 -24 0
-220 219 41 0
-220 -219 -41 0
220 -219 41 0
220 219 -41 0
-221 220 74 0
-221 -220 -74 0
221 -220 74 0
221 220 -74 0
-222 221 83 0
-222 -221 -83 0
222 -221 83 0
222 221 -83 0
-223 222 89 0
-223 -222 -89 0
223 -222 89 0
223 222 -89 0
-223 0
-224 19 20 0
-224 -19 -20 0
224 -19 20 0
224 19 -20 0
-225 224 42 0
-225 -224 -42 0
225 -224 42 0
225 224 -42 0
-226 225 75 0
-226 -225 -75 0
226 -225 75 0
226 225 -75 0
-227 226 84 0
-227 -226 -84 0
227 -226 84 0
227 226 -84 0
-228 227 90 0
-228 -227 -90 0
228 -227 90 0
228 227 -90 0
-228 0
-229 26 27 0
-229 -26 -27 0
229 -26 27 0
229 26 -27 0
-230 229 43 0
-230 -229 -43 0
230 -229 43 0
230 229 -43 0
-231 230 82 0
-231 -230 -82 0
231 -230 82 0
231 230 -82 0
-232 231 85 0
-232 -231 -85 0
232 -231 85 0
232 231 -85 0
-233 232 91 0
-233 -232 -91 0
233 -232 91 0
233 232 -91 0
-233 0
-234 27 28 0
-234 -27 -28 0
234 -27 28 0
234 27 -28 0
-235 234 44 0
-235 -234 -44 0
235 -234 44 0
235 234 -44 0
-236 235 83 0
-236 -235 -83 0
236 -235 83 0
236 235 -83 0
-237 236 86 0
-237 -236 -86 0
237 -236 86 0
237 236 -86 0
-238 237 92 0
-238 -237 -92 0
238 -237 92 0
238 237 -92 0
-238 0
-239 28 29 0
-239 -28 -29 0
239 -28 29 0
239 28 -29 0
-240 239 45 0
-240 -239 -45 0
240 -239 45 0
240 239 -45 0
-241 240 84 0
-241 -240 -84 0
241 -240 84 0
241 240 -84 0
-242 241 87 0
-242 -241 -87 0
242 -241 87 0
242 241 -87 0
-243 242 93 0
-243 -242 -93 0
243 -242 93 0
243 242 -93 0
-243 0
-244 29 30 0
-244 -29 -30 0
244 -29 30 0
244 29 -30 0
-245 244 46 0
-245 -244 -46 0
245 -244 46 0
245 244 -46 0
-246 245 79 0
-246 -245 -79 0
246 -245 79 0
246 245 -79 0
-247 246 88 0
-247 -246 -88 0
247 -246 88 0
247 246 -88 0
-248 247 94 0
-248 -247 -94 0
248 -247 94 0
248 247 -94 0
-248 0
-249 25 30 0
-249 -25 -30 0
249 -25 30 0
249 25 -30 0
-250 249 47 0
-250 -249 -47 0
250 -249 47 0
250 249 -47 0
-251 250 80 0
-251 -250 -80 0
251 -250 80 0
251 250 -80 0
-252 251 89 0
-252 -251 -89 0
252 -251 89 0
252 251 -89 0
-253 252 95 0
-253 -252 -95 0
253 -252 95 0
253 252 -95 0
-253 0
-254 25 26 0
-254 -25 -26 0
254 -25 26 0
254 25 -26 0
-255 254 48 0
-255 -254 -48 0
255 -254 48 0
255 254 -48 0
-256 255 81 0
-256 -255 -81 0
256 -255 81 0
256 255 -81 0
-257 256 90 0
-257 -256 -90 0
257 -256 90 0
257 256 -90 0
-258 257 96 0
-258 -257 -96 0
258 -257 96 0
258 257 -96 0
-258 0
-259 32 33 0
-259 -32 -33 0
259 -32 33 0
259 32 -33 0
-260 259 49 0
-260 -259 -49 0
260 -259 49 0
260 259 -49 0
-261 260 88 0
-261 -260 -88 0
261 -260 88 0
261 260 -88 0
-262 261 91 0
-262 -261 -91 0
262 -261 91 0
262 261 -91 0
-263 262 97 0
-263 -262 -97 0
263 -262 97 0
263 262 -97 0
-263 0
-264 33 34 0
-264 -33 -34 0
264 -33 34 0
264 33 -34 0
-265 264 50 0
-265 -264 -50 0
265 -264 50 0
265 264 -50 0
-266 265 89 0
-266 -265 -89 0
266 -265 89 0
266 265 -89 0
-267 266 92 0
-267 -266 -92 0
267 -266 92 0
267 266 -92 0
-268 267 98 0
-268 -267 -98 0
268 -267 98 0
268 267 -98 0
-268 0
-269 34 35 0
-269 -34 -35 0
269 -34 35 0
269 34 -35 0
-270 269 51 0
-270 -269 -51 0
270 -269 51 0
270 269 -51 0
-271 270 90 0
-271 -270 -90 0
271 -270 90 0
271 270 -90 0
-272 271 93 0
-272 -271 -93 0
272 -271 93 0
272 271 -93 0
-273 272 99 0
-273 -272 -99 0
273 -272 99 0
273 272 -99 0
-273 0
-274 35 36 0
-274 -35 -36 0
274 -35 36 0
274 35 -36 0
-275 274 52 0
-275 -274 -52 0
275 -274 52 0
275 274 -52 0
-276 275 85 0
-276 -275 -85 0
276 -275 85 0
276 275 -85 0
-277 276 94 0
-277 -276 -94 0
277 -276 94 0
277 276 -94 0
-278 277 100 0
-278 -277 -100 0
278 -277 100 0
278 277 -100 0
-278 0
-279 31 36 0
-279 -31 -36 0
279 -31 36 0
279 31 -36 0
-280 279 53 0
-280 -279 -53 0
280 -279 53 0
280 279 -53 0
-281 280 86 0
-281 -280 -86 0
281 -280 86 0
281 280 -86 0
-282 281 95 0
-282 -281 -95 0
282 -281 95 0
282 281 -95 0
-283 282 101 0
-283 -282 -101 0
283 -282 101 0
283 282 -101 0
-283 0
-284 31 32 0
-284 -31 -32 0
284 -31 32 0
284 31 -32 0
-285 284 54 0
-285 -284 -54 0
285 -284 54 0
285 284 -54 0
-286 285 87 0
-286 -285 -87 0
286 -285 87 0
286 285 -87 0
-287 286 96 0
-287 -286 -96 0
287 -286 96 0
287 286 -96 0
-288 287 102 0
-288 -287 -102 0
288 -287 102 0
288 287 -102 0
-288 0
-289 1 38 0
-289 -1 -38 0
289 -1 38 0
289 1 -38 0
-290 289 39 0
-290 -289 -39 0
290 -289 39 0
290 289 -39 0
-291 290 94 0
-291 -290 -94 0
291 -290 94 0
291 290 -94 0
-292 291 97 0
-292 -291 -97 0
292 -291 97 0
292 291 -97 0
-293 292 103 0
-293 -292 -103 0
293 -292 103 0
293 292 -103 0
-293 0
-294 2 39 0
-294 -2 -39 0
294 -2 39 0
294 2 -39 0
-295 294 40 0
-295 -294 -40 0
295 -294 40 0
295 294 -40 0
-296 295 95 0
-296 -295 -95 0
296 -295 95 0
296 295 -95 0
-297 296 98 0
-297 -296 -98 0
297 -296 98 0
297 296 -98 0
-298 297 104 0
-298 -297 -104 0
298 -297 104 0
298 297 -104 0
-298 0
-299 3 40 0
-299 -3 -40 0
299 -3 40 0
299 3 -40 0
-300 299 41 0
-300 -299 -41 0
300 -299 41 0
300 299 -41 0
-301 300 96 0
-301 -300 -96 0
301 -300 96 0
301 300 -96 0
-302 301 99 0
-302 -301 -99 0
302 -301 99 0
302 301 -99 0
-303 302 105 0
-303 -302 -105 0
303 -302 105 0
303 302 -105 0
-303 0
-304 4 41 0
-304 -4 -41 0
304 -4 41 0
304 4 -41 0
-305 304 42 0
-305 -304 -42 0
305 -304 42 0
305 304 -42 0
-306 305 91 0
-306 -305 -91 0
306 -305 91 0
306 305 -91 0
-307 306 100 0
-307 -306 -100 0
307 -306 100 0
307 306 -100 0
-308 307 106 0
-308 -307 -106 0
308 -307 106 0
308 307 -106 0
-308 0
-309 5 37 0
-309 -5 -37 0
309 -5 37 0
309 5 -37 0
-310 309 42 0
-310 -309 -42 0
310 -309 42 0
310 309 -42 0
-311 310 92 0
-311 -310 -92 0
311 -310 92 0
311 310 -92 0
-312 311 101 0
-312 -311 -101 0
312 -311 101 0
312 311 -101 0
-313 312 107 0
-313 -312 -107 0
313 -312 107 0
313 312 -107 0
-313 0
-314 6 37 0
-314 -6 -37 0
314 -6 37 0
314 6 -37 0
-315 314 38 0
-315 -314 -38 0
315 -314 38 0
315 314 -38 0
-316 315 93 0
-316 -315 -93 0
316 -315 93 0
316 315 -93 0
-317 316 102 0
-317 -316 -102 0
317 -316 102 0
317 316 -102 0
-318 317 108 0
-318 -317 -108 0
318 -317 108 0
318 317 -108 0
-318 0
-319 7 44 0
-319 -7 -44 0
319 -7 44 0
319 7 -44 0
-320 319 45 0
-320 -319 -45 0
320 -319 45 0
320 319 -45 0
-321 320 55 0
-321 -320 -55 0
321 -320 55 0
321 320 -55 0
-322 321 100 0
-322 -321 -100 0
322 -321 100 0
322 321 -100 0
-323 322 103 0
-323 -322 -103 0
323 -322 103 0
323 322 -103 0
-323 0
-324 8 45 0
-324 -8 -45 0
324 -8 45 0
324 8 -45 0
-325 324 46 0
-325 -324 -46 0
325 -324 46 0
325 324 -46 0
-326 325 56 0
-326 -325 -56 0
326 -325 56 0
326 325 -56 0
-327 326 101 0
-327 -326 -101 0
327 -326 101 0
327 326 -101 0
-328 327 104 0
-328 -327 -104 0
328 -327 104 0
328 327 -104 0
-328 0
-329 9 46 0
-329 -9 -46 0
329 -9 46 0
329 9 -46 0
-330 329 47 0
-330 -329 -47 0
330 -329 47 0
330 329 -47 0
-331 330 57 0
-331 -330 -57 0
331 -330 57 0
331 330 -57 0
-332 331 102 0
-332 -331 -102 0
332 -331 102 0
332 331 -102 0
-333 332 105 0
-333 -332 -105 0
333 -332 105 0
333 332 -105 0
-333 0
-334 10 47 0
-334 -10 -47 0
334 -10 47 0
334 10 -47 0
-335 334 48 0
-335 -334 -48 0
335 -334 48 0
335 334 -48 0
-336 335 58 0
-336 -335 -58 0
336 -335 58 0
336 335 -58 0
-337 336 97 0
-337 -336 -97 0
337 -336 97 0
337 336 -97 0
-338 337 106 0
-338 -337 -106 0
338 -337 106 0
338 337 -106 0
-338 0
-339 11 43 0
-339 -11 -43 0
339 -11 43 0
339 11 -43 0
-340 339 48 0
-340 -339 -48 0
340 -339 48 0
340 339 -48 0
-341 340 59 0
-341 -340 -59 0
341 -340 59 0
341 340 -59 0
-342 341 98 0
-342 -341 -98 0
342 -341 98 0
342 341 -98 0
-343 342 107 0
-343 -342 -107 0
343 -342 107 0
343 342 -107 0
-343 0
-344 12 43 0
-344 -12 -43 0
344 -12 43 0
344 12 -43 0
-345 344 44 0
-345 -344 -44 0
345 -344 44 0
345 344 -44 0
-346 345 60 0
-346 -345 -60 0
346 -345 60 0
346 345 -60 0
-347 346 99 0
-347 -346 -99 0
347 -346 99 0
347 346 -99 0
-348 347 108 0
-348 -347 -108 0
348 -347 108 0
348 347 -108 0
-348 0
-349 13 50 0
-349 -13 -50 0
349 -13 50 0
349 13 -50 0
-350 349 51 0
-350 -349 -51 0
350 -349 51 0
350 349 -51 0
-351 350 55 0
-351 -350 -55 0
351 -350 55 0
351 350 -55 0
-352 351 61 0
-352 -351 -61 0
352 -351 61 0
352 351 -61 0
-353 352 106 0
-353 -352 -106 0
353 -352 106 0
353 352 -106 0
-353 0
-354 14 51 0
-354 -14 -51 0
354 -14 51 0
354 14 -51 0
-355 354 52 0
-355 -354 -52 0
355 -354 52 0
355 354 -52 0
-356 355 56 0
-356 -355 -56 0
356 -355 56 0
356 355 -56 0
-357 356 62 0
-357 -356 -62 0
357 -356 62 0
357 356 -62 0
-358 357 107 0
-358 -357 -107 0
358 -357 107 0
358 357 -107 0
-358 0
-359 15 52 0
-359 -15 -52 0
359 -15 52 0
359 15 -52 0
-360 359 53 0
-360 -359 -53 0
360 -359 53 0
360 359 -53 0
-361 360 57 0
-361 -360 -57 0
361 -360 57 0
361 360 -57 0
-362 361 63 0
-362 -361 -63 0
362 -361 63 0
362 361 -63 0
-363 362 108 0
-363 -362 -108 0
363 -362 108 0
363 362 -108 0
-363 0
-364 16 53 0
-364 -16 -53 0
364 -16 53 0
364 16 -53 0
-365 364 54 0
-365 -364 -54 0
365 -364 54 0
365 364 -54 0
-366 365 58 0
-366 -365 -58 0
366 -365 58 0
366 365 -58 0
-367 366 64 0
-367 -366 -64 0
367 -366 64 0
367 366 -64 0
-368 367 103 0
-368 -367 -103 0
368 -367 103 0
368 367 -103 0
-368 0
-369 17 49 0
-369 -17 -49 0
369 -17 49 0
369 17 -49 0
-370 369 54 0
-370 -369 -54 0
370 -369 54 0
370 369 -54 0
-371 370 59 0
-371 -370 -59 0
371 -370 59 0
371 370 -59 0
-372 371 65 0
-372 -371 -65 0
372 -371 65 0
372 371 -65 0
-373 372 104 0
-373 -372 -104 0
373 -372 104 0
373 372 -104 0
-373 0
-374 18 49 0
-374 -18 -49 0
374 -18 49 0
374 18 -49 0
-375 374 50 0
-375 -374 -50 0
375 -374 50 0
375 374 -50 0
-376 375 60 0
-376 -375 -60 0
376 -375 60 0
376 375 -60 0
-377 376 66 0
-377 -376 -66 0
377 -376 66 0
377 376 -66 0
-378 377 105 0
-378 -377 -105 0
378 -377 105 0
378 377 -105 0
-378 0
-379 1 4 0
-379 -1 -4 0
379 -1 4 0
379 1 -4 0
-380 379 7 0
-380 -379 -7 0
380 -379 7 0
380 379 -7 0
-381 380 10 0
-381 -380 -10 0
381 -380 10 0
381 380 -10 0
-382 381 19 0
-382 -381 -19 0
382 -381 19 0
382 381 -19 0
-383 382 22 0
-383 -382 -22 0
383 -382 22 0
383 382 -22 0
-384 383 25 0
-384 -383 -25 0
384 -383 25 0
384 383 -25 0
-385 384 28 0
-385 -384 -28 0
385 -384 28 0
385 384 -28 0
-386 385 37 0
-386 -385 -37 0
386 -385 37 0
386 385 -37 0
-387 386 40 0
-387 -386 -40 0
387 -386 40 0
387 386 -40 0
-388 387 43 0
-388 -387 -43 0
388 -387 43 0
388 387 -43 0
-389 388 46 0
-389 -388 -46 0
389 -388 46 0
389 388 -46 0
-390 2 5 0
-390 -2 -5 0
390 -2 5 0
390 2 -5 0
-391 390 8 0
-391 -390 -8 0
391 -390 8 0
391 390 -8 0
-392 391 11 0
-392 -391 -11 0
392 -391 11 0
392 391 -11 0
-393 392 20 0
-393 -392 -20 0
393 -392 20 0
393 392 -20 0
-394 393 23 0
-394 -393 -23 0
394 -393 23 0
394 393 -23 0
-395 394 26 0
-395 -394 -26 0
395 -394 26 0
395 394 -26 0
-396 395 29 0
-396 -395 -29 0
396 -395 29 0
396 395 -29 0
-397 396 38 0
-397 -396 -38 0
397 -396 38 0
397 396 -38 0
-398 397 41 0
-398 -397 -41 0
398 -397 41 0
398 397 -41 0
-399 398 44 0
-399 -398 -44 0
399 -398 44 0
399 398 -44 0
-400 399 47 0
-400 -399 -47 0
400 -399 47 0
400 399 -47 0
-401 1 4 0
-401 -1 -4 0
401 -1 4 0
401 1 -4 0
-402 401 13 0
-402 -401 -13 0
402 -401 13 0
402 401 -13 0
-403 402 16 0
-403 -402 -16 0
403 -402 16 0
403 402 -16 0
-404 403 19 0
-404 -403 -19 0
404 -403 19 0
404 403 -19 0
-405 404 22 0
-405 -404 -22 0
405 -404 22 0
405 404 -22 0
-406 405 31 0
-406 -405 -31 0
406 -405 31 0
406 405 -31 0
-407 406 34 0
-407 -406 -34 0
407 -406 34 0
407 406 -34 0
-408 407 37 0
-408 -407 -37 0
408 -407 37 0
408 407 -37 0
-409 408 40 0
-409 -408 -40 0
409 -408 40 0
409 408 -40 0
-410 409 49 0
-410 -409 -49 0
410 -409 49 0
410 409 -49 0
-411 410 52 0
-411 -410 -52 0
411 -410 52 0
411 410 -52 0
-412 2 5 0
-412 -2 -5 0
412 -2 5 0
412 2 -5 0
-413 412 14 0
-413 -412 -14 0
413 -412 14 0
413 412 -14 0
-414 413 17 0
-414 -413 -17 0
414 -413 17 0
414 413 -17 0
-415 414 20 0
-415 -414 -20 0
415 -414 20 0
415 414 -20 0
-416 415 23 0
-416 -415 -23 0
416 -415 23 0
416 415 -23 0
-417 416 32 0
-417 -416 -32 0
417 -416 32 0
417 416 -32 0
-418 417 35 0
-418 -417 -35 0
418 -417 35 0
418 417 -35 0
-419 418 38 0
-419 -418 -38 0
419 -418 38 0
419 418 -38 0
-420 419 41 0
-420 -419 -41 0
420 -419 41 0
420 419 -41 0
-421 420 50 0
-421 -420 -50 0
421 -420 50 0
421 420 -50 0
-422 421 53 0
-422 -421 -53 0
422 -421 53 0
422 421 -53 0
-423 1 4 0
-423 -1 -4 0
423 -1 4 0
423 1 -4 0
-424 423 7 0
-424 -423 -7 0
424 -423 7 0
424 423 -7 0
-425 424 13 0
-425 -424 -13 0
425 -424 13 0
425 424 -13 0
-426 425 22 0
-426 -425 -22 0
426 -425 22 0
426 425 -22 0
-427 426 23 0
-427 -426 -23 0
427 -426 23 0
427 426 -23 0
-428 427 25 0
-428 -427 -25 0
428 -427 25 0
428 427 -25 0
-429 428 26 0
-429 -428 -26 0
429 -428 26 0
429 428 -26 0
-430 429 28 0
-430 -429 -28 0
430 -429 28 0
430 429 -28 0
-431 430 32 0
-431 -430 -32 0
431 -430 32 0
431 430 -32 0
-432 431 34 0
-432 -431 -34 0
432 -431 34 0
432 431 -34 0
-433 432 35 0
-433 -432 -35 0
433 -432 35 0
433 432 -35 0
-434 433 38 0
-434 -433 -38 0
434 -433 38 0
434 433 -38 0
-435 434 40 0
-435 -434 -40 0
435 -434 40 0
435 434 -40 0
-436 435 44 0
-436 -435 -44 0
436 -435 44 0
436 435 -44 0
-437 436 49 0
-437 -436 -49 0
437 -436 49 0
437 436 -49 0
-438 437 55 0
-438 -437 -55 0
438 -437 55 0
438 437 -55 0
-439 438 56 0
-439 -438 -56 0
439 -438 56 0
439 438 -56 0
-440 1 2 0
-440 -1 -2 0
440 -1 2 0
440 1 -2 0
-441 440 4 0
-441 -440 -4 0
441 -440 4 0
441 440 -4 0
-442 441 5 0
-442 -441 -5 0
442 -441 5 0
442 441 -5 0
-443 442 7 0
-443 -442 -7 0
443 -442 7 0
443 442 -7 0
-444 443 8 0
-444 -443 -8 0
444 -443 8 0
444 443 -8 0
-445 444 13 0
-445 -444 -13 0
445 -444 13 0
445 444 -13 0
-446 445 14 0
-446 -445 -14 0
446 -445 14 0
446 445 -14 0
-447 446 22 0
-447 -446 -22 0
447 -446 22 0
447 446 -22 0
-448 447 24 0
-448 -447 -24 0
448 -447 24 0
448 447 -24 0
-449 448 25 0
-449 -448 -25 0
449 -448 25 0
449 448 -25 0
-450 449 27 0
-450 -449 -27 0
450 -449 27 0
450 449 -27 0
-451 450 28 0
-451 -450 -28 0
451 -450 28 0
451 450 -28 0
-452 451 29 0
-452 -451 -29 0
452 -451 29 0
452 451 -29 0
-453 452 32 0
-453 -452 -32 0
453 -452 32 0
453 452 -32 0
-454 453 33 0
-454 -453 -33 0
454 -453 33 0
454 453 -33 0
-455 454 34 0
-455 -454 -34 0
455 -454 34 0
455 454 -34 0
-456 455 36 0
-456 -455 -36 0
456 -455 36 0
456 455 -36 0
-457 456 38 0
-457 -456 -38 0
457 -456 38 0
457 456 -38 0
-458 457 39 0
-458 -457 -39 0
458 -457 39 0
458 457 -39 0
-459 458 40 0
-459 -458 -40 0
459 -458 40 0
459 458 -40 0
-460 459 41 0
-460 -459 -41 0
460 -459 41 0
460 459 -41 0
-461 460 44 0
-461 -460 -44 0
461 -460 44 0
461 460 -44 0
-462 461 45 0
-462 -461 -45 0
462 -461 45 0
462 461 -45 0
-463 462 49 0
-463 -462 -49 0
463 -462 49 0
463 462 -49 0
-464 463 50 0
-464 -463 -50 0
464 -463 50 0
464 463 -50 0
-465 464 55 0
-465 -464 -55 0
465 -464 55 0
465 464 -55 0
-466 465 57 0
-466 -465 -57 0
466 -465 57 0
466 465 -57 0
-467 4 13 0
-467 -4 -13 0
467 -4 13 0
467 4 -13 0
-468 467 22 0
-468 -467 -22 0
468 -467 22 0
468 467 -22 0
-469 468 25 0
-469 -468 -25 0
469 -468 25 0
469 468 -25 0
-470 469 29 0
-470 -469 -29 0
470 -469 29 0
470 469 -29 0
-471 470 31 0
-471 -470 -31 0
471 -470 31 0
471 470 -31 0
-472 471 32 0
-472 -471 -32 0
472 -471 32 0
472 471 -32 0
-473 472 34 0
-473 -472 -34 0
473 -472 34 0
473 472 -34 0
-474 473 37 0
-474 -473 -37 0
474 -473 37 0
474 473 -37 0
-475 474 38 0
-475 -474 -38 0
475 -474 38 0
475 474 -38 0
-476 475 41 0
-476 -475 -41 0
476 -475 41 0
476 475 -41 0
-477 476 43 0
-477 -476 -43 0
477 -476 43 0
477 476 -43 0
-478 477 44 0
-478 -477 -44 0
478 -477 44 0
478 477 -44 0
-479 478 50 0
-479 -478 -50 0
479 -478 50 0
479 478 -50 0
-480 479 61 0
-480 -479 -61 0
480 -479 61 0
480 479 -61 0
-481 480 62 0
-481 -480 -62 0
481 -480 62 0
481 480 -62 0
-482 4 5 0
-482 -4 -5 0
482 -4 5 0
482 4 -5 0
-483 482 13 0
-483 -482 -13 0
483 -482 13 0
483 482 -13 0
-484 483 14 0
-484 -483 -14 0
484 -483 14 0
484 483 -14 0
-485 484 22 0
-485 -484 -22 0
485 -484 22 0
485 484 -22 0
-486 485 23 0
-486 -485 -23 0
486 -485 23 0
486 485 -23 0
-487 486 25 0
-487 -486 -25 0
487 -486 25 0
487 486 -25 0
-488 487 26 0
-488 -487 -26 0
488 -487 26 0
488 487 -26 0
-489 488 29 0
-489 -488 -29 0
489 -488 29 0
489 488 -29 0
-490 489 30 0
-490 -489 -30 0
490 -489 30 0
490 489 -30 0
-491 490 31 0
-491 -490 -31 0
491 -490 31 0
491 490 -31 0
-492 491 33 0
-492 -491 -33 0
492 -491 33 0
492 491 -33 0
-493 492 34 0
-493 -492 -34 0
493 -492 34 0
493 492 -34 0
-494 493 35 0
-494 -493 -35 0
494 -493 35 0
494 493 -35 0
-495 494 37 0
-495 -494 -37 0
495 -494 37 0
495 494 -37 0
-496 495 39 0
-496 -495 -39 0
496 -495 39 0
496 495 -39 0
-497 496 41 0
-497 -496 -41 0
497 -496 41 0
497 496 -41 0
-498 497 42 0
-498 -497 -42 0
498 -497 42 0
498 497 -42 0
-499 498 43 0
-499 -498 -43 0
499 -498 43 0
499 498 -43 0
-500 499 45 0
-500 -499 -45 0
500 -499 45 0
500 499 -45 0
-501 500 50 0
-501 -500 -50 0
501 -500 50 0
501 500 -50 0
-502 501 51 0
-502 -501 -51 0
502 -501 51 0
502 501 -51 0
-503 502 61 0
-503 -502 -61 0
503 -502 61 0
503 502 -61 0
-504 503 63 0
-504 -503 -63 0
504 -503 63 0
504 503 -63 0
389 400 411 422 439 466 481 504 0
-1 505 0
-506 0
-507 0
-508 0
-509 0
-510 0
-511 0
-512 0
-513 0
-514 0
-2 515 0
-505 515 0
-2 -505 516 0
-506 516 0
-2 -506 517 0
-507 517 0
-2 -507 518 0
-508 518 0
-2 -508 519 0
-509 519 0
-2 -509 520 0
-510 520 0
-2 -510 521 0
-511 521 0
-2 -511 522 0
-512 522 0
-2 -512 523 0
-513 523 0
-2 -513 524 0
-514 524 0
-2 -514 0
-3 525 0
-515 525 0
-3 -515 526 0
-516 526 0
-3 -516 527 0
-517 527 0
-3 -517 528 0
-518 528 0
-3 -518 529 0
-519 529 0
-3 -519 530 0
-520 530 0
-3 -520 531 0
-521 531 0
-3 -521 532 0
-522 532 0
-3 -522 533 0
-523 533 0
-3 -523 534 0
-524 534 0
-3 -524 0
-4 535 0
-525 535 0
-4 -525 536 0
-526 536 0
-4 -526 537 0
-527 537 0
-4 -527 538 0
-528 538 0
-4 -528 539 0
-529 539 0
-4 -529 540 0
-530 540 0
-4 -530 541 0
-531 541 0
-4 -531 542 0
-532 542 0
-4 -532 543 0
-533 543 0
-4 -533 544 0
-534 544 0
-4 -534 0
-5 545 0
-535 545 0
-5 -535 546 0
-536 546 0
-5 -536 547 0
-537 547 0
-5 -537 548 0
-538 548 0
-5 -538 549 0
-539 549 0
-5 -539 550 0
-540 550 0
-5 -540 551 0
-541 551 0
-5 -541 552 0
-542 552 0
-5 -542 553 0
-543 553 0
-5 -543 554 0
-544 554 0
-5 -544 0
-6 555 0
-545 555 0
-6 -545 556 0
-546 556 0
-6 -546 557 0
-547 557 0
-6 -547 558 0
-548 558 0
-6 -548 559 0
-549 559 0
-6 -549 560 0
-550 560 0
-6 -550 561 0
-551 561 0
-6 -551 562 0
-552 562 0
-6 -552 563 0
-553 563 0
-6 -553 564 0
-554 564 0
-6 -554 0
-7 565 0
-555 565 0
-7 -555 566 0
-556 566 0
-7 -556 567 0
-557 567 0
-7 -557 568 0
-558 568 0
-7 -558 569 0
-559 569 0
-7 -559 570 0
-560 570 0
-7 -560 571 0
-561 571 0
-7 -561 572 0
-562 572 0
-7 -562 573 0
-563 573 0
-7 -563 574 0
-564 574 0
-7 -564 0
-8 575 0
-565 575 0
-8 -565 576 0
-566 576 0
-8 -566 577 0
-567 577 0
-8 -567 578 0
-568 578 0
-8 -568 579 0
-569 579 0
-8 -569 580 0
-570 580 0
-8 -570 581 0
-571 581 0
-8 -571 582 0
-572 582 0
-8 -572 583 0
-573 583 0
-8 -573 584 0
-574 584 0
-8 -574 0
-9 585 0
-575 585 0
-9 -575 586 0
-576 586 0
-9 -576 587 0
-577 587 0
-9 -577 588 0
-578 588 0
-9 -578 589 0
-579 589 0
-9 -579 590 0
-580 590 0
-9 -580 591 0
-581 591 0
-9 -581 592 0
-582 592 0
-9 -582 593 0
-583 593 0
-9 -583 594 0
-584 594 0
-9 -584 0
-10 595 0
-585 595 0
-10 -585 596 0
-586 596 0
-10 -586 597 0
-587 597 0
-10 -587 598 0
-588 598 0
-10 -588 599 0
-589 599 0
-10 -589 600 0
-590 600 0
-10 -590 601 0
-591 601 0
-10 -591 602 0
-592 602 0
-10 -592 603 0
-593 603 0
-10 -593 604 0
-594 604 0
-10 -594 0
-11 605 0
-595 605 0
-11 -595 606 0
-596 606 0
-11 -596 607 0
-597 607 0
-11 -597 608 0
-598 608 0
-11 -598 609 0
-599 609 0
-11 -599 610 0
-600 610 0
-11 -600 611 0
-601 611 0
-11 -601 612 0
-602 612 0
-11 -602 613 0
-603 613 0
-11 -603 614 0
-604 614 0
-11 -604 0
-12 615 0
-605 615 0
-12 -605 616 0
-606 616 0
-12 -606 617 0
-607 617 0
-12 -607 618 0
-608 618 0
-12 -608 619 0
-609 619 0
-12 -609 620 0
-610 620 0
-12 -610 621 0
-611 621 0
-12 -611 622 0
-612 622 0
-12 -612 623 0
-613 623 0
-12 -613 624 0
-614 624 0
-12 -614 0
-13 625 0
-615 625 0
-13 -615 626 0
-616 626 0
-13 -616 627 0
-617 627 0
-13 -617 628 0
-618 628 0
-13 -618 629 0
-619 629 0
-13 -619 630 0
-620 630 0
-13 -620 631 0
-621 631 0
-13 -621 632 0
-622 632 0
-13 -622 633 0
-623 633 0
-13 -623 634 0
-624 634 0
-13 -624 0
-14 635 0
-625 635 0
-14 -625 636 0
-626 636 0
-14 -626 637 0
-627 637 0
-14 -627 638 0
-628 638 0
-14 -628 639 0
-629 639 0
-14 -629 640 0
-630 640 0
-14 -630 641 0
-631 641 0
-14 -631 642 0
-632 642 0
-14 -632 643 0
-633 643 0
-14 -633 644 0
-634 644 0
-14 -634 0
-15 645 0
-635 645 0
-15 -635 646 0
-636 646 0
-15 -636 647 0
-637 647 0
-15 -637 648 0
-638 648 0
-15 -638 649 0
-639 649 0
-15 -639 650 0
-640 650 0
-15 -640 651 0
-641 651 0
-15 -641 652 0
-642 652 0
-15 -642 653 0
-643 653 0
-15 -643 654 0
-644 654 0
-15 -644 0
-16 655 0
-645 655 0
-16 -645 656 0
-646 656 0
-16 -646 657 0
-647 657 0
-16 -647 658 0
-648 658 0
-16 -648 659 0
-649 659 0
-16 -649 660 0
-650 660 0
-16 -650 661 0
-651 661 0
-16 -651 662 0
-652 662 0
-16 -652 663 0
-653 663 0
-16 -653 664 0
-654 664 0
-16 -654 0
-17 665 0
-655 665 0
-17 -655 666 0
-656 666 0
-17 -656 667 0
-657 667 0
-17 -657 668 0
-658 668 0
-17 -658 669 0
-659 669 0
-17 -659 670 0
-660 670 0
-17 -660 671 0
-661 671 0
-17 -661 672 0
-662 672 0
-17 -662 673 0
-663 673 0
-17 -663 674 0
-664 674 0
-17 -664 0
-18 675 0
-665 675 0
-18 -665 676 0
-666 676 0
-18 -666 677 0
-667 677 0
-18 -667 678 0
-668 678 0
-18 -668 679 0
-669 679 0
-18 -669 680 0
-670 680 0
-18 -670 681 0
-671 681 0
-18 -671 682 0
-672 682 0
-18 -672 683 0
-673 683 0
-18 -673 684 0
-674 684 0
-18 -674 0
-19 685 0
-675 685 0
-19 -675 686 0
-676 686 0
-19 -676 687 0
-677 687 0
-19 -677 688 0
-678 688 0
-19 -678 689 0
-679 689 0
-19 -679 690 0
-680 690 0
-19 -680 691 0
-681 691 0
-19 -681 692 0
-682 692 0
-19 -682 693 0
-683 693 0
-19 -683 694 0
-684 694 0
-19 -684 0
-20 695 0
-685 695 0
-20 -685 696 0
-686 696 0
-20 -686 697 0
-687 697 0
-20 -687 698 0
-688 698 0
-20 -688 699 0
-689 699 0
-20 -689 700 0
-690 700 0
-20 -690 701 0
-691 701 0
-20 -691 702 0
-692 702 0
-20 -692 703 0
-693 703 0
-20 -693 704 0
-694 704 0
-20 -694 0
-21 705 0
-695 705 0
-21 -695 706 0
-696 706 0
-21 -696 707 0
-697 707 0
-21 -697 708 0
-698 708 0
-21 -698 709 0
-699 709 0
-21 -699 710 0
-700 710 0
-21 -700 711 0
-701 711 0
-21 -701 712 0
-702 712 0
-21 -702 713 0
-703 713 0
-21 -703 714 0
-704 714 0
-21 -704 0
-22 715 0
-705 715 0
-22 -705 716 0
-706 716 0
-22 -706 717 0
-707 717 0
-22 -707 718 0
-708 718 0
-22 -708 719 0
-709 719 0
-22 -709 720 0
-710 720 0
-22 -710 721 0
-711 721 0
-22 -711 722 0
-712 722 0
-22 -712 723 0
-713 723 0
-22 -713 724 0
-714 724 0
-22 -714 0
-23 725 0
-715 725 0
-23 -715 726 0
-716 726 0
-23 -716 727 0
-717 727 0
-23 -717 728 0
-718 728 0
-23 -718 729 0
-719 729 0
-23 -719 730 0
-720 730 0
-23 -720 731 0
-721 731 0
-23 -721 732 0
-722 732 0
-23 -722 733 0
-723 733 0
-23 -723 734 0
-724 734 0
-23 -724 0
-24 735 0
-725 735 0
-24 -725 736 0
-726 736 0
-24 -726 737 0
-727 737 0
-24 -727 738 0
-728 738 0
-24 -728 739 0
-729 739 0
-24 -729 740 0
-730 740 0
-24 -730 741 0
-731 741 0
-24 -731 742 0
-732 742 0
-24 -732 743 0
-733 743 0
-24 -733 744 0
-734 744 0
-24 -734 0
-25 745 0
-735 745 0
-25 -735 746 0
-736 746 0
-25 -736 747 0
-737 747 0
-25 -737 748 0
-738 748 0
-25 -738 749 0
-739 749 0
-25 -739 750 0
-740 750 0
-25 -740 751 0
-741 751 0
-25 -741 752 0
-742 752 0
-25 -742 753 0
-743 753 0
-25 -743 754 0
-744 754 0
-25 -744 0
-26 755 0
-745 755 0
-26 -745 756 0
-746 756 0
-26 -746 757 0
-747 757 0
-26 -747 758 0
-748 758 0
-26 -748 759 0
-749 759 0
-26 -749 760 0
-750 760 0
-26 -750 761 0
-751 761 0
-26 -751 762 0
-752 762 0
-26 -752 763 0
-753 763 0
-26 -753 764 0
-754 764 0
-26 -754 0
-27 765 0
-755 765 0
-27 -755 766 0
-756 766 0
-27 -756 767 0
-757 767 0
-27 -757 768 0
-758 768 0
-27 -758 769 0
-759 769 0
-27 -759 770 0
-760 770 0
-27 -760 771 0
-761 771 0
-27 -761 772 0
-762 772 0
-27 -762 773 0
-763 773 0
-27 -763 774 0
-764 774 0
-27 -764 0
-28 775 0
-765 775 0
-28 -765 776 0
-766 776 0
-28 -766 777 0
-767 777 0
-28 -767 778 0
-768 778 0
-28 -768 779 0
-769 779 0
-28 -769 780 0
-770 780 0
-28 -770 781 0
-771 781 0
-28 -771 782 0
-772 782 0
-28 -772 783 0
-773 783 0
-28 -773 784 0
-774 784 0
-28 -774 0
-29 785 0
-775 785 0
-29 -775 786 0
-776 786 0
-29 -776 787 0
-777 787 0
-29 -777 788 0
-778 788 0
-29 -778 789 0
-779 789 0
-29 -779 790 0
-780 790 0
-29 -780 791 0
-781 791 0
-29 -781 792 0
-782 792 0
-29 -782 793 0
-783 793 0
-29 -783 794 0
-784 794 0
-29 -784 0
-30 795 0
-785 795 0
-30 -785 796 0
-786 796 0
-30 -786 797 0
-787 797 0
-30 -787 798 0
-788 798 0
-30 -788 799 0
-789 799 0
-30 -789 800 0
-790 800 0
-30 -790 801 0
-791 801 0
-30 -791 802 0
-792 802 0
-30 -792 803 0
-793 803 0
-30 -793 804 0
-794 804 0
-30 -794 0
-31 805 0
-795 805 0
-31 -795 806 0
-796 806 0
-31 -796 807 0
-797 807 0
-31 -797 808 0
-798 808 0
-31 -798 809 0
-799 809 0
-31 -799 810 0
-800 810 0
-31 -800 811 0
-801 811 0
-31 -801 812 0
-802 812 0
-31 -802 813 0
-803 813 0
-31 -803 814 0
-804 814 0
-31 -804 0
-32 815 0
-805 815 0
-32 -805 816 0
-806 816 0
-32 -806 817 0
-807 817 0
-32 -807 818 0
-808 818 0
-32 -808 819 0
-809 819 0
-32 -809 820 0
-810 820 0
-32 -810 821 0
-811 821 0
-32 -811 822 0
-812 822 0
-32 -812 823 0
-813 823 0
-32 -813 824 0
-814 824 0
-32 -814 0
-33 825 0
-815 825 0
-33 -815 826 0
-816 826 0
-33 -816 827 0
-817 827 0
-33 -817 828 0
-818 828 0
-33 -818 829 0
-819 829 0
-33 -819 830 0
-820 830 0
-33 -820 831 0
-821 831 0
-33 -821 832 0
-822 832 0
-33 -822 833 0
-823 833 0
-33 -823 834 0
-824 834 0
-33 -824 0
-34 835 0
-825 835 0
-34 -825 836 0
-826 836 0
-34 -826 837 0
-827 837 0
-34 -827 838 0
-828 838 0
-34 -828 839 0
-829 839 0
-34 -829 840 0
-830 840 0
-34 -830 841 0
-831 841 0
-34 -831 842 0
-832 842 0
-34 -832 843 0
-833 843 0
-34 -833 844 0
-834 844 0
-34 -834 0
-35 845 0
-835 845 0
-35 -835 846 0
-836 846 0
-35 -836 847 0
-837 847 0
-35 -837 848 0
-838 848 0
-35 -838 849 0
-839 849 0
-35 -839 850 0
-840 850 0
-35 -840 851 0
-841 851 0
-35 -841 852 0
-842 852 0
-35 -842 853 0
-843 853 0
-35 -843 854 0
-844 854 0
-35 -844 0
-36 855 0
-845 855 0
-36 -845 856 0
-846 856 0
-36 -846 857 0
-847 857 0
-36 -847 858 0
-848 858 0
-36 -848 859 0
-849 859 0
-36 -849 860 0
-850 860 0
-36 -850 861 0
-851 861 0
-36 -851 862 0
-852 862 0
-36 -852 863 0
-853 863 0
-36 -853 864 0
-854 864 0
-36 -854 0
-37 865 0
-855 865 0
-37 -855 866 0
-856 866 0
-37 -856 867 0
-857 867 0
-37 -857 868 0
-858 868 0
-37 -858 869 0
-859 869 0
-37 -859 870 0
-860 870 0
-37 -860 871 0
-861 871 0
-37 -861 872 0
-862 872 0
-37 -862 873 0
-863 873 0
-37 -863 874 0
-864 874 0
-37 -864 0
-38 875 0
-865 875 0
-38 -865 876 0
-866 876 0
-38 -866 877 0
-867 877 0
-38 -867 878 0
-868 878 0
-38 -868 879 0
-869 879 0
-38 -869 880 0
-870 880 0
-38 -870 881 0
-871 881 0
-38 -871 882 0
-872 882 0
-38 -872 883 0
-873 883 0
-38 -873 884 0
-874 884 0
-38 -874 0
-39 885 0
-875 885 0
-39 -875 886 0
-876 886 0
-39 -876 887 0
-877 887 0
-39 -877 888 0
-878 888 0
-39 -878 889 0
-879 889 0
-39 -879 890 0
-880 890 0
-39 -880 891 0
-881 891 0
-39 -881 892 0
-882 892 0
-39 -882 893 0
-883 893 0
-39 -883 894 0
-884 894 0
-39 -884 0
-40 895 0
-885 895 0
-40 -885 896 0
-886 896 0
-40 -886 897 0
-887 897 0
-40 -887 898 0
-888 898 0
-40 -888 899 0
-889 899 0
-40 -889 900 0
-890 900 0
-40 -890 901 0
-891 901 0
-40 -891 902 0
-892 902 0
-40 -892 903 0
-893 903 0
-40 -893 904 0
-894 904 0
-40 -894 0
-41 905 0
-895 905 0
-41 -895 906 0
-896 906 0
-41 -896 907 0
-897 907 0
-41 -897 908 0
-898 908 0
-41 -898 909 0
-899 909 0
-41 -899 910 0
-900 910 0
-41 -900 911 0
-901 911 0
-41 -901 912 0
-902 912 0
-41 -902 913 0
-903 913 0
-41 -903 914 0
-904 914 0
-41 -904 0
-42 915 0
-905 915 0
-42 -905 916 0
-906 916 0
-42 -906 917 0
-907 917 0
-42 -907 918 0
-908 918 0
-42 -908 919 0
-909 919 0
-42 -909 920 0
-910 920 0
-42 -910 921 0
-911 921 0
-42 -911 922 0
-912 922 0
-42 -912 923 0
-913 923 0
-42 -913 924 0
-914 924 0
-42 -914 0
-43 925 0
-915 925 0
-43 -915 926 0
-916 926 0
-43 -916 927 0
-917 927 0
-43 -917 928 0
-918 928 0
-43 -918 929 0
-919 929 0
-43 -919 930 0
-920 930 0
-43 -920 931 0
-921 931 0
-43 -921 932 0
-922 932 0
-43 -922 933 0
-923 933 0
-43 -923 934 0
-924 934 0
-43 -924 0
-44 935 0
-925 935 0
-44 -925 936 0
-926 936 0
-44 -926 937 0
-927 937 0
-44 -927 938 0
-928 938 0
-44 -928 939 0
-929 939 0
-44 -929 940 0
-930 940 0
-44 -930 941 0
-931 941 0
-44 -931 942 0
-932 942 0
-44 -932 943 0
-933 943 0
-44 -933 944 0
-934 944 0
-44 -934 0
-45 945 0
-935 945 0
-45 -935 946 0
-936 946 0
-45 -936 947 0
-937 947 0
-45 -937 948 0
-938 948 0
-45 -938 949 0
-939 949 0
-45 -939 950 0
-940 950 0
-45 -940 951 0
-941 951 0
-45 -941 952 0
-942 952 0
-45 -942 953 0
-943 953 0
-45 -943 954 0
-944 954 0
-45 -944 0
-46 955 0
-945 955 0
-46 -945 956 0
-946 956 0
-46 -946 957 0
-947 957 0
-46 -947 958 0
-948 958 0
-46 -948 959 0
-949 959 0
-46 -949 960 0
-950 960 0
-46 -950 961 0
-951 961 0
-46 -951 962 0
-952 962 0
-46 -952 963 0
-953 963 0
-46 -953 964 0
-954 964 0
-46 -954 0
-47 965 0
-955 965 0
-47 -955 966 0
-956 966 0
-47 -956 967 0
-957 967 0
-47 -957 968 0
-958 968 0
-47 -958 969 0
-959 969 0
-47 -959 970 0
-960 970 0
-47 -960 971 0
-961 971 0
-47 -961 972 0
-962 972 0
-47 -962 973 0
-963 973 0
-47 -963 974 0
-964 974 0
-47 -964 0
-48 975 0
-965 975 0
-48 -965 976 0
-966 976 0
-48 -966 977 0
-967 977 0
-48 -967 978 0
-968 978 0
-48 -968 979 0
-969 979 0
-48 -969 980 0
-970 980 0
-48 -970 981 0
-971 981 0
-48 -971 982 0
-972 982 0
-48 -972 983 0
-973 983 0
-48 -973 984 0
-974 984 0
-48 -974 0
-49 985 0
-975 985 0
-49 -975 986 0
-976 986 0
-49 -976 987 0
-977 987 0
-49 -977 988 0
-978 988 0
-49 -978 989 0
-979 989 0
-49 -979 990 0
-980 990 0
-49 -980 991 0
-981 991 0
-49 -981 992 0
-982 992 0
-49 -982 993 0
-983 993 0
-49 -983 994 0
-984 994 0
-49 -984 0
-50 995 0
-985 995 0
-50 -985 996 0
-986 996 0
-50 -986 997 0
-987 997 0
-50 -987 998 0
-988 998 0
-50 -988 999 0
-989 999 0
-50 -989 1000 0
-990 1000 0
-50 -990 1001 0
-991 1001 0
-50 -991 1002 0
-992 1002 0
-50 -992 1003 0
-993 1003 0
-50 -993 1004 0
-994 1004 0
-50 -994 0
-51 1005 0
-995 1005 0
-51 -995 1006 0
-996 1006 0
-51 -996 1007 0
-997 1007 0
-51 -997 1008 0
-998 1008 0
-51 -998 1009 0
-999 1009 0
-51 -999 1010 0
-1000 1010 0
-51 -1000 1011 0
-1001 1011 0
-51 -1001 1012 0
-1002 1012 0
-51 -1002 1013 0
-1003 1013 0
-51 -1003 1014 0
-1004 1014 0
-51 -1004 0
-52 1015 0
-1005 1015 0
-52 -1005 1016 0
-1006 1016 0
-52 -1006 1017 0
-1007 1017 0
-52 -1007 1018 0
-1008 1018 0
-52 -1008 1019 0
-1009 1019 0
-52 -1009 1020 0
-1010 1020 0
-52 -1010 1021 0
-1011 1021 0
-52 -1011 1022 0
-1012 1022 0
-52 -1012 1023 0
-1013 1023 0
-52 -1013 1024 0
-1014 1024 0
-52 -1014 0
-53 1025 0
-1015 1025 0
-53 -1015 1026 0
-1016 1026 0
-53 -1016 1027 0
-1017 1027 0
-53 -1017 1028 0
-1018 1028 0
-53 -1018 1029 0
-1019 1029 0
-53 -1019 1030 0
-1020 1030 0
-53 -1020 1031 0
-1021 1031 0
-53 -1021 1032 0
-1022 1032 0
-53 -1022 1033 0
-1023 1033 0
-53 -1023 1034 0
-1024 1034 0
-53 -1024 0
-54 1035 0
-1025 1035 0
-54 -1025 1036 0
-1026 1036 0
-54 -1026 1037 0
-1027 1037 0
-54 -1027 1038 0
-1028 1038 0
-54 -1028 1039 0
-1029 1039 0
-54 -1029 1040 0
-1030 1040 0
-54 -1030 1041 0
-1031 1041 0
-54 -1031 1042 0
-1032 1042 0
-54 -1032 1043 0
-1033 1043 0
-54 -1033 1044 0
-1034 1044 0
-54 -1034 0
-55 1045 0
-1035 1045 0
-55 -1035 1046 0
-1036 1046 0
-55 -1036 1047 0
-1037 1047 0
-55 -1037 1048 0
-1038 1048 0
-55 -1038 1049 0
-1039 1049 0
-55 -1039 1050 0
-1040 1050 0
-55 -1040 1051 0
-1041 1051 0
-55 -1041 1052 0
-1042 1052 0
-55 -1042 1053 0
-1043 1053 0
-55 -1043 1054 0
-1044 1054 0
-55 -1044 0
-56 1055 0
-1045 1055 0
-56 -1045 1056 0
-1046 1056 0
-56 -1046 1057 0
-1047 1057 0
-56 -1047 1058 0
-1048 1058 0
-56 -1048 1059 0
-1049 1059 0
-56 -1049 1060 0
-1050 1060 0
-56 -1050 1061 0
-1051 1061 0
-56 -1051 1062 0
-1052 1062 0
-56 -1052 1063 0
-1053 1063 0
-56 -1053 1064 0
-1054 1064 0
-56 -1054 0
-57 1065 0
-1055 1065 0
-57 -1055 1066 0
-1056 1066 0
-57 -1056 1067 0
-1057 1067 0
-57 -1057 1068 0
-1058 1068 0
-57 -1058 1069 0
-1059 1069 0
-57 -1059 1070 0
-1060 1070 0
-57 -1060 1071 0
-1061 1071 0
-57 -1061 1072 0
-1062 1072 0
-57 -1062 1073 0
-1063 1073 0
-57 -1063 1074 0
-1064 1074 0
-57 -1064 0
-58 1075 0
-1065 1075 0
-58 -1065 1076 0
-1066 1076 0
-58 -1066 1077 0
-1067 1077 0
-58 -1067 1078 0
-1068 1078 0
-58 -1068 1079 0
-1069 1079 0
-58 -1069 1080 0
-1070 1080 0
-58 -1070 1081 0
-1071 1081 0
-58 -1071 1082 0
-1072 1082 0
-58 -1072 1083 0
-1073 1083 0
-58 -1073 1084 0
-1074 1084 0
-58 -1074 0
-59 1085 0
-1075 1085 0
-59 -1075 1086 0
-1076 1086 0
-59 -1076 1087 0
-1077 1087 0
-59 -1077 1088 0
-1078 1088 0
-59 -1078 1089 0
-1079 1089 0
-59 -1079 1090 0
-1080 1090 0
-59 -1080 1091 0
-1081 1091 0
-59 -1081 1092 0
-1082 1092 0
-59 -1082 1093 0
-1083 1093 0
-59 -1083 1094 0
-1084 1094 0
-59 -1084 0
-60 1095 0
-1085 1095 0
-60 -1085 1096 0
-1086 1096 0
-60 -1086 1097 0
-1087 1097 0
-60 -1087 1098 0
-1088 1098 0
-60 -1088 1099 0
-1089 1099 0
-60 -1089 1100 0
-1090 1100 0
-60 -1090 1101 0
-1091 1101 0
-60 -1091 1102 0
-1092 1102 0
-60 -1092 1103 0
-1093 1103 0
-60 -1093 1104 0
-1094 1104 0
-60 -1094 0
-61 1105 0
-1095 1105 0
-61 -1095 1106 0
-1096 1106 0
-61 -1096 1107 0
-1097 1107 0
-61 -1097 1108 0
-1098 1108 0
-61 -1098 1109 0
-1099 1109 0
-61 -1099 1110 0
-1100 1110 0
-61 -1100 1111 0
-1101 1111 0
-61 -1101 1112 0
-1102 1112 0
-61 -1102 1113 0
-1103 1113 0
-61 -1103 1114 0
-1104 1114 0
-61 -1104 0
-62 1115 0
-1105 1115 0
-62 -1105 1116 0
-1106 1116 0
-62 -1106 1117 0
-1107 1117 0
-62 -1107 1118 0
-1108 1118 0
-62 -1108 1119 0
-1109 1119 0
-62 -1109 1120 0
-1110 1120 0
-62 -1110 1121 0
-1111 1121 0
-62 -1111 1122 0
-1112 1122 0
-62 -1112 1123 0
-1113 1123 0
-62 -1113 1124 0
-1114 1124 0
-62 -1114 0
-63 1125 0
-1115 1125 0
-63 -1115 1126 0
-1116 1126 0
-63 -1116 1127 0
-1117 1127 0
-63 -1117 1128 0
-1118 1128 0
-63 -1118 1129 0
-1119 1129 0
-63 -1119 1130 0
-1120 1130 0
-63 -1120 1131 0
-1121 1131 0
-63 -1121 1132 0
-1122 1132 0
-63 -1122 1133 0
-1123 1133 0
-63 -1123 1134 0
-1124 1134 0
-63 -1124 0
-64 1135 0
-1125 1135 0
-64 -1125 1136 0
-1126 1136 0
-64 -1126 1137 0
-1127 1137 0
-64 -1127 1138 0
-1128 1138 0
-64 -1128 1139 0
-1129 1139 0
-64 -1129 1140 0
-1130 1140 0
-64 -1130 1141 0
-1131 1141 0
-64 -1131 1142 0
-1132 1142 0
-64 -1132 1143 0
-1133 1143 0
-64 -1133 1144 0
-1134 1144 0
-64 -1134 0
-65 1145 0
-1135 1145 0
-65 -1135 1146 0
-1136 1146 0
-65 -1136 1147 0
-1137 1147 0
-65 -1137 1148 0
-1138 1148 0
-65 -1138 1149 0
-1139 1149 0
-65 -1139 1150 0
-1140 1150 0
-65 -1140 1151 0
-1141 1151 0
-65 -1141 1152 0
-1142 1152 0
-65 -1142 1153 0
-1143 1153 0
-65 -1143 1154 0
-1144 1154 0
-65 -1144 0
-66 1155 0
-1145 1155 0
-66 -1145 1156 0
-1146 1156 0
-66 -1146 1157 0
-1147 1157 0
-66 -1147 1158 0
-1148 1158 0
-66 -1148 1159 0
-1149 1159 0
-66 -1149 1160 0
-1150 1160 0
-66 -1150 1161 0
-1151 1161 0
-66 -1151 1162 0
-1152 1162 0
-66 -1152 1163 0
-1153 1163 0
-66 -1153 1164 0
-1154 1164 0
-66 -1154 0
-67 1165 0
-1155 1165 0
-67 -1155 1166 0
-1156 1166 0
-67 -1156 1167 0
-1157 1167 0
-67 -1157 1168 0
-1158 1168 0
-67 -1158 1169 0
-1159 1169 0
-67 -1159 1170 0
-1160 1170 0
-67 -1160 1171 0
-1161 1171 0
-67 -1161 1172 0
-1162 1172 0
-67 -1162 1173 0
-1163 1173 0
-67 -1163 1174 0
-1164 1174 0
-67 -1164 0
-68 1175 0
-1165 1175 0
-68 -1165 1176 0
-1166 1176 0
-68 -1166 1177 0
-1167 1177 0
-68 -1167 1178 0
-1168 1178 0
-68 -1168 1179 0
-1169 1179 0
-68 -1169 1180 0
-1170 1180 0
-68 -1170 1181 0
-1171 1181 0
-68 -1171 1182 0
-1172 1182 0
-68 -1172 1183 0
-1173 1183 0
-68 -1173 1184 0
-1174 1184 0
-68 -1174 0
-69 1185 0
-1175 1185 0
-69 -1175 1186 0
-1176 1186 0
-69 -1176 1187 0
-1177 1187 0
-69 -1177 1188 0
-1178 1188 0
-69 -1178 1189 0
-1179 1189 0
-69 -1179 1190 0
-1180 1190 0
-69 -1180 1191 0
-1181 1191 0
-69 -1181 1192 0
-1182 1192 0
-69 -1182 1193 0
-1183 1193 0
-69 -1183 1194 0
-1184 1194 0
-69 -1184 0
-70 1195 0
-1185 1195 0
-70 -1185 1196 0
-1186 1196 0
-70 -1186 1197 0
-1187 1197 0
-70 -1187 1198 0
-1188 1198 0
-70 -1188 1199 0
-1189 1199 0
-70 -1189 1200 0
-1190 1200 0
-70 -1190 1201 0
-1191 1201 0
-70 -1191 1202 0
-1192 1202 0
-70 -1192 1203 0
-1193 1203 0
-70 -1193 1204 0
-1194 1204 0
-70 -1194 0
-71 1205 0
-1195 1205 0
-71 -1195 1206 0
-1196 1206 0
-71 -1196 1207 0
-1197 1207 0
-71 -1197 1208 0
-1198 1208 0
-71 -1198 1209 0
-1199 1209 0
-71 -1199 1210 0
-1200 1210 0
-71 -1200 1211 0
-1201 1211 0
-71 -1201 1212 0
-1202 1212 0
-71 -1202 1213 0
-1203 1213 0
-71 -1203 1214 0
-1204 1214 0
-71 -1204 0
-72 1215 0
-1205 1215 0
-72 -1205 1216 0
-1206 1216 0
-72 -1206 1217 0
-1207 1217 0
-72 -1207 1218 0
-1208 1218 0
-72 -1208 1219 0
-1209 1219 0
-72 -1209 1220 0
-1210 1220 0
-72 -1210 1221 0
-1211 1221 0
-72 -1211 1222 0
-1212 1222 0
-72 -1212 1223 0
-1213 1223 0
-72 -1213 1224 0
-1214 1224 0
-72 -1214 0
-73 1225 0
-1215 1225 0
-73 -1215 1226 0
-1216 1226 0
-73 -1216 1227 0
-1217 1227 0
-73 -1217 1228 0
-1218 1228 0
-73 -1218 1229 0
-1219 1229 0
-73 -1219 1230 0
-1220 1230 0
-73 -1220 1231 0
-1221 1231 0
-73 -1221 1232 0
-1222 1232 0
-73 -1222 1233 0
-1223 1233 0
-73 -1223 1234 0
-1224 1234 0
-73 -1224 0
-74 1235 0
-1225 1235 0
-74 -1225 1236 0
-1226 1236 0
-74 -1226 1237 0
-1227 1237 0
-74 -1227 1238 0
-1228 1238 0
-74 -1228 1239 0
-1229 1239 0
-74 -1229 1240 0
-1230 1240 0
-74 -1230 1241 0
-1231 1241 0
-74 -1231 1242 0
-1232 1242 0
-74 -1232 1243 0
-1233 1243 0
-74 -1233 1244 0
-1234 1244 0
-74 -1234 0
-75 1245 0
-1235 1245 0
-75 -1235 1246 0
-1236 1246 0
-75 -1236 1247 0
-1237 1247 0
-75 -1237 1248 0
-1238 1248 0
-75 -1238 1249 0
-1239 1249 0
-75 -1239 1250 0
-1240 1250 0
-75 -1240 1251 0
-1241 1251 0
-75 -1241 1252 0
-1242 1252 0
-75 -1242 1253 0
-1243 1253 0
-75 -1243 1254 0
-1244 1254 0
-75 -1244 0
-76 1255 0
-1245 1255 0
-76 -1245 1256 0
-1246 1256 0
-76 -1246 1257 0
-1247 1257 0
-76 -1247 1258 0
-1248 1258 0
-76 -1248 1259 0
-1249 1259 0
-76 -1249 1260 0
-1250 1260 0
-76 -1250 1261 0
-1251 1261 0
-76 -1251 1262 0
-1252 1262 0
-76 -1252 1263 0
-1253 1263 0
-76 -1253 1264 0
-1254 1264 0
-76 -1254 0
-77 1265 0
-1255 1265 0
-77 -1255 1266 0
-1256 1266 0
-77 -1256 1267 0
-1257 1267 0
-77 -1257 1268 0
-1258 1268 0
-77 -1258 1269 0
-1259 1269 0
-77 -1259 1270 0
-1260 1270 0
-77 -1260 1271 0
-1261 1271 0
-77 -1261 1272 0
-1262 1272 0
-77 -1262 1273 0
-1263 1273 0
-77 -1263 1274 0
-1264 1274 0
-77 -1264 0
-78 1275 0
-1265 1275 0
-78 -1265 1276 0
-1266 1276 0
-78 -1266 1277 0
-1267 1277 0
-78 -1267 1278 0
-1268 1278 0
-78 -1268 1279 0
-1269 1279 0
-78 -1269 1280 0
-1270 1280 0
-78 -1270 1281 0
-1271 1281 0
-78 -1271 1282 0
-1272 1282 0
-78 -1272 1283 0
-1273 1283 0
-78 -1273 1284 0
-1274 1284 0
-78 -1274 0
-79 1285 0
-1275 1285 0
-79 -1275 1286 0
-1276 1286 0
-79 -1276 1287 0
-1277 1287 0
-79 -1277 1288 0
-1278 1288 0
-79 -1278 1289 0
-1279 1289 0
-79 -1279 1290 0
-1280 1290 0
-79 -1280 1291 0
-1281 1291 0
-79 -1281 1292 0
-1282 1292 0
-79 -1282 1293 0
-1283 1293 0
-79 -1283 1294 0
-1284 1294 0
-79 -1284 0
-80 1295 0
-1285 1295 0
-80 -1285 1296 0
-1286 1296 0
-80 -1286 1297 0
-1287 1297 0
-80 -1287 1298 0
-1288 1298 0
-80 -1288 1299 0
-1289 1299 0
-80 -1289 1300 0
-1290 1300 0
-80 -1290 1301 0
-1291 1301 0
-80 -1291 1302 0
-1292 1302 0
-80 -1292 1303 0
-1293 1303 0
-80 -1293 1304 0
-1294 1304 0
-80 -1294 0
-81 1305 0
-1295 1305 0
-81 -1295 1306 0
-1296 1306 0
-81 -1296 1307 0
-1297 1307 0
-81 -1297 1308 0
-1298 1308 0
-81 -1298 1309 0
-1299 1309 0
-81 -1299 1310 0
-1300 1310 0
-81 -1300 1311 0
-1301 1311 0
-81 -1301 1312 0
-1302 1312 0
-81 -1302 1313 0
-1303 1313 0
-81 -1303 1314 0
-1304 1314 0
-81 -1304 0
-82 1315 0
-1305 1315 0
-82 -1305 1316 0
-1306 1316 0
-82 -1306 1317 0
-1307 1317 0
-82 -1307 1318 0
-1308 1318 0
-82 -1308 1319 0
-1309 1319 0
-82 -1309 1320 0
-1310 1320 0
-82 -1310 1321 0
-1311 1321 0
-82 -1311 1322 0
-1312 1322 0
-82 -1312 1323 0
-1313 1323 0
-82 -1313 1324 0
-1314 1324 0
-82 -1314 0
-83 1325 0
-1315 1325 0
-83 -1315 1326 0
-1316 1326 0
-83 -1316 1327 0
-1317 1327 0
-83 -1317 1328 0
-1318 1328 0
-83 -1318 1329 0
-1319 1329 0
-83 -1319 1330 0
-1320 1330 0
-83 -1320 1331 0
-1321 1331 0
-83 -1321 1332 0
-1322 1332 0
-83 -1322 1333 0
-1323 1333 0
-83 -1323 1334 0
-1324 1334 0
-83 -1324 0
-84 1335 0
-1325 1335 0
-84 -1325 1336 0
-1326 1336 0
-84 -1326 1337 0
-1327 1337 0
-84 -1327 1338 0
-1328 1338 0
-84 -1328 1339 0
-1329 1339 0
-84 -1329 1340 0
-1330 1340 0
-84 -1330 1341 0
-1331 1341 0
-84 -1331 1342 0
-1332 1342 0
-84 -1332 1343 0
-1333 1343 0
-84 -1333 1344 0
-1334 1344 0
-84 -1334 0
-85 1345 0
-1335 1345 0
-85 -1335 1346 0
-1336 1346 0
-85 -1336 1347 0
-1337 1347 0
-85 -1337 1348 0
-1338 1348 0
-85 -1338 1349 0
-1339 1349 0
-85 -1339 1350 0
-1340 1350 0
-85 -1340 1351 0
-1341 1351 0
-85 -1341 1352 0
-1342 1352 0
-85 -1342 1353 0
-1343 1353 0
-85 -1343 1354 0
-1344 1354 0
-85 -1344 0
-86 1355 0
-1345 1355 0
-86 -1345 1356 0
-1346 1356 0
-86 -1346 1357 0
-1347 1357 0
-86 -1347 1358 0
-1348 1358 0
-86 -1348 1359 0
-1349 1359 0
-86 -1349 1360 0
-1350 1360 0
-86 -1350 1361 0
-1351 1361 0
-86 -1351 1362 0
-1352 1362 0
-86 -1352 1363 0
-1353 1363 0
-86 -1353 1364 0
-1354 1364 0
-86 -1354 0
-87 1365 0
-1355 1365 0
-87 -1355 1366 0
-1356 1366 0
-87 -1356 1367 0
-1357 1367 0
-87 -1357 1368 0
-1358 1368 0
-87 -1358 1369 0
-1359 1369 0
-87 -1359 1370 0
-1360 1370 0
-87 -1360 1371 0
-1361 1371 0
-87 -1361 1372 0
-1362 1372 0
-87 -1362 1373 0
-1363 1373 0
-87 -1363 1374 0
-1364 1374 0
-87 -1364 0
-88 1375 0
-1365 1375 0
-88 -1365 1376 0
-1366 1376 0
-88 -1366 1377 0
-1367 1377 0
-88 -1367 1378 0
-1368 1378 0
-88 -1368 1379 0
-1369 1379 0
-88 -1369 1380 0
-1370 1380 0
-88 -1370 1381 0
-1371 1381 0
-88 -1371 1382 0
-1372 1382 0
-88 -1372 1383 0
-1373 1383 0
-88 -1373 1384 0
-1374 1384 0
-88 -1374 0
-89 1385 0
-1375 1385 0
-89 -1375 1386 0
-1376 1386 0
-89 -1376 1387 0
-1377 1387 0
-89 -1377 1388 0
-1378 1388 0
-89 -1378 1389 0
-1379 1389 0
-89 -1379 1390 0
-1380 1390 0
-89 -1380 1391 0
-1381 1391 0
-89 -1381 1392 0
-1382 1392 0
-89 -1382 1393 0
-1383 1393 0
-89 -1383 1394 0
-1384 1394 0
-89 -1384 0
-90 1395 0
-1385 1395 0
-90 -1385 1396 0
-1386 1396 0
-90 -1386 1397 0
-1387 1397 0
-90 -1387 1398 0
-1388 1398 0
-90 -1388 1399 0
-1389 1399 0
-90 -1389 1400 0
-1390 1400 0
-90 -1390 1401 0
-1391 1401 0
-90 -1391 1402 0
-1392 1402 0
-90 -1392 1403 0
-1393 1403 0
-90 -1393 1404 0
-1394 1404 0
-90 -1394 0
-91 1405 0
-1395 1405 0
-91 -1395 1406 0
-1396 1406 0
-91 -1396 1407 0
-1397 1407 0
-91 -1397 1408 0
-1398 1408 0
-91 -1398 1409 0
-1399 1409 0
-91 -1399 1410 0
-1400 1410 0
-91 -1400 1411 0
-1401 1411 0
-91 -1401 1412 0
-1402 1412 0
-91 -1402 1413 0
-1403 1413 0
-91 -1403 1414 0
-1404 1414 0
-91 -1404 0
-92 1415 0
-1405 1415 0
-92 -1405 1416 0
-1406 1416 0
-92 -1406 1417 0
-1407 1417 0
-92 -1407 1418 0
-1408 1418 0
-92 -1408 1419 0
-1409 1419 0
-92 -1409 1420 0
-1410 1420 0
-92 -1410 1421 0
-1411 1421 0
-92 -1411 1422 0
-1412 1422 0
-92 -1412 1423 0
-1413 1423 0
-92 -1413 1424 0
-1414 1424 0
-92 -1414 0
-93 1425 0
-1415 1425 0
-93 -1415 1426 0
-1416 1426 0
-93 -1416 1427 0
-1417 1427 0
-93 -1417 1428 0
-1418 1428 0
-93 -1418 1429 0
-1419 1429 0
-93 -1419 1430 0
-1420 1430 0
-93 -1420 1431 0
-1421 1431 0
-93 -1421 1432 0
-1422 1432 0
-93 -1422 1433 0
-1423 1433 0
-93 -1423 1434 0
-1424 1434 0
-93 -1424 0
-94 1435 0
-1425 1435 0
-94 -1425 1436 0
-1426 1436 0
-94 -1426 1437 0
-1427 1437 0
-94 -1427 1438 0
-1428 1438 0
-94 -1428 1439 0
-1429 1439 0
-94 -1429 1440 0
-1430 1440 0
-94 -1430 1441 0
-1431 1441 0
-94 -1431 1442 0
-1432 1442 0
-94 -1432 1443 0
-1433 1443 0
-94 -1433 1444 0
-1434 1444 0
-94 -1434 0
-95 1445 0
-1435 1445 0
-95 -1435 1446 0
-1436 1446 0
-95 -1436 1447 0
-1437 1447 0
-95 -1437 1448 0
-1438 1448 0
-95 -1438 1449 0
-1439 1449 0
-95 -1439 1450 0
-1440 1450 0
-95 -1440 1451 0
-1441 1451 0
-95 -1441 1452 0
-1442 1452 0
-95 -1442 1453 0
-1443 1453 0
-95 -1443 1454 0
-1444 1454 0
-95 -1444 0
-96 1455 0
-1445 1455 0
-96 -1445 1456 0
-1446 1456 0
-96 -1446 1457 0
-1447 1457 0
-96 -1447 1458 0
-1448 1458 0
-96 -1448 1459 0
-1449 1459 0
-96 -1449 1460 0
-1450 1460 0
-96 -1450 1461 0
-1451 1461 0
-96 -1451 1462 0
-1452 1462 0
-96 -1452 1463 0
-1453 1463 0
-96 -1453 1464 0
-1454 1464 0
-96 -1454 0
-97 1465 0
-1455 1465 0
-97 -1455 1466 0
-1456 1466 0
-97 -1456 1467 0
-1457 1467 0
-97 -1457 1468 0
-1458 1468 0
-97 -1458 1469 0
-1459 1469 0
-97 -1459 1470 0
-1460 1470 0
-97 -1460 1471 0
-1461 1471 0
-97 -1461 1472 0
-1462 1472 0
-97 -1462 1473 0
-1463 1473 0
-97 -1463 1474 0
-1464 1474 0
-97 -1464 0
-98 1475 0
-1465 1475 0
-98 -1465 1476 0
-1466 1476 0
-98 -1466 1477 0
-1467 1477 0
-98 -1467 1478 0
-1468 1478 0
-98 -1468 1479 0
-1469 1479 0
-98 -1469 1480 0
-1470 1480 0
-98 -1470 1481 0
-1471 1481 0
-98 -1471 1482 0
-1472 1482 0
-98 -1472 1483 0
-1473 1483 0
-98 -1473 1484 0
-1474 1484 0
-98 -1474 0
-99 1485 0
-1475 1485 0
-99 -1475 1486 0
-1476 1486 0
-99 -1476 1487 0
-1477 1487 0
-99 -1477 1488 0
-1478 1488 0
-99 -1478 1489 0
-1479 1489 0
-99 -1479 1490 0
-1480 1490 0
-99 -1480 1491 0
-1481 1491 0
-99 -1481 1492 0
-1482 1492 0
-99 -1482 1493 0
-1483 1493 0
-99 -1483 1494 0
-1484 1494 0
-99 -1484 0
-100 1495 0
-1485 1495 0
-100 -1485 1496 0
-1486 1496 0
-100 -1486 1497 0
-1487 1497 0
-100 -1487 1498 0
-1488 1498 0
-100 -1488 1499 0
-1489 1499 0
-100 -1489 1500 0
-1490 1500 0
-100 -1490 1501 0
-1491 1501 0
-100 -1491 1502 0
-1492 1502 0
-100 -1492 1503 0
-1493 1503 0
-100 -1493 1504 0
-1494 1504 0
-100 -1494 0
-101 1505 0
-1495 1505 0
-101 -1495 1506 0
-1496 1506 0
-101 -1496 1507 0
-1497 1507 0
-101 -1497 1508 0
-1498 1508 0
-101 -1498 1509 0
-1499 1509 0
-101 -1499 1510 0
-1500 1510 0
-101 -1500 1511 0
-1501 1511 0
-101 -1501 1512 0
-1502 1512 0
-101 -1502 1513 0
-1503 1513 0
-101 -1503 1514 0
-1504 1514 0
-101 -1504 0
-102 1515 0
-1505 1515 0
-102 -1505 1516 0
-1506 1516 0
-102 -1506 1517 0
-1507 1517 0
-102 -1507 1518 0
-1508 1518 0
-102 -1508 1519 0
-1509 1519 0
-102 -1509 1520 0
-1510 1520 0
-102 -1510 1521 0
-1511 1521 0
-102 -1511 1522 0
-1512 1522 0
-102 -1512 1523 0
-1513 1523 0
-102 -1513 1524 0
-1514 1524 0
-102 -1514 0
-103 1525 0
-1515 1525 0
-103 -1515 1526 0
-1516 1526 0
-103 -1516 1527 0
-1517 1527 0
-103 -1517 1528 0
-1518 1528 0
-103 -1518 1529 0
-1519 1529 0
-103 -1519 1530 0
-1520 1530 0
-103 -1520 1531 0
-1521 1531 0
-103 -1521 1532 0
-1522 1532 0
-103 -1522 1533 0
-1523 1533 0
-103 -1523 1534 0
-1524 1534 0
-103 -1524 0
-104 1535 0
-1525 1535 0
-104 -1525 1536 0
-1526 1536 0
-104 -1526 1537 0
-1527 1537 0
-104 -1527 1538 0
-1528 1538 0
-104 -1528 1539 0
-1529 1539 0
-104 -1529 1540 0
-1530 1540 0
-104 -1530 1541 0
-1531 1541 0
-104 -1531 1542 0
-1532 1542 0
-104 -1532 1543 0
-1533 1543 0
-104 -1533 1544 0
-1534 1544 0
-104 -1534 0
-105 1545 0
-1535 1545 0
-105 -1535 1546 0
-1536 1546 0
-105 -1536 1547 0
-1537 1547 0
-105 -1537 1548 0
-1538 1548 0
-105 -1538 1549 0
-1539 1549 0
-105 -1539 1550 0
-1540 1550 0
-105 -1540 1551 0
-1541 1551 0
-105 -1541 1552 0
-1542 1552 0
-105 -1542 1553 0
-1543 1553 0
-105 -1543 1554 0
-1544 1554 0
-105 -1544 0
-106 1555 0
-1545 1555 0
-106 -1545 1556 0
-1546 1556 0
-106 -1546 1557 0
-1547 1557 0
-106 -1547 1558 0
-1548 1558 0
-106 -1548 1559 0
-1549 1559 0
-106 -1549 1560 0
-1550 1560 0
-106 -1550 1561 0
-1551 1561 0
-106 -1551 1562 0
-1552 1562 0
-106 -1552 1563 0
-1553 1563 0
-106 -1553 1564 0
-1554 1564 0
-106 -1554 0
-107 1565 0
-1555 1565 0
-107 -1555 1566 0
-1556 1566 0
-107 -1556 1567 0
-1557 1567 0
-107 -1557 1568 0
-1558 1568 0
-107 -1558 1569 0
-1559 1569 0
-107 -1559 1570 0
-1560 1570 0
-107 -1560 1571 0
-1561 1571 0
-107 -1561 1572 0
-1562 1572 0
-107 -1562 1573 0
-1563 1573 0
-107 -1563 1574 0
-1564 1574 0
-107 -1564 0
-108 -1574 0
