p cnf 2215 5343
-145 2 3 0
-145 -2 -3 0
145 -2 3 0
145 2 -3 0
-146 145 19 0
-146 -145 -19 0
146 -145 19 0
146 145 -19 0
-147 146 76 0
-147 -146 -76 0
147 -146 76 0
147 146 -76 0
-148 147 79 0
-148 -147 -79 0
148 -147 79 0
148 147 -79 0
-149 148 85 0
-149 -148 -85 0
149 -148 85 0
149 148 -85 0
-149 0
-150 3 4 0
-150 -3 -4 0
150 -3 4 0
150 3 -4 0
-151 150 20 0
-151 -150 -20 0
151 -150 20 0
151 150 -20 0
-152 151 77 0
-152 -151 -77 0
152 -151 77 0
152 151 -77 0
-153 152 80 0
-153 -152 -80 0
153 -152 80 0
153 152 -80 0
-154 153 86 0
-154 -153 -86 0
154 -153 86 0
154 153 -86 0
-154 0
-155 4 5 0
-155 -4 -5 0
155 -4 5 0
155 4 -5 0
-156 155 21 0
-156 -155 -21 0
156 -155 21 0
156 155 -21 0
-157 156 78 0
-157 -156 -78 0
157 -156 78 0
157 156 -78 0
-158 157 81 0
-158 -157 -81 0
158 -157 81 0
158 157 -81 0
-159 158 87 0
-159 -158 -87 0
159 -158 87 0
159 158 -87 0
-159 0
-160 5 6 0
-160 -5 -6 0
160 -5 6 0
160 5 -6 0
-161 160 22 0
-161 -160 -22 0
161 -160 22 0
161 160 -22 0
-162 161 73 0
-162 -161 -73 0
162 -161 73 0
162 161 -73 0
-163 162 82 0
-163 -162 -82 0
163 -162 82 0
163 162 -82 0
-164 163 88 0
-164 -163 -88 0
164 -163 88 0
164 163 -88 0
-164 0
-165 1 6 0
-165 -1 -6 0
165 -1 6 0
165 1 -6 0
-166 165 23 0
-166 -165 -23 0
166 -165 23 0
166 165 -23 0
-167 166 74 0
-167 -166 -74 0
167 -166 74 0
167 166 -74 0
-168 167 83 0
-168 -167 -83 0
168 -167 83 0
168 167 -83 0
-169 168 89 0
-169 -168 -89 0
169 -168 89 0
169 168 -89 0
-169 0
-170 1 2 0
-170 -1 -2 0
170 -1 2 0
170 1 -2 0
-171 170 24 0
-171 -170 -24 0
171 -170 24 0
171 170 -24 0
-172 171 75 0
-172 -171 -75 0
172 -171 75 0
172 171 -75 0
-173 172 84 0
-173 -172 -84 0
173 -172 84 0
173 172 -84 0
-174 173 90 0
-174 -173 -90 0
174 -173 90 0
174 173 -90 0
-174 0
-175 8 9 0
-175 -8 -9 0
175 -8 9 0
175 8 -9 0
-176 175 25 0
-176 -175 -25 0
176 -175 25 0
176 175 -25 0
-177 176 82 0
-177 -176 -82 0
177 -176 82 0
177 176 -82 0
-178 177 85 0
-178 -177 -85 0
178 -177 85 0
178 177 -85 0
-179 178 91 0
-179 -178 -91 0
179 -178 91 0
179 178 -91 0
-179 0
-180 9 10 0
-180 -9 -10 0
180 -9 10 0
180 9 -10 0
-181 180 26 0
-181 -180 -26 0
181 -180 26 0
181 180 -26 0
-182 181 83 0
-182 -181 -83 0
182 -181 83 0
182 181 -83 0
-183 182 86 0
-183 -182 -86 0
183 -182 86 0
183 182 -86 0
-184 183 92 0
-184 -183 -92 0
184 -183 92 0
184 183 -92 0
-184 0
-185 10 11 0
-185 -10 -11 0
185 -10 11 0
185 10 -11 0
-186 185 27 0
-186 -185 -27 0
186 -185 27 0
186 185 -27 0
-187 186 84 0
-187 -186 -84 0
187 -186 84 0
187 186 -84 0
-188 187 87 0
-188 -187 -87 0
188 -187 87 0
188 187 -87 0
-189 188 93 0
-189 -188 -93 0
189 -188 93 0
189 188 -93 0
-189 0
-190 11 12 0
-190 -11 -12 0
190 -11 12 0
190 11 -12 0
-191 190 28 0
-191 -190 -28 0
191 -190 28 0
191 190 -28 0
-192 191 79 0
-192 -191 -79 0
192 -191 79 0
192 191 -79 0
-193 192 88 0
-193 -192 -88 0
193 -192 88 0
193 192 -88 0
-194 193 94 0
-194 -193 -94 0
194 -193 94 0
194 193 -94 0
-194 0
-195 7 12 0
-195 -7 -12 0
195 -7 12 0
195 7 -12 0
-196 195 29 0
-196 -195 -29 0
196 -195 29 0
196 195 -29 0
-197 196 80 0
-197 -196 -80 0
197 -196 80 0
197 196 -80 0
-198 197 89 0
-198 -197 -89 0
198 -197 89 0
198 197 -89 0
-199 198 95 0
-199 -198 -95 0
199 -198 95 0
199 198 -95 0
-199 0
-200 7 8 0
-200 -7 -8 0
200 -7 8 0
200 7 -8 0
-201 200 30 0
-201 -200 -30 0
201 -200 30 0
201 200 -30 0
-202 201 81 0
-202 -201 -81 0
202 -201 81 0
202 201 -81 0
-203 202 90 0
-203 -202 -90 0
203 -202 90 0
203 202 -90 0
-204 203 96 0
-204 -203 -96 0
204 -203 96 0
204 203 -96 0
-204 0
-205 14 15 0
-205 -14 -15 0
205 -14 15 0
205 14 -15 0
-206 205 31 0
-206 -205 -31 0
206 -205 31 0
206 205 -31 0
-207 206 88 0
-207 -206 -88 0
207 -206 88 0
207 206 -88 0
-208 207 91 0
-208 -207 -91 0
208 -207 91 0
208 207 -91 0
-209 208 97 0
-209 -208 -97 0
209 -208 97 0
209 208 -97 0
-209 0
-210 15 16 0
-210 -15 -16 0
210 -15 16 0
210 15 -16 0
-211 210 32 0
-211 -210 -32 0
211 -210 32 0
211 210 -32 0
-212 211 89 0
-212 -211 -89 0
212 -211 89 0
212 211 -89 0
-213 212 92 0
-213 -212 -92 0
213 -212 92 0
213 212 -92 0
-214 213 98 0
-214 -213 -98 0
214 -213 98 0
214 213 -98 0
-214 0
-215 16 17 0
-215 -16 -17 0
215 -16 17 0
215 16 -17 0
-216 215 33 0
-216 -215 -33 0
216 -215 33 0
216 215 -33 0
-217 216 90 0
-217 -216 -90 0
217 -216 90 0
217 216 -90 0
-218 217 93 0
-218 -217 -93 0
218 -217 93 0
218 217 -93 0
-219 218 99 0
-219 -218 -99 0
219 -218 99 0
219 218 -99 0
-219 0
-220 17 18 0
-220 -17 -18 0
220 -17 18 0
220 17 -18 0
-221 220 34 0
-221 -220 -34 0
221 -220 34 0
221 220 -34 0
-222 221 85 0
-222 -221 -85 0
222 -221 85 0
222 221 -85 0
-223 222 94 0
-223 -222 -94 0
223 -222 94 0
223 222 -94 0
-224 223 100 0
-224 -223 -100 0
224 -223 100 0
224 223 -100 0
-224 0
-225 13 18 0
-225 -13 -18 0
225 -13 18 0
225 13 -18 0
-226 225 35 0
-226 -225 -35 0
226 -225 35 0
226 225 -35 0
-227 226 86 0
-227 -226 -86 0
227 -226 86 0
227 226 -86 0
-228 227 95 0
-228 -227 -95 0
228 -227 95 0
228 227 -95 0
-229 228 101 0
-229 -228 -101 0
229 -228 101 0
229 228 -101 0
-229 0
-230 13 14 0
-230 -13 -14 0
230 -13 14 0
230 13 -14 0
-231 230 36 0
-231 -230 -36 0
231 -230 36 0
231 230 -36 0
-232 231 87 0
-232 -231 -87 0
232 -231 87 0
232 231 -87 0
-233 232 96 0
-233 -232 -96 0
233 -232 96 0
233 232 -96 0
-234 233 102 0
-234 -233 -102 0
234 -233 102 0
234 233 -102 0
-234 0
-235 20 21 0
-235 -20 -21 0
235 -20 21 0
235 20 -21 0
-236 235 37 0
-236 -235 -37 0
236 -235 37 0
236 235 -37 0
-237 236 94 0
-237 -236 -94 0
237 -236 94 0
237 236 -94 0
-238 237 97 0
-238 -237 -97 0
238 -237 97 0
238 237 -97 0
-239 238 103 0
-239 -238 -103 0
239 -238 103 0
239 238 -103 0
-239 0
-240 21 22 0
-240 -21 -22 0
240 -21 22 0
240 21 -22 0
-241 240 38 0
-241 -240 -38 0
241 -240 38 0
241 240 -38 0
-242 241 95 0
-242 -241 -95 0
242 -241 95 0
242 241 -95 0
-243 242 98 0
-243 -242 -98 0
243 -242 98 0
243 242 -98 0
-244 243 104 0
-244 -243 -104 0
244 -243 104 0
244 243 -104 0
-244 0
-245 22 23 0
-245 -22 -23 0
245 -22 23 0
245 22 -23 0
-246 245 39 0
-246 -245 -39 0
246 -245 39 0
246 245 -39 0
-247 246 96 0
-247 -246 -96 0
247 -246 96 0
247 246 -96 0
-248 247 99 0
-248 -247 -99 0
248 -247 99 0
248 247 -99 0
-249 248 105 0
-249 -248 -105 0
249 -248 105 0
249 248 -105 0
-249 0
-250 23 24 0
-250 -23 -24 0
250 -23 24 0
250 23 -24 0
-251 250 40 0
-251 -250 -40 0
251 -250 40 0
251 250 -40 0
-252 251 91 0
-252 -251 -91 0
252 -251 91 0
252 251 -91 0
-253 252 100 0
-253 -252 -100 0
253 -252 100 0
253 252 -100 0
-254 253 106 0
-254 -253 -106 0
254 -253 106 0
254 253 -106 0
-254 0
-255 19 24 0
-255 -19 -24 0
255 -19 24 0
255 19 -24 0
-256 255 41 0
-256 -255 -41 0
256 -255 41 0
256 255 -41 0
-257 256 92 0
-257 -256 -92 0
257 -256 92 0
257 256 -92 0
-258 257 101 0
-258 -257 -101 0
258 -257 101 0
258 257 -101 0
-259 258 107 0
-259 -258 -107 0
259 -258 107 0
259 258 -107 0
-259 0
-260 19 20 0
-260 -19 -20 0
260 -19 20 0
260 19 -20 0
-261 260 42 0
-261 -260 -42 0
261 -260 42 0
261 260 -42 0
-262 261 93 0
-262 -261 -93 0
262 -261 93 0
262 261 -93 0
-263 262 102 0
-263 -262 -102 0
263 -262 102 0
263 262 -102 0
-264 263 108 0
-264 -263 -108 0
264 -263 108 0
264 263 -108 0
-264 0
-265 26 27 0
-265 -26 -27 0
265 -26 27 0
265 26 -27 0
-266 265 43 0
-266 -265 -43 0
266 -265 43 0
266 265 -43 0
-267 266 100 0
-267 -266 -100 0
267 -266 100 0
267 266 -100 0
-268 267 103 0
-268 -267 -103 0
268 -267 103 0
268 267 -103 0
-269 268 109 0
-269 -268 -109 0
269 -268 109 0
269 268 -109 0
-269 0
-270 27 28 0
-270 -27 -28 0
270 -27 28 0
270 27 -28 0
-271 270 44 0
-271 -270 -44 0
271 -270 44 0
271 270 -44 0
-272 271 101 0
-272 -271 -101 0
272 -271 101 0
272 271 -101 0
-273 272 104 0
-273 -272 -104 0
273 -272 104 0
273 272 -104 0
-274 273 110 0
-274 -273 -110 0
274 -273 110 0
274 273 -110 0
-274 0
-275 28 29 0
-275 -28 -29 0
275 -28 29 0
275 28 -29 0
-276 275 45 0
-276 -275 -45 0
276 -275 45 0
276 275 -45 0
-277 276 102 0
-277 -276 -102 0
277 -276 102 0
277 276 -102 0
-278 277 105 0
-278 -277 -105 0
278 -277 105 0
278 277 -105 0
-279 278 111 0
-279 -278 -111 0
279 -278 111 0
279 278 -111 0
-279 0
-280 29 30 0
-280 -29 -30 0
280 -29 30 0
280 29 -30 0
-281 280 46 0
-281 -280 -46 0
281 -280 46 0
281 280 -46 0
-282 281 97 0
-282 -281 -97 0
282 -281 97 0
282 281 -97 0
-283 282 106 0
-283 -282 -106 0
283 -282 106 0
283 282 -106 0
-284 283 112 0
-284 -283 -112 0
284 -283 112 0
284 283 -112 0
-284 0
-285 25 30 0
-285 -25 -30 0
285 -25 30 0
285 25 -30 0
-286 285 47 0
-286 -285 -47 0
286 -285 47 0
286 285 -47 0
-287 286 98 0
-287 -286 -98 0
287 -286 98 0
287 286 -98 0
-288 287 107 0
-288 -287 -107 0
288 -287 107 0
288 287 -107 0
-289 288 113 0
-289 -288 -113 0
289 -288 113 0
289 288 -113 0
-289 0
-290 25 26 0
-290 -25 -26 0
290 -25 26 0
290 25 -26 0
-291 290 48 0
-291 -290 -48 0
291 -290 48 0
291 290 -48 0
-292 291 99 0
-292 -291 -99 0
292 -291 99 0
292 291 -99 0
-293 292 108 0
-293 -292 -108 0
293 -292 108 0
293 292 -108 0
-294 293 114 0
-294 -293 -114 0
294 -293 114 0
294 293 -114 0
-294 0
-295 32 33 0
-295 -32 -33 0
295 -32 33 0
295 32 -33 0
-296 295 49 0
-296 -295 -49 0
296 -295 49 0
296 295 -49 0
-297 296 106 0
-297 -296 -106 0
297 -296 106 0
297 296 -106 0
-298 297 109 0
-298 -297 -109 0
298 -297 109 0
298 297 -109 0
-299 298 115 0
-299 -298 -115 0
299 -298 115 0
299 298 -115 0
-299 0
-300 33 34 0
-300 -33 -34 0
300 -33 34 0
300 33 -34 0
-301 300 50 0
-301 -300 -50 0
301 -300 50 0
301 300 -50 0
-302 301 107 0
-302 -301 -107 0
302 -301 107 0
302 301 -107 0
-303 302 110 0
-303 -302 -110 0
303 -302 110 0
303 302 -110 0
-304 303 116 0
-304 -303 -116 0
304 -303 116 0
304 303 -116 0
-304 0
-305 34 35 0
-305 -34 -35 0
305 -34 35 0
305 34 -35 0
-306 305 51 0
-306 -305 -51 0
306 -305 51 0
306 305 -51 0
-307 306 108 0
-307 -306 -108 0
307 -306 108 0
307 306 -108 0
-308 307 111 0
-308 -307 -111 0
308 -307 111 0
308 307 -111 0
-309 308 117 0
-309 -308 -117 0
309 -308 117 0
309 308 -117 0
-309 0
-310 35 36 0
-310 -35 -36 0
310 -35 36 0
310 35 -36 0
-311 310 52 0
-311 -310 -52 0
311 -310 52 0
311 310 -52 0
-312 311 103 0
-312 -311 -103 0
312 -311 103 0
312 311 -103 0
-313 312 112 0
-313 -312 -112 0
313 -312 112 0
313 312 -112 0
-314 313 118 0
-314 -313 -118 0
314 -313 118 0
314 313 -118 0
-314 0
-315 31 36 0
-315 -31 -36 0
315 -31 36 0
315 31 -36 0
-316 315 53 0
-316 -315 -53 0
316 -315 53 0
316 315 -53 0
-317 316 104 0
-317 -316 -104 0
317 -316 104 0
317 316 -104 0
-318 317 113 0
-318 -317 -113 0
318 -317 113 0
318 317 -113 0
-319 318 119 0
-319 -318 -119 0
319 -318 119 0
319 318 -119 0
-319 0
-320 31 32 0
-320 -31 -32 0
320 -31 32 0
320 31 -32 0
-321 320 54 0
-321 -320 -54 0
321 -320 54 0
321 320 -54 0
-322 321 105 0
-322 -321 -105 0
322 -321 105 0
322 321 -105 0
-323 322 114 0
-323 -322 -114 0
323 -322 114 0
323 322 -114 0
-324 323 120 0
-324 -323 -120 0
324 -323 120 0
324 323 -120 0
-324 0
-325 38 39 0
-325 -38 -39 0
325 -38 39 0
325 38 -39 0
-326 325 55 0
-326 -325 -55 0
326 -325 55 0
326 325 -55 0
-327 326 112 0
-327 -326 -112 0
327 -326 112 0
327 326 -112 0
-328 327 115 0
-328 -327 -115 0
328 -327 115 0
328 327 -115 0
-329 328 121 0
-329 -328 -121 0
329 -328 121 0
329 328 -121 0
-329 0
-330 39 40 0
-330 -39 -40 0
330 -39 40 0
330 39 -40 0
-331 330 56 0
-331 -330 -56 0
331 -330 56 0
331 330 -56 0
-332 331 113 0
-332 -331 -113 0
332 -331 113 0
332 331 -113 0
-333 332 116 0
-333 -332 -116 0
333 -332 116 0
333 332 -116 0
-334 333 122 0
-334 -333 -122 0
334 -333 122 0
334 333 -122 0
-334 0
-335 40 41 0
-335 -40 -41 0
335 -40 41 0
335 40 -41 0
-336 335 57 0
-336 -335 -57 0
336 -335 57 0
336 335 -57 0
-337 336 114 0
-337 -336 -114 0
337 -336 114 0
337 336 -114 0
-338 337 117 0
-338 -337 -117 0
338 -337 117 0
338 337 -117 0
-339 338 123 0
-339 -338 -123 0
339 -338 123 0
339 338 -123 0
-339 0
-340 41 42 0
-340 -41 -42 0
340 -41 42 0
340 41 -42 0
-341 340 58 0
-341 -340 -58 0
341 -340 58 0
341 340 -58 0
-342 341 109 0
-342 -341 -109 0
342 -341 109 0
342 341 -109 0
-343 342 118 0
-343 -342 -118 0
343 -342 118 0
343 342 -118 0
-344 343 124 0
-344 -343 -124 0
344 -343 124 0
344 343 -124 0
-344 0
-345 37 42 0
-345 -37 -42 0
345 -37 42 0
345 37 -42 0
-346 345 59 0
-346 -345 -59 0
346 -345 59 0
346 345 -59 0
-347 346 110 0
-347 -346 -110 0
347 -346 110 0
347 346 -110 0
-348 347 119 0
-348 -347 -119 0
348 -347 119 0
348 347 -119 0
-349 348 125 0
-349 -348 -125 0
349 -348 125 0
349 348 -125 0
-349 0
-350 37 38 0
-350 -37 -38 0
350 -37 38 0
350 37 -38 0
-351 350 60 0
-351 -350 -60 0
351 -350 60 0
351 350 -60 0
-352 351 111 0
-352 -351 -111 0
352 -351 111 0
352 351 -111 0
-353 352 120 0
-353 -352 -120 0
353 -352 120 0
353 352 -120 0
-354 353 126 0
-354 -353 -126 0
354 -353 126 0
354 353 -126 0
-354 0
-355 44 45 0
-355 -44 -45 0
355 -44 45 0
355 44 -45 0
-356 355 61 0
-356 -355 -61 0
356 -355 61 0
356 355 -61 0
-357 356 118 0
-357 -356 -118 0
357 -356 118 0
357 356 -118 0
-358 357 121 0
-358 -357 -121 0
358 -357 121 0
358 357 -121 0
-359 358 127 0
-359 -358 -127 0
359 -358 127 0
359 358 -127 0
-359 0
-360 45 46 0
-360 -45 -46 0
360 -45 46 0
360 45 -46 0
-361 360 62 0
-361 -360 -62 0
361 -360 62 0
361 360 -62 0
-362 361 119 0
-362 -361 -119 0
362 -361 119 0
362 361 -119 0
-363 362 122 0
-363 -362 -122 0
363 -362 122 0
363 362 -122 0
-364 363 128 0
-364 -363 -128 0
364 -363 128 0
364 363 -128 0
-364 0
-365 46 47 0
-365 -46 -47 0
365 -46 47 0
365 46 -47 0
-366 365 63 0
-366 -365 -63 0
366 -365 63 0
366 365 -63 0
-367 366 120 0
-367 -366 -120 0
367 -366 120 0
367 366 -120 0
-368 367 123 0
-368 -367 -123 0
368 -367 123 0
368 367 -123 0
-369 368 129 0
-369 -368 -129 0
369 -368 129 0
369 368 -129 0
-369 0
-370 47 48 0
-370 -47 -48 0
370 -47 48 0
370 47 -48 0
-371 370 64 0
-371 -370 -64 0
371 -370 64 0
371 370 -64 0
-372 371 115 0
-372 -371 -115 0
372 -371 115 0
372 371 -115 0
-373 372 124 0
-373 -372 -124 0
373 -372 124 0
373 372 -124 0
-374 373 130 0
-374 -373 -130 0
374 -373 130 0
374 373 -130 0
-374 0
-375 43 48 0
-375 -43 -48 0
375 -43 48 0
375 43 -48 0
-376 375 65 0
-376 -375 -65 0
376 -375 65 0
376 375 -65 0
-377 376 116 0
-377 -376 -116 0
377 -376 116 0
377 376 -116 0
-378 377 125 0
-378 -377 -125 0
378 -377 125 0
378 377 -125 0
-379 378 131 0
-379 -378 -131 0
379 -378 131 0
379 378 -131 0
-379 0
-380 43 44 0
-380 -43 -44 0
380 -43 44 0
380 43 -44 0
-381 380 66 0
-381 -380 -66 0
381 -380 66 0
381 380 -66 0
-382 381 117 0
-382 -381 -117 0
382 -381 117 0
382 381 -117 0
-383 382 126 0
-383 -382 -126 0
383 -382 126 0
383 382 -126 0
-384 383 132 0
-384 -383 -132 0
384 -383 132 0
384 383 -132 0
-384 0
-385 50 51 0
-385 -50 -51 0
385 -50 51 0
385 50 -51 0
-386 385 67 0
-386 -385 -67 0
386 -385 67 0
386 385 -67 0
-387 386 124 0
-387 -386 -124 0
387 -386 124 0
387 386 -124 0
-388 387 127 0
-388 -387 -127 0
388 -387 127 0
388 387 -127 0
-389 388 133 0
-389 -388 -133 0
389 -388 133 0
389 388 -133 0
-389 0
-390 51 52 0
-390 -51 -52 0
390 -51 52 0
390 51 -52 0
-391 390 68 0
-391 -390 -68 0
391 -390 68 0
391 390 -68 0
-392 391 125 0
-392 -391 -125 0
392 -391 125 0
392 391 -125 0
-393 392 128 0
-393 -392 -128 0
393 -392 128 0
393 392 -128 0
-394 393 134 0
-394 -393 -134 0
394 -393 134 0
394 393 -134 0
-394 0
-395 52 53 0
-395 -52 -53 0
395 -52 53 0
395 52 -53 0
-396 395 69 0
-396 -395 -69 0
396 -395 69 0
396 395 -69 0
-397 396 126 0
-397 -396 -126 0
397 -396 126 0
397 396 -126 0
-398 397 129 0
-398 -397 -129 0
398 -397 129 0
398 397 -129 0
-399 398 135 0
-399 -398 -135 0
399 -398 135 0
399 398 -135 0
-399 0
-400 53 54 0
-400 -53 -54 0
400 -53 54 0
400 53 -54 0
-401 400 70 0
-401 -400 -70 0
401 -400 70 0
401 400 -70 0
-402 401 121 0
-402 -401 -121 0
402 -401 121 0
402 401 -121 0
-403 402 130 0
-403 -402 -130 0
403 -402 130 0
403 402 -130 0
-404 403 136 0
-404 -403 -136 0
404 -403 136 0
404 403 -136 0
-404 0
-405 49 54 0
-405 -49 -54 0
405 -49 54 0
405 49 -54 0
-406 405 71 0
-406 -405 -71 0
406 -405 71 0
406 405 -71 0
-407 406 122 0
-407 -406 -122 0
407 -406 122 0
407 406 -122 0
-408 407 131 0
-408 -407 -131 0
408 -407 131 0
408 407 -131 0
-409 408 137 0
-409 -408 -137 0
409 -408 137 0
409 408 -137 0
-409 0
-410 49 50 0
-410 -49 -50 0
410 -49 50 0
410 49 -50 0
-411 410 72 0
-411 -410 -72 0
411 -410 72 0
411 410 -72 0
-412 411 123 0
-412 -411 -123 0
412 -411 123 0
412 411 -123 0
-413 412 132 0
-413 -412 -132 0
413 -412 132 0
413 412 -132 0
-414 413 138 0
-414 -413 -138 0
414 -413 138 0
414 413 -138 0
-414 0
-415 1 56 0
-415 -1 -56 0
415 -1 56 0
415 1 -56 0
-416 415 57 0
-416 -415 -57 0
416 -415 57 0
416 415 -57 0
-417 416 130 0
-417 -416 -130 0
417 -416 130 0
417 416 -130 0
-418 417 133 0
-418 -417 -133 0
418 -417 133 0
418 417 -133 0
-419 418 139 0
-419 -418 -139 0
419 -418 139 0
419 418 -139 0
-419 0
-420 2 57 0
-420 -2 -57 0
420 -2 57 0
420 2 -57 0
-421 420 58 0
-421 -420 -58 0
421 -420 58 0
421 420 -58 0
-422 421 131 0
-422 -421 -131 0
422 -421 131 0
422 421 -131 0
-423 422 134 0
-423 -422 -134 0
423 -422 134 0
423 422 -134 0
-424 423 140 0
-424 -423 -140 0
424 -423 140 0
424 423 -140 0
-424 0
-425 3 58 0
-425 -3 -58 0
425 -3 58 0
425 3 -58 0
-426 425 59 0
-426 -425 -59 0
426 -425 59 0
426 425 -59 0
-427 426 132 0
-427 -426 -132 0
427 -426 132 0
427 426 -132 0
-428 427 135 0
-428 -427 -135 0
428 -427 135 0
428 427 -135 0
-429 428 141 0
-429 -428 -141 0
429 -428 141 0
429 428 -141 0
-429 0
-430 4 59 0
-430 -4 -59 0
430 -4 59 0
430 4 -59 0
-431 430 60 0
-431 -430 -60 0
431 -430 60 0
431 430 -60 0
-432 431 127 0
-432 -431 -127 0
432 -431 127 0
432 431 -127 0
-433 432 136 0
-433 -432 -136 0
433 -432 136 0
433 432 -136 0
-434 433 142 0
-434 -433 -142 0
434 -433 142 0
434 433 -142 0
-434 0
-435 5 55 0
-435 -5 -55 0
435 -5 55 0
435 5 -55 0
-436 435 60 0
-436 -435 -60 0
436 -435 60 0
436 435 -60 0
-437 436 128 0
-437 -436 -128 0
437 -436 128 0
437 436 -128 0
-438 437 137 0
-438 -437 -137 0
438 -437 137 0
438 437 -137 0
-439 438 143 0
-439 -438 -143 0
439 -438 143 0
439 438 -143 0
-439 0
-440 6 55 0
-440 -6 -55 0
440 -6 55 0
440 6 -55 0
-441 440 56 0
-441 -440 -56 0
441 -440 56 0
441 440 -56 0
-442 441 129 0
-442 -441 -129 0
442 -441 129 0
442 441 -129 0
-443 442 138 0
-443 -442 -138 0
443 -442 138 0
443 442 -138 0
-444 443 144 0
-444 -443 -144 0
444 -443 144 0
444 443 -144 0
-444 0
-445 7 62 0
-445 -7 -62 0
445 -7 62 0
445 7 -62 0
-446 445 63 0
-446 -445 -63 0
446 -445 63 0
446 445 -63 0
-447 446 73 0
-447 -446 -73 0
447 -446 73 0
447 446 -73 0
-448 447 136 0
-448 -447 -136 0
448 -447 136 0
448 447 -136 0
-449 448 139 0
-449 -448 -139 0
449 -448 139 0
449 448 -139 0
-449 0
-450 8 63 0
-450 -8 -63 0
450 -8 63 0
450 8 -63 0
-451 450 64 0
-451 -450 -64 0
451 -450 64 0
451 450 -64 0
-452 451 74 0
-452 -451 -74 0
452 -451 74 0
452 451 -74 0
-453 452 137 0
-453 -452 -137 0
453 -452 137 0
453 452 -137 0
-454 453 140 0
-454 -453 -140 0
454 -453 140 0
454 453 -140 0
-454 0
-455 9 64 0
-455 -9 -64 0
455 -9 64 0
455 9 -64 0
-456 455 65 0
-456 -455 -65 0
456 -455 65 0
456 455 -65 0
-457 456 75 0
-457 -456 -75 0
457 -456 75 0
457 456 -75 0
-458 457 138 0
-458 -457 -138 0
458 -457 138 0
458 457 -138 0
-459 458 141 0
-459 -458 -141 0
459 -458 141 0
459 458 -141 0
-459 0
-460 10 65 0
-460 -10 -65 0
460 -10 65 0
460 10 -65 0
-461 460 66 0
-461 -460 -66 0
461 -460 66 0
461 460 -66 0
-462 461 76 0
-462 -461 -76 0
462 -461 76 0
462 461 -76 0
-463 462 133 0
-463 -462 -133 0
463 -462 133 0
463 462 -133 0
-464 463 142 0
-464 -463 -142 0
464 -463 142 0
464 463 -142 0
-464 0
-465 11 61 0
-465 -11 -61 0
465 -11 61 0
465 11 -61 0
-466 465 66 0
-466 -465 -66 0
466 -465 66 0
466 465 -66 0
-467 466 77 0
-467 -466 -77 0
467 -466 77 0
467 466 -77 0
-468 467 134 0
-468 -467 -134 0
468 -467 134 0
468 467 -134 0
-469 468 143 0
-469 -468 -143 0
469 -468 143 0
469 468 -143 0
-469 0
-470 12 61 0
-470 -12 -61 0
470 -12 61 0
470 12 -61 0
-471 470 62 0
-471 -470 -62 0
471 -470 62 0
471 470 -62 0
-472 471 78 0
-472 -471 -78 0
472 -471 78 0
472 471 -78 0
-473 472 135 0
-473 -472 -135 0
473 -472 135 0
473 472 -135 0
-474 473 144 0
-474 -473 -144 0
474 -473 144 0
474 473 -144 0
-474 0
-475 13 68 0
-475 -13 -68 0
475 -13 68 0
475 13 -68 0
-476 475 69 0
-476 -475 -69 0
476 -475 69 0
476 475 -69 0
-477 476 73 0
-477 -476 -73 0
477 -476 73 0
477 476 -73 0
-478 477 79 0
-478 -477 -79 0
478 -477 79 0
478 477 -79 0
-479 478 142 0
-479 -478 -142 0
479 -478 142 0
479 478 -142 0
-479 0
-480 14 69 0
-480 -14 -69 0
480 -14 69 0
480 14 -69 0
-481 480 70 0
-481 -480 -70 0
481 -480 70 0
481 480 -70 0
-482 481 74 0
-482 -481 -74 0
482 -481 74 0
482 481 -74 0
-483 482 80 0
-483 -482 -80 0
483 -482 80 0
483 482 -80 0
-484 483 143 0
-484 -483 -143 0
484 -483 143 0
484 483 -143 0
-484 0
-485 15 70 0
-485 -15 -70 0
485 -15 70 0
485 15 -70 0
-486 485 71 0
-486 -485 -71 0
486 -485 71 0
486 485 -71 0
-487 486 75 0
-487 -486 -75 0
487 -486 75 0
487 486 -75 0
-488 487 81 0
-488 -487 -81 0
488 -487 81 0
488 487 -81 0
-489 488 144 0
-489 -488 -144 0
489 -488 144 0
489 488 -144 0
-489 0
-490 16 71 0
-490 -16 -71 0
490 -16 71 0
490 16 -71 0
-491 490 72 0
-491 -490 -72 0
491 -490 72 0
491 490 -72 0
-492 491 76 0
-492 -491 -76 0
492 -491 76 0
492 491 -76 0
-493 492 82 0
-493 -492 -82 0
493 -492 82 0
493 492 -82 0
-494 493 139 0
-494 -493 -139 0
494 -493 139 0
494 493 -139 0
-494 0
-495 17 67 0
-495 -17 -67 0
495 -17 67 0
495 17 -67 0
-496 495 72 0
-496 -495 -72 0
496 -495 72 0
496 495 -72 0
-497 496 77 0
-497 -496 -77 0
497 -496 77 0
497 496 -77 0
-498 497 83 0
-498 -497 -83 0
498 -497 83 0
498 497 -83 0
-499 498 140 0
-499 -498 -140 0
499 -498 140 0
499 498 -140 0
-499 0
-500 18 67 0
-500 -18 -67 0
500 -18 67 0
500 18 -67 0
-501 500 68 0
-501 -500 -68 0
501 -500 68 0
501 500 -68 0
-502 501 78 0
-502 -501 -78 0
502 -501 78 0
502 501 -78 0
-503 502 84 0
-503 -502 -84 0
503 -502 84 0
503 502 -84 0
-504 503 141 0
-504 -503 -141 0
504 -503 141 0
504 503 -141 0
-504 0
-505 4 7 0
-505 -4 -7 0
505 -4 7 0
505 4 -7 0
-506 505 13 0
-506 -505 -13 0
506 -505 13 0
506 505 -13 0
-507 506 16 0
-507 -506 -16 0
507 -506 16 0
507 506 -16 0
-508 507 19 0
-508 -507 -19 0
508 -507 19 0
508 507 -19 0
-509 508 25 0
-509 -508 -25 0
509 -508 25 0
509 508 -25 0
-510 509 40 0
-510 -509 -40 0
510 -509 40 0
510 509 -40 0
-511 510 43 0
-511 -510 -43 0
511 -510 43 0
511 510 -43 0
-512 511 49 0
-512 -511 -49 0
512 -511 49 0
512 511 -49 0
-513 512 52 0
-513 -512 -52 0
513 -512 52 0
513 512 -52 0
-514 513 55 0
-514 -513 -55 0
514 -513 55 0
514 513 -55 0
-515 514 61 0
-515 -514 -61 0
515 -514 61 0
515 514 -61 0
-516 5 8 0
-516 -5 -8 0
516 -5 8 0
516 5 -8 0
-517 516 14 0
-517 -516 -14 0
517 -516 14 0
517 516 -14 0
-518 517 17 0
-518 -517 -17 0
518 -517 17 0
518 517 -17 0
-519 518 20 0
-519 -518 -20 0
519 -518 20 0
519 518 -20 0
-520 519 26 0
-520 -519 -26 0
520 -519 26 0
520 519 -26 0
-521 520 41 0
-521 -520 -41 0
521 -520 41 0
521 520 -41 0
-522 521 44 0
-522 -521 -44 0
522 -521 44 0
522 521 -44 0
-523 522 50 0
-523 -522 -50 0
523 -522 50 0
523 522 -50 0
-524 523 53 0
-524 -523 -53 0
524 -523 53 0
524 523 -53 0
-525 524 56 0
-525 -524 -56 0
525 -524 56 0
525 524 -56 0
-526 525 62 0
-526 -525 -62 0
526 -525 62 0
526 525 -62 0
-527 6 9 0
-527 -6 -9 0
527 -6 9 0
527 6 -9 0
-528 527 15 0
-528 -527 -15 0
528 -527 15 0
528 527 -15 0
-529 528 18 0
-529 -528 -18 0
529 -528 18 0
529 528 -18 0
-530 529 21 0
-530 -529 -21 0
530 -529 21 0
530 529 -21 0
-531 530 27 0
-531 -530 -27 0
531 -530 27 0
531 530 -27 0
-532 531 42 0
-532 -531 -42 0
532 -531 42 0
532 531 -42 0
-533 532 45 0
-533 -532 -45 0
533 -532 45 0
533 532 -45 0
-534 533 51 0
-534 -533 -51 0
534 -533 51 0
534 533 -51 0
-535 534 54 0
-535 -534 -54 0
535 -534 54 0
535 534 -54 0
-536 535 57 0
-536 -535 -57 0
536 -535 57 0
536 535 -57 0
-537 536 63 0
-537 -536 -63 0
537 -536 63 0
537 536 -63 0
-538 1 10 0
-538 -1 -10 0
538 -1 10 0
538 1 -10 0
-539 538 13 0
-539 -538 -13 0
539 -538 13 0
539 538 -13 0
-540 539 16 0
-540 -539 -16 0
540 -539 16 0
540 539 -16 0
-541 540 22 0
-541 -540 -22 0
541 -540 22 0
541 540 -22 0
-542 541 28 0
-542 -541 -28 0
542 -541 28 0
542 541 -28 0
-543 542 37 0
-543 -542 -37 0
543 -542 37 0
543 542 -37 0
-544 543 46 0
-544 -543 -46 0
544 -543 46 0
544 543 -46 0
-545 544 49 0
-545 -544 -49 0
545 -544 49 0
545 544 -49 0
-546 545 52 0
-546 -545 -52 0
546 -545 52 0
546 545 -52 0
-547 546 58 0
-547 -546 -58 0
547 -546 58 0
547 546 -58 0
-548 547 64 0
-548 -547 -64 0
548 -547 64 0
548 547 -64 0
-549 4 7 0
-549 -4 -7 0
549 -4 7 0
549 4 -7 0
-550 549 10 0
-550 -549 -10 0
550 -549 10 0
550 549 -10 0
-551 550 16 0
-551 -550 -16 0
551 -550 16 0
551 550 -16 0
-552 551 22 0
-552 -551 -22 0
552 -551 22 0
552 551 -22 0
-553 552 31 0
-553 -552 -31 0
553 -552 31 0
553 552 -31 0
-554 553 40 0
-554 -553 -40 0
554 -553 40 0
554 553 -40 0
-555 554 43 0
-555 -554 -43 0
555 -554 43 0
555 554 -43 0
-556 555 46 0
-556 -555 -46 0
556 -555 46 0
556 555 -46 0
-557 556 52 0
-557 -556 -52 0
557 -556 52 0
557 556 -52 0
-558 557 58 0
-558 -557 -58 0
558 -557 58 0
558 557 -58 0
-559 558 67 0
-559 -558 -67 0
559 -558 67 0
559 558 -67 0
-560 5 8 0
-560 -5 -8 0
560 -5 8 0
560 5 -8 0
-561 560 11 0
-561 -560 -11 0
561 -560 11 0
561 560 -11 0
-562 561 17 0
-562 -561 -17 0
562 -561 17 0
562 561 -17 0
-563 562 23 0
-563 -562 -23 0
563 -562 23 0
563 562 -23 0
-564 563 32 0
-564 -563 -32 0
564 -563 32 0
564 563 -32 0
-565 564 41 0
-565 -564 -41 0
565 -564 41 0
565 564 -41 0
-566 565 44 0
-566 -565 -44 0
566 -565 44 0
566 565 -44 0
-567 566 47 0
-567 -566 -47 0
567 -566 47 0
567 566 -47 0
-568 567 53 0
-568 -567 -53 0
568 -567 53 0
568 567 -53 0
-569 568 59 0
-569 -568 -59 0
569 -568 59 0
569 568 -59 0
-570 569 68 0
-570 -569 -68 0
570 -569 68 0
570 569 -68 0
-571 1 2 0
-571 -1 -2 0
571 -1 2 0
571 1 -2 0
-572 571 4 0
-572 -571 -4 0
572 -571 4 0
572 571 -4 0
-573 572 5 0
-573 -572 -5 0
573 -572 5 0
573 572 -5 0
-574 573 7 0
-574 -573 -7 0
574 -573 7 0
574 573 -7 0
-575 574 8 0
-575 -574 -8 0
575 -574 8 0
575 574 -8 0
-576 575 10 0
-576 -575 -10 0
576 -575 10 0
576 575 -10 0
-577 576 11 0
-577 -576 -11 0
577 -576 11 0
577 576 -11 0
-578 577 73 0
-578 -577 -73 0
578 -577 73 0
578 577 -73 0
-579 578 74 0
-579 -578 -74 0
579 -578 74 0
579 578 -74 0
-580 579 76 0
-580 -579 -76 0
580 -579 76 0
580 579 -76 0
-581 580 77 0
-581 -580 -77 0
581 -580 77 0
581 580 -77 0
-582 1 3 0
-582 -1 -3 0
582 -1 3 0
582 1 -3 0
-583 582 4 0
-583 -582 -4 0
583 -582 4 0
583 582 -4 0
-584 583 6 0
-584 -583 -6 0
584 -583 6 0
584 583 -6 0
-585 584 7 0
-585 -584 -7 0
585 -584 7 0
585 584 -7 0
-586 585 9 0
-586 -585 -9 0
586 -585 9 0
586 585 -9 0
-587 586 10 0
-587 -586 -10 0
587 -586 10 0
587 586 -10 0
-588 587 12 0
-588 -587 -12 0
588 -587 12 0
588 587 -12 0
-589 588 73 0
-589 -588 -73 0
589 -588 73 0
589 588 -73 0
-590 589 75 0
-590 -589 -75 0
590 -589 75 0
590 589 -75 0
-591 590 76 0
-591 -590 -76 0
591 -590 76 0
591 590 -76 0
-592 591 78 0
-592 -591 -78 0
592 -591 78 0
592 591 -78 0
-593 1 2 0
-593 -1 -2 0
593 -1 2 0
593 1 -2 0
-594 593 3 0
-594 -593 -3 0
594 -593 3 0
594 593 -3 0
-595 594 6 0
-595 -594 -6 0
595 -594 6 0
595 594 -6 0
-596 595 7 0
-596 -595 -7 0
596 -595 7 0
596 595 -7 0
-597 596 8 0
-597 -596 -8 0
597 -596 8 0
597 596 -8 0
-598 597 9 0
-598 -597 -9 0
598 -597 9 0
598 597 -9 0
-599 598 10 0
-599 -598 -10 0
599 -598 10 0
599 598 -10 0
-600 599 13 0
-600 -599 -13 0
600 -599 13 0
600 599 -13 0
-601 600 15 0
-601 -600 -15 0
601 -600 15 0
601 600 -15 0
-602 601 74 0
-602 -601 -74 0
602 -601 74 0
602 601 -74 0
-603 602 76 0
-603 -602 -76 0
603 -602 76 0
603 602 -76 0
-604 603 79 0
-604 -603 -79 0
604 -603 79 0
604 603 -79 0
-605 604 81 0
-605 -604 -81 0
605 -604 81 0
605 604 -81 0
-606 3 5 0
-606 -3 -5 0
606 -3 5 0
606 3 -5 0
-607 606 7 0
-607 -606 -7 0
607 -606 7 0
607 606 -7 0
-608 607 9 0
-608 -607 -9 0
608 -607 9 0
608 607 -9 0
-609 608 14 0
-609 -608 -14 0
609 -608 14 0
609 608 -14 0
-610 609 16 0
-610 -609 -16 0
610 -609 16 0
610 609 -16 0
-611 610 73 0
-611 -610 -73 0
611 -610 73 0
611 610 -73 0
-612 611 74 0
-612 -611 -74 0
612 -611 74 0
612 611 -74 0
-613 612 75 0
-613 -612 -75 0
613 -612 75 0
613 612 -75 0
-614 613 76 0
-614 -613 -76 0
614 -613 76 0
614 613 -76 0
-615 614 80 0
-615 -614 -80 0
615 -614 80 0
615 614 -80 0
-616 615 82 0
-616 -615 -82 0
616 -615 82 0
616 615 -82 0
-617 3 5 0
-617 -3 -5 0
617 -3 5 0
617 3 -5 0
-618 617 8 0
-618 -617 -8 0
618 -617 8 0
618 617 -8 0
-619 618 9 0
-619 -618 -9 0
619 -618 9 0
619 618 -9 0
-620 619 10 0
-620 -619 -10 0
620 -619 10 0
620 619 -10 0
-621 620 11 0
-621 -620 -11 0
621 -620 11 0
621 620 -11 0
-622 621 13 0
-622 -621 -13 0
622 -621 13 0
622 621 -13 0
-623 622 17 0
-623 -622 -17 0
623 -622 17 0
623 622 -17 0
-624 623 73 0
-624 -623 -73 0
624 -623 73 0
624 623 -73 0
-625 624 74 0
-625 -624 -74 0
625 -624 74 0
625 624 -74 0
-626 625 75 0
-626 -625 -75 0
626 -625 75 0
626 625 -75 0
-627 626 76 0
-627 -626 -76 0
627 -626 76 0
627 626 -76 0
-628 627 79 0
-628 -627 -79 0
628 -627 79 0
628 627 -79 0
-629 628 83 0
-629 -628 -83 0
629 -628 83 0
629 628 -83 0
-630 1 2 0
-630 -1 -2 0
630 -1 2 0
630 1 -2 0
-631 630 5 0
-631 -630 -5 0
631 -630 5 0
631 630 -5 0
-632 631 6 0
-632 -631 -6 0
632 -631 6 0
632 631 -6 0
-633 632 7 0
-633 -632 -7 0
633 -632 7 0
633 632 -7 0
-634 633 8 0
-634 -633 -8 0
634 -633 8 0
634 633 -8 0
-635 634 9 0
-635 -634 -9 0
635 -634 9 0
635 634 -9 0
-636 635 12 0
-636 -635 -12 0
636 -635 12 0
636 635 -12 0
-637 636 14 0
-637 -636 -14 0
637 -636 14 0
637 636 -14 0
-638 637 18 0
-638 -637 -18 0
638 -637 18 0
638 637 -18 0
-639 638 73 0
-639 -638 -73 0
639 -638 73 0
639 638 -73 0
-640 639 75 0
-640 -639 -75 0
640 -639 75 0
640 639 -75 0
-641 640 80 0
-641 -640 -80 0
641 -640 80 0
641 640 -80 0
-642 641 84 0
-642 -641 -84 0
642 -641 84 0
642 641 -84 0
515 526 537 548 559 570 581 592 605 616 629 642 0
-1 643 0
-644 0
-645 0
-646 0
-647 0
-648 0
-649 0
-650 0
-651 0
-652 0
-653 0
-2 654 0
-643 654 0
-2 -643 655 0
-644 655 0
-2 -644 656 0
-645 656 0
-2 -645 657 0
-646 657 0
-2 -646 658 0
-647 658 0
-2 -647 659 0
-648 659 0
-2 -648 660 0
-649 660 0
-2 -649 661 0
-650 661 0
-2 -650 662 0
-651 662 0
-2 -651 663 0
-652 663 0
-2 -652 664 0
-653 664 0
-2 -653 0
-3 665 0
-654 665 0
-3 -654 666 0
-655 666 0
-3 -655 667 0
-656 667 0
-3 -656 668 0
-657 668 0
-3 -657 669 0
-658 669 0
-3 -658 670 0
-659 670 0
-3 -659 671 0
-660 671 0
-3 -660 672 0
-661 672 0
-3 -661 673 0
-662 673 0
-3 -662 674 0
-663 674 0
-3 -663 675 0
-664 675 0
-3 -664 0
-4 676 0
-665 676 0
-4 -665 677 0
-666 677 0
-4 -666 678 0
-667 678 0
-4 -667 679 0
-668 679 0
-4 -668 680 0
-669 680 0
-4 -669 681 0
-670 681 0
-4 -670 682 0
-671 682 0
-4 -671 683 0
-672 683 0
-4 -672 684 0
-673 684 0
-4 -673 685 0
-674 685 0
-4 -674 686 0
-675 686 0
-4 -675 0
-5 687 0
-676 687 0
-5 -676 688 0
-677 688 0
-5 -677 689 0
-678 689 0
-5 -678 690 0
-679 690 0
-5 -679 691 0
-680 691 0
-5 -680 692 0
-681 692 0
-5 -681 693 0
-682 693 0
-5 -682 694 0
-683 694 0
-5 -683 695 0
-684 695 0
-5 -684 696 0
-685 696 0
-5 -685 697 0
-686 697 0
-5 -686 0
-6 698 0
-687 698 0
-6 -687 699 0
-688 699 0
-6 -688 700 0
-689 700 0
-6 -689 701 0
-690 701 0
-6 -690 702 0
-691 702 0
-6 -691 703 0
-692 703 0
-6 -692 704 0
-693 704 0
-6 -693 705 0
-694 705 0
-6 -694 706 0
-695 706 0
-6 -695 707 0
-696 707 0
-6 -696 708 0
-697 708 0
-6 -697 0
-7 709 0
-698 709 0
-7 -698 710 0
-699 710 0
-7 -699 711 0
-700 711 0
-7 -700 712 0
-701 712 0
-7 -701 713 0
-702 713 0
-7 -702 714 0
-703 714 0
-7 -703 715 0
-704 715 0
-7 -704 716 0
-705 716 0
-7 -705 717 0
-706 717 0
-7 -706 718 0
-707 718 0
-7 -707 719 0
-708 719 0
-7 -708 0
-8 720 0
-709 720 0
-8 -709 721 0
-710 721 0
-8 -710 722 0
-711 722 0
-8 -711 723 0
-712 723 0
-8 -712 724 0
-713 724 0
-8 -713 725 0
-714 725 0
-8 -714 726 0
-715 726 0
-8 -715 727 0
-716 727 0
-8 -716 728 0
-717 728 0
-8 -717 729 0
-718 729 0
-8 -718 730 0
-719 730 0
-8 -719 0
-9 731 0
-720 731 0
-9 -720 732 0
-721 732 0
-9 -721 733 0
-722 733 0
-9 -722 734 0
-723 734 0
-9 -723 735 0
-724 735 0
-9 -724 736 0
-725 736 0
-9 -725 737 0
-726 737 0
-9 -726 738 0
-727 738 0
-9 -727 739 0
-728 739 0
-9 -728 740 0
-729 740 0
-9 -729 741 0
-730 741 0
-9 -730 0
-10 742 0
-731 742 0
-10 -731 743 0
-732 743 0
-10 -732 744 0
-733 744 0
-10 -733 745 0
-734 745 0
-10 -734 746 0
-735 746 0
-10 -735 747 0
-736 747 0
-10 -736 748 0
-737 748 0
-10 -737 749 0
-738 749 0
-10 -738 750 0
-739 750 0
-10 -739 751 0
-740 751 0
-10 -740 752 0
-741 752 0
-10 -741 0
-11 753 0
-742 753 0
-11 -742 754 0
-743 754 0
-11 -743 755 0
-744 755 0
-11 -744 756 0
-745 756 0
-11 -745 757 0
-746 757 0
-11 -746 758 0
-747 758 0
-11 -747 759 0
-748 759 0
-11 -748 760 0
-749 760 0
-11 -749 761 0
-750 761 0
-11 -750 762 0
-751 762 0
-11 -751 763 0
-752 763 0
-11 -752 0
-12 764 0
-753 764 0
-12 -753 765 0
-754 765 0
-12 -754 766 0
-755 766 0
-12 -755 767 0
-756 767 0
-12 -756 768 0
-757 768 0
-12 -757 769 0
-758 769 0
-12 -758 770 0
-759 770 0
-12 -759 771 0
-760 771 0
-12 -760 772 0
-761 772 0
-12 -761 773 0
-762 773 0
-12 -762 774 0
-763 774 0
-12 -763 0
-13 775 0
-764 775 0
-13 -764 776 0
-765 776 0
-13 -765 777 0
-766 777 0
-13 -766 778 0
-767 778 0
-13 -767 779 0
-768 779 0
-13 -768 780 0
-769 780 0
-13 -769 781 0
-770 781 0
-13 -770 782 0
-771 782 0
-13 -771 783 0
-772 783 0
-13 -772 784 0
-773 784 0
-13 -773 785 0
-774 785 0
-13 -774 0
-14 786 0
-775 786 0
-14 -775 787 0
-776 787 0
-14 -776 788 0
-777 788 0
-14 -777 789 0
-778 789 0
-14 -778 790 0
-779 790 0
-14 -779 791 0
-780 791 0
-14 -780 792 0
-781 792 0
-14 -781 793 0
-782 793 0
-14 -782 794 0
-783 794 0
-14 -783 795 0
-784 795 0
-14 -784 796 0
-785 796 0
-14 -785 0
-15 797 0
-786 797 0
-15 -786 798 0
-787 798 0
-15 -787 799 0
-788 799 0
-15 -788 800 0
-789 800 0
-15 -789 801 0
-790 801 0
-15 -790 802 0
-791 802 0
-15 -791 803 0
-792 803 0
-15 -792 804 0
-793 804 0
-15 -793 805 0
-794 805 0
-15 -794 806 0
-795 806 0
-15 -795 807 0
-796 807 0
-15 -796 0
-16 808 0
-797 808 0
-16 -797 809 0
-798 809 0
-16 -798 810 0
-799 810 0
-16 -799 811 0
-800 811 0
-16 -800 812 0
-801 812 0
-16 -801 813 0
-802 813 0
-16 -802 814 0
-803 814 0
-16 -803 815 0
-804 815 0
-16 -804 816 0
-805 816 0
-16 -805 817 0
-806 817 0
-16 -806 818 0
-807 818 0
-16 -807 0
-17 819 0
-808 819 0
-17 -808 820 0
-809 820 0
-17 -809 821 0
-810 821 0
-17 -810 822 0
-811 822 0
-17 -811 823 0
-812 823 0
-17 -812 824 0
-813 824 0
-17 -813 825 0
-814 825 0
-17 -814 826 0
-815 826 0
-17 -815 827 0
-816 827 0
-17 -816 828 0
-817 828 0
-17 -817 829 0
-818 829 0
-17 -818 0
-18 830 0
-819 830 0
-18 -819 831 0
-820 831 0
-18 -820 832 0
-821 832 0
-18 -821 833 0
-822 833 0
-18 -822 834 0
-823 834 0
-18 -823 835 0
-824 835 0
-18 -824 836 0
-825 836 0
-18 -825 837 0
-826 837 0
-18 -826 838 0
-827 838 0
-18 -827 839 0
-828 839 0
-18 -828 840 0
-829 840 0
-18 -829 0
-19 841 0
-830 841 0
-19 -830 842 0
-831 842 0
-19 -831 843 0
-832 843 0
-19 -832 844 0
-833 844 0
-19 -833 845 0
-834 845 0
-19 -834 846 0
-835 846 0
-19 -835 847 0
-836 847 0
-19 -836 848 0
-837 848 0
-19 -837 849 0
-838 849 0
-19 -838 850 0
-839 850 0
-19 -839 851 0
-840 851 0
-19 -840 0
-20 852 0
-841 852 0
-20 -841 853 0
-842 853 0
-20 -842 854 0
-843 854 0
-20 -843 855 0
-844 855 0
-20 -844 856 0
-845 856 0
-20 -845 857 0
-846 857 0
-20 -846 858 0
-847 858 0
-20 -847 859 0
-848 859 0
-20 -848 860 0
-849 860 0
-20 -849 861 0
-850 861 0
-20 -850 862 0
-851 862 0
-20 -851 0
-21 863 0
-852 863 0
-21 -852 864 0
-853 864 0
-21 -853 865 0
-854 865 0
-21 -854 866 0
-855 866 0
-21 -855 867 0
-856 867 0
-21 -856 868 0
-857 868 0
-21 -857 869 0
-858 869 0
-21 -858 870 0
-859 870 0
-21 -859 871 0
-860 871 0
-21 -860 872 0
-861 872 0
-21 -861 873 0
-862 873 0
-21 -862 0
-22 874 0
-863 874 0
-22 -863 875 0
-864 875 0
-22 -864 876 0
-865 876 0
-22 -865 877 0
-866 877 0
-22 -866 878 0
-867 878 0
-22 -867 879 0
-868 879 0
-22 -868 880 0
-869 880 0
-22 -869 881 0
-870 881 0
-22 -870 882 0
-871 882 0
-22 -871 883 0
-872 883 0
-22 -872 884 0
-873 884 0
-22 -873 0
-23 885 0
-874 885 0
-23 -874 886 0
-875 886 0
-23 -875 887 0
-876 887 0
-23 -876 888 0
-877 888 0
-23 -877 889 0
-878 889 0
-23 -878 890 0
-879 890 0
-23 -879 891 0
-880 891 0
-23 -880 892 0
-881 892 0
-23 -881 893 0
-882 893 0
-23 -882 894 0
-883 894 0
-23 -883 895 0
-884 895 0
-23 -884 0
-24 896 0
-885 896 0
-24 -885 897 0
-886 897 0
-24 -886 898 0
-887 898 0
-24 -887 899 0
-888 899 0
-24 -888 900 0
-889 900 0
-24 -889 901 0
-890 901 0
-24 -890 902 0
-891 902 0
-24 -891 903 0
-892 903 0
-24 -892 904 0
-893 904 0
-24 -893 905 0
-894 905 0
-24 -894 906 0
-895 906 0
-24 -895 0
-25 907 0
-896 907 0
-25 -896 908 0
-897 908 0
-25 -897 909 0
-898 909 0
-25 -898 910 0
-899 910 0
-25 -899 911 0
-900 911 0
-25 -900 912 0
-901 912 0
-25 -901 913 0
-902 913 0
-25 -902 914 0
-903 914 0
-25 -903 915 0
-904 915 0
-25 -904 916 0
-905 916 0
-25 -905 917 0
-906 917 0
-25 -906 0
-26 918 0
-907 918 0
-26 -907 919 0
-908 919 0
-26 -908 920 0
-909 920 0
-26 -909 921 0
-910 921 0
-26 -910 922 0
-911 922 0
-26 -911 923 0
-912 923 0
-26 -912 924 0
-913 924 0
-26 -913 925 0
-914 925 0
-26 -914 926 0
-915 926 0
-26 -915 927 0
-916 927 0
-26 -916 928 0
-917 928 0
-26 -917 0
-27 929 0
-918 929 0
-27 -918 930 0
-919 930 0
-27 -919 931 0
-920 931 0
-27 -920 932 0
-921 932 0
-27 -921 933 0
-922 933 0
-27 -922 934 0
-923 934 0
-27 -923 935 0
-924 935 0
-27 -924 936 0
-925 936 0
-27 -925 937 0
-926 937 0
-27 -926 938 0
-927 938 0
-27 -927 939 0
-928 939 0
-27 -928 0
-28 940 0
-929 940 0
-28 -929 941 0
-930 941 0
-28 -930 942 0
-931 942 0
-28 -931 943 0
-932 943 0
-28 -932 944 0
-933 944 0
-28 -933 945 0
-934 945 0
-28 -934 946 0
-935 946 0
-28 -935 947 0
-936 947 0
-28 -936 948 0
-937 948 0
-28 -937 949 0
-938 949 0
-28 -938 950 0
-939 950 0
-28 -939 0
-29 951 0
-940 951 0
-29 -940 952 0
-941 952 0
-29 -941 953 0
-942 953 0
-29 -942 954 0
-943 954 0
-29 -943 955 0
-944 955 0
-29 -944 956 0
-945 956 0
-29 -945 957 0
-946 957 0
-29 -946 958 0
-947 958 0
-29 -947 959 0
-948 959 0
-29 -948 960 0
-949 960 0
-29 -949 961 0
-950 961 0
-29 -950 0
-30 962 0
-951 962 0
-30 -951 963 0
-952 963 0
-30 -952 964 0
-953 964 0
-30 -953 965 0
-954 965 0
-30 -954 966 0
-955 966 0
-30 -955 967 0
-956 967 0
-30 -956 968 0
-957 968 0
-30 -957 969 0
-958 969 0
-30 -958 970 0
-959 970 0
-30 -959 971 0
-960 971 0
-30 -960 972 0
-961 972 0
-30 -961 0
-31 973 0
-962 973 0
-31 -962 974 0
-963 974 0
-31 -963 975 0
-964 975 0
-31 -964 976 0
-965 976 0
-31 -965 977 0
-966 977 0
-31 -966 978 0
-967 978 0
-31 -967 979 0
-968 979 0
-31 -968 980 0
-969 980 0
-31 -969 981 0
-970 981 0
-31 -970 982 0
-971 982 0
-31 -971 983 0
-972 983 0
-31 -972 0
-32 984 0
-973 984 0
-32 -973 985 0
-974 985 0
-32 -974 986 0
-975 986 0
-32 -975 987 0
-976 987 0
-32 -976 988 0
-977 988 0
-32 -977 989 0
-978 989 0
-32 -978 990 0
-979 990 0
-32 -979 991 0
-980 991 0
-32 -980 992 0
-981 992 0
-32 -981 993 0
-982 993 0
-32 -982 994 0
-983 994 0
-32 -983 0
-33 995 0
-984 995 0
-33 -984 996 0
-985 996 0
-33 -985 997 0
-986 997 0
-33 -986 998 0
-987 998 0
-33 -987 999 0
-988 999 0
-33 -988 1000 0
-989 1000 0
-33 -989 1001 0
-990 1001 0
-33 -990 1002 0
-991 1002 0
-33 -991 1003 0
-992 1003 0
-33 -992 1004 0
-993 1004 0
-33 -993 1005 0
-994 1005 0
-33 -994 0
-34 1006 0
-995 1006 0
-34 -995 1007 0
-996 1007 0
-34 -996 1008 0
-997 1008 0
-34 -997 1009 0
-998 1009 0
-34 -998 1010 0
-999 1010 0
-34 -999 1011 0
-1000 1011 0
-34 -1000 1012 0
-1001 1012 0
-34 -1001 1013 0
-1002 1013 0
-34 -1002 1014 0
-1003 1014 0
-34 -1003 1015 0
-1004 1015 0
-34 -1004 1016 0
-1005 1016 0
-34 -1005 0
-35 1017 0
-1006 1017 0
-35 -1006 1018 0
-1007 1018 0
-35 -1007 1019 0
-1008 1019 0
-35 -1008 1020 0
-1009 1020 0
-35 -1009 1021 0
-1010 1021 0
-35 -1010 1022 0
-1011 1022 0
-35 -1011 1023 0
-1012 1023 0
-35 -1012 1024 0
-1013 1024 0
-35 -1013 1025 0
-1014 1025 0
-35 -1014 1026 0
-1015 1026 0
-35 -1015 1027 0
-1016 1027 0
-35 -1016 0
-36 1028 0
-1017 1028 0
-36 -1017 1029 0
-1018 1029 0
-36 -1018 1030 0
-1019 1030 0
-36 -1019 1031 0
-1020 1031 0
-36 -1020 1032 0
-1021 1032 0
-36 -1021 1033 0
-1022 1033 0
-36 -1022 1034 0
-1023 1034 0
-36 -1023 1035 0
-1024 1035 0
-36 -1024 1036 0
-1025 1036 0
-36 -1025 1037 0
-1026 1037 0
-36 -1026 1038 0
-1027 1038 0
-36 -1027 0
-37 1039 0
-1028 1039 0
-37 -1028 1040 0
-1029 1040 0
-37 -1029 1041 0
-1030 1041 0
-37 -1030 1042 0
-1031 1042 0
-37 -1031 1043 0
-1032 1043 0
-37 -1032 1044 0
-1033 1044 0
-37 -1033 1045 0
-1034 1045 0
-37 -1034 1046 0
-1035 1046 0
-37 -1035 1047 0
-1036 1047 0
-37 -1036 1048 0
-1037 1048 0
-37 -1037 1049 0
-1038 1049 0
-37 -1038 0
-38 1050 0
-1039 1050 0
-38 -1039 1051 0
-1040 1051 0
-38 -1040 1052 0
-1041 1052 0
-38 -1041 1053 0
-1042 1053 0
-38 -1042 1054 0
-1043 1054 0
-38 -1043 1055 0
-1044 1055 0
-38 -1044 1056 0
-1045 1056 0
-38 -1045 1057 0
-1046 1057 0
-38 -1046 1058 0
-1047 1058 0
-38 -1047 1059 0
-1048 1059 0
-38 -1048 1060 0
-1049 1060 0
-38 -1049 0
-39 1061 0
-1050 1061 0
-39 -1050 1062 0
-1051 1062 0
-39 -1051 1063 0
-1052 1063 0
-39 -1052 1064 0
-1053 1064 0
-39 -1053 1065 0
-1054 1065 0
-39 -1054 1066 0
-1055 1066 0
-39 -1055 1067 0
-1056 1067 0
-39 -1056 1068 0
-1057 1068 0
-39 -1057 1069 0
-1058 1069 0
-39 -1058 1070 0
-1059 1070 0
-39 -1059 1071 0
-1060 1071 0
-39 -1060 0
-40 1072 0
-1061 1072 0
-40 -1061 1073 0
-1062 1073 0
-40 -1062 1074 0
-1063 1074 0
-40 -1063 1075 0
-1064 1075 0
-40 -1064 1076 0
-1065 1076 0
-40 -1065 1077 0
-1066 1077 0
-40 -1066 1078 0
-1067 1078 0
-40 -1067 1079 0
-1068 1079 0
-40 -1068 1080 0
-1069 1080 0
-40 -1069 1081 0
-1070 1081 0
-40 -1070 1082 0
-1071 1082 0
-40 -1071 0
-41 1083 0
-1072 1083 0
-41 -1072 1084 0
-1073 1084 0
-41 -1073 1085 0
-1074 1085 0
-41 -1074 1086 0
-1075 1086 0
-41 -1075 1087 0
-1076 1087 0
-41 -1076 1088 0
-1077 1088 0
-41 -1077 1089 0
-1078 1089 0
-41 -1078 1090 0
-1079 1090 0
-41 -1079 1091 0
-1080 1091 0
-41 -1080 1092 0
-1081 1092 0
-41 -1081 1093 0
-1082 1093 0
-41 -1082 0
-42 1094 0
-1083 1094 0
-42 -1083 1095 0
-1084 1095 0
-42 -1084 1096 0
-1085 1096 0
-42 -1085 1097 0
-1086 1097 0
-42 -1086 1098 0
-1087 1098 0
-42 -1087 1099 0
-1088 1099 0
-42 -1088 1100 0
-1089 1100 0
-42 -1089 1101 0
-1090 1101 0
-42 -1090 1102 0
-1091 1102 0
-42 -1091 1103 0
-1092 1103 0
-42 -1092 1104 0
-1093 1104 0
-42 -1093 0
-43 1105 0
-1094 1105 0
-43 -1094 1106 0
-1095 1106 0
-43 -1095 1107 0
-1096 1107 0
-43 -1096 1108 0
-1097 1108 0
-43 -1097 1109 0
-1098 1109 0
-43 -1098 1110 0
-1099 1110 0
-43 -1099 1111 0
-1100 1111 0
-43 -1100 1112 0
-1101 1112 0
-43 -1101 1113 0
-1102 1113 0
-43 -1102 1114 0
-1103 1114 0
-43 -1103 1115 0
-1104 1115 0
-43 -1104 0
-44 1116 0
-1105 1116 0
-44 -1105 1117 0
-1106 1117 0
-44 -1106 1118 0
-1107 1118 0
-44 -1107 1119 0
-1108 1119 0
-44 -1108 1120 0
-1109 1120 0
-44 -1109 1121 0
-1110 1121 0
-44 -1110 1122 0
-1111 1122 0
-44 -1111 1123 0
-1112 1123 0
-44 -1112 1124 0
-1113 1124 0
-44 -1113 1125 0
-1114 1125 0
-44 -1114 1126 0
-1115 1126 0
-44 -1115 0
-45 1127 0
-1116 1127 0
-45 -1116 1128 0
-1117 1128 0
-45 -1117 1129 0
-1118 1129 0
-45 -1118 1130 0
-1119 1130 0
-45 -1119 1131 0
-1120 1131 0
-45 -1120 1132 0
-1121 1132 0
-45 -1121 1133 0
-1122 1133 0
-45 -1122 1134 0
-1123 1134 0
-45 -1123 1135 0
-1124 1135 0
-45 -1124 1136 0
-1125 1136 0
-45 -1125 1137 0
-1126 1137 0
-45 -1126 0
-46 1138 0
-1127 1138 0
-46 -1127 1139 0
-1128 1139 0
-46 -1128 1140 0
-1129 1140 0
-46 -1129 1141 0
-1130 1141 0
-46 -1130 1142 0
-1131 1142 0
-46 -1131 1143 0
-1132 1143 0
-46 -1132 1144 0
-1133 1144 0
-46 -1133 1145 0
-1134 1145 0
-46 -1134 1146 0
-1135 1146 0
-46 -1135 1147 0
-1136 1147 0
-46 -1136 1148 0
-1137 1148 0
-46 -1137 0
-47 1149 0
-1138 1149 0
-47 -1138 1150 0
-1139 1150 0
-47 -1139 1151 0
-1140 1151 0
-47 -1140 1152 0
-1141 1152 0
-47 -1141 1153 0
-1142 1153 0
-47 -1142 1154 0
-1143 1154 0
-47 -1143 1155 0
-1144 1155 0
-47 -1144 1156 0
-1145 1156 0
-47 -1145 1157 0
-1146 1157 0
-47 -1146 1158 0
-1147 1158 0
-47 -1147 1159 0
-1148 1159 0
-47 -1148 0
-48 1160 0
-1149 1160 0
-48 -1149 1161 0
-1150 1161 0
-48 -1150 1162 0
-1151 1162 0
-48 -1151 1163 0
-1152 1163 0
-48 -1152 1164 0
-1153 1164 0
-48 -1153 1165 0
-1154 1165 0
-48 -1154 1166 0
-1155 1166 0
-48 -1155 1167 0
-1156 1167 0
-48 -1156 1168 0
-1157 1168 0
-48 -1157 1169 0
-1158 1169 0
-48 -1158 1170 0
-1159 1170 0
-48 -1159 0
-49 1171 0
-1160 1171 0
-49 -1160 1172 0
-1161 1172 0
-49 -1161 1173 0
-1162 1173 0
-49 -1162 1174 0
-1163 1174 0
-49 -1163 1175 0
-1164 1175 0
-49 -1164 1176 0
-1165 1176 0
-49 -1165 1177 0
-1166 1177 0
-49 -1166 1178 0
-1167 1178 0
-49 -1167 1179 0
-1168 1179 0
-49 -1168 1180 0
-1169 1180 0
-49 -1169 1181 0
-1170 1181 0
-49 -1170 0
-50 1182 0
-1171 1182 0
-50 -1171 1183 0
-1172 1183 0
-50 -1172 1184 0
-1173 1184 0
-50 -1173 1185 0
-1174 1185 0
-50 -1174 1186 0
-1175 1186 0
-50 -1175 1187 0
-1176 1187 0
-50 -1176 1188 0
-1177 1188 0
-50 -1177 1189 0
-1178 1189 0
-50 -1178 1190 0
-1179 1190 0
-50 -1179 1191 0
-1180 1191 0
-50 -1180 1192 0
-1181 1192 0
-50 -1181 0
-51 1193 0
-1182 1193 0
-51 -1182 1194 0
-1183 1194 0
-51 -1183 1195 0
-1184 1195 0
-51 -1184 1196 0
-1185 1196 0
-51 -1185 1197 0
-1186 1197 0
-51 -1186 1198 0
-1187 1198 0
-51 -1187 1199 0
-1188 1199 0
-51 -1188 1200 0
-1189 1200 0
-51 -1189 1201 0
-1190 1201 0
-51 -1190 1202 0
-1191 1202 0
-51 -1191 1203 0
-1192 1203 0
-51 -1192 0
-52 1204 0
-1193 1204 0
-52 -1193 1205 0
-1194 1205 0
-52 -1194 1206 0
-1195 1206 0
-52 -1195 1207 0
-1196 1207 0
-52 -1196 1208 0
-1197 1208 0
-52 -1197 1209 0
-1198 1209 0
-52 -1198 1210 0
-1199 1210 0
-52 -1199 1211 0
-1200 1211 0
-52 -1200 1212 0
-1201 1212 0
-52 -1201 1213 0
-1202 1213 0
-52 -1202 1214 0
-1203 1214 0
-52 -1203 0
-53 1215 0
-1204 1215 0
-53 -1204 1216 0
-1205 1216 0
-53 -1205 1217 0
-1206 1217 0
-53 -1206 1218 0
-1207 1218 0
-53 -1207 1219 0
-1208 1219 0
-53 -1208 1220 0
-1209 1220 0
-53 -1209 1221 0
-1210 1221 0
-53 -1210 1222 0
-1211 1222 0
-53 -1211 1223 0
-1212 1223 0
-53 -1212 1224 0
-1213 1224 0
-53 -1213 1225 0
-1214 1225 0
-53 -1214 0
-54 1226 0
-1215 1226 0
-54 -1215 1227 0
-1216 1227 0
-54 -1216 1228 0
-1217 1228 0
-54 -1217 1229 0
-1218 1229 0
-54 -1218 1230 0
-1219 1230 0
-54 -1219 1231 0
-1220 1231 0
-54 -1220 1232 0
-1221 1232 0
-54 -1221 1233 0
-1222 1233 0
-54 -1222 1234 0
-1223 1234 0
-54 -1223 1235 0
-1224 1235 0
-54 -1224 1236 0
-1225 1236 0
-54 -1225 0
-55 1237 0
-1226 1237 0
-55 -1226 1238 0
-1227 1238 0
-55 -1227 1239 0
-1228 1239 0
-55 -1228 1240 0
-1229 1240 0
-55 -1229 1241 0
-1230 1241 0
-55 -1230 1242 0
-1231 1242 0
-55 -1231 1243 0
-1232 1243 0
-55 -1232 1244 0
-1233 1244 0
-55 -1233 1245 0
-1234 1245 0
-55 -1234 1246 0
-1235 1246 0
-55 -1235 1247 0
-1236 1247 0
-55 -1236 0
-56 1248 0
-1237 1248 0
-56 -1237 1249 0
-1238 1249 0
-56 -1238 1250 0
-1239 1250 0
-56 -1239 1251 0
-1240 1251 0
-56 -1240 1252 0
-1241 1252 0
-56 -1241 1253 0
-1242 1253 0
-56 -1242 1254 0
-1243 1254 0
-56 -1243 1255 0
-1244 1255 0
-56 -1244 1256 0
-1245 1256 0
-56 -1245 1257 0
-1246 1257 0
-56 -1246 1258 0
-1247 1258 0
-56 -1247 0
-57 1259 0
-1248 1259 0
-57 -1248 1260 0
-1249 1260 0
-57 -1249 1261 0
-1250 1261 0
-57 -1250 1262 0
-1251 1262 0
-57 -1251 1263 0
-1252 1263 0
-57 -1252 1264 0
-1253 1264 0
-57 -1253 1265 0
-1254 1265 0
-57 -1254 1266 0
-1255 1266 0
-57 -1255 1267 0
-1256 1267 0
-57 -1256 1268 0
-1257 1268 0
-57 -1257 1269 0
-1258 1269 0
-57 -1258 0
-58 1270 0
-1259 1270 0
-58 -1259 1271 0
-1260 1271 0
-58 -1260 1272 0
-1261 1272 0
-58 -1261 1273 0
-1262 1273 0
-58 -1262 1274 0
-1263 1274 0
-58 -1263 1275 0
-1264 1275 0
-58 -1264 1276 0
-1265 1276 0
-58 -1265 1277 0
-1266 1277 0
-58 -1266 1278 0
-1267 1278 0
-58 -1267 1279 0
-1268 1279 0
-58 -1268 1280 0
-1269 1280 0
-58 -1269 0
-59 1281 0
-1270 1281 0
-59 -1270 1282 0
-1271 1282 0
-59 -1271 1283 0
-1272 1283 0
-59 -1272 1284 0
-1273 1284 0
-59 -1273 1285 0
-1274 1285 0
-59 -1274 1286 0
-1275 1286 0
-59 -1275 1287 0
-1276 1287 0
-59 -1276 1288 0
-1277 1288 0
-59 -1277 1289 0
-1278 1289 0
-59 -1278 1290 0
-1279 1290 0
-59 -1279 1291 0
-1280 1291 0
-59 -1280 0
-60 1292 0
-1281 1292 0
-60 -1281 1293 0
-1282 1293 0
-60 -1282 1294 0
-1283 1294 0
-60 -1283 1295 0
-1284 1295 0
-60 -1284 1296 0
-1285 1296 0
-60 -1285 1297 0
-1286 1297 0
-60 -1286 1298 0
-1287 1298 0
-60 -1287 1299 0
-1288 1299 0
-60 -1288 1300 0
-1289 1300 0
-60 -1289 1301 0
-1290 1301 0
-60 -1290 1302 0
-1291 1302 0
-60 -1291 0
-61 1303 0
-1292 1303 0
-61 -1292 1304 0
-1293 1304 0
-61 -1293 1305 0
-1294 1305 0
-61 -1294 1306 0
-1295 1306 0
-61 -1295 1307 0
-1296 1307 0
-61 -1296 1308 0
-1297 1308 0
-61 -1297 1309 0
-1298 1309 0
-61 -1298 1310 0
-1299 1310 0
-61 -1299 1311 0
-1300 1311 0
-61 -1300 1312 0
-1301 1312 0
-61 -1301 1313 0
-1302 1313 0
-61 -1302 0
-62 1314 0
-1303 1314 0
-62 -1303 1315 0
-1304 1315 0
-62 -1304 1316 0
-1305 1316 0
-62 -1305 1317 0
-1306 1317 0
-62 -1306 1318 0
-1307 1318 0
-62 -1307 1319 0
-1308 1319 0
-62 -1308 1320 0
-1309 1320 0
-62 -1309 1321 0
-1310 1321 0
-62 -1310 1322 0
-1311 1322 0
-62 -1311 1323 0
-1312 1323 0
-62 -1312 1324 0
-1313 1324 0
-62 -1313 0
-63 1325 0
-1314 1325 0
-63 -1314 1326 0
-1315 1326 0
-63 -1315 1327 0
-1316 1327 0
-63 -1316 1328 0
-1317 1328 0
-63 -1317 1329 0
-1318 1329 0
-63 -1318 1330 0
-1319 1330 0
-63 -1319 1331 0
-1320 1331 0
-63 -1320 1332 0
-1321 1332 0
-63 -1321 1333 0
-1322 1333 0
-63 -1322 1334 0
-1323 1334 0
-63 -1323 1335 0
-1324 1335 0
-63 -1324 0
-64 1336 0
-1325 1336 0
-64 -1325 1337 0
-1326 1337 0
-64 -1326 1338 0
-1327 1338 0
-64 -1327 1339 0
-1328 1339 0
-64 -1328 1340 0
-1329 1340 0
-64 -1329 1341 0
-1330 1341 0
-64 -1330 1342 0
-1331 1342 0
-64 -1331 1343 0
-1332 1343 0
-64 -1332 1344 0
-1333 1344 0
-64 -1333 1345 0
-1334 1345 0
-64 -1334 1346 0
-1335 1346 0
-64 -1335 0
-65 1347 0
-1336 1347 0
-65 -1336 1348 0
-1337 1348 0
-65 -1337 1349 0
-1338 1349 0
-65 -1338 1350 0
-1339 1350 0
-65 -1339 1351 0
-1340 1351 0
-65 -1340 1352 0
-1341 1352 0
-65 -1341 1353 0
-1342 1353 0
-65 -1342 1354 0
-1343 1354 0
-65 -1343 1355 0
-1344 1355 0
-65 -1344 1356 0
-1345 1356 0
-65 -1345 1357 0
-1346 1357 0
-65 -1346 0
-66 1358 0
-1347 1358 0
-66 -1347 1359 0
-1348 1359 0
-66 -1348 1360 0
-1349 1360 0
-66 -1349 1361 0
-1350 1361 0
-66 -1350 1362 0
-1351 1362 0
-66 -1351 1363 0
-1352 1363 0
-66 -1352 1364 0
-1353 1364 0
-66 -1353 1365 0
-1354 1365 0
-66 -1354 1366 0
-1355 1366 0
-66 -1355 1367 0
-1356 1367 0
-66 -1356 1368 0
-1357 1368 0
-66 -1357 0
-67 1369 0
-1358 1369 0
-67 -1358 1370 0
-1359 1370 0
-67 -1359 1371 0
-1360 1371 0
-67 -1360 1372 0
-1361 1372 0
-67 -1361 1373 0
-1362 1373 0
-67 -1362 1374 0
-1363 1374 0
-67 -1363 1375 0
-1364 1375 0
-67 -1364 1376 0
-1365 1376 0
-67 -1365 1377 0
-1366 1377 0
-67 -1366 1378 0
-1367 1378 0
-67 -1367 1379 0
-1368 1379 0
-67 -1368 0
-68 1380 0
-1369 1380 0
-68 -1369 1381 0
-1370 1381 0
-68 -1370 1382 0
-1371 1382 0
-68 -1371 1383 0
-1372 1383 0
-68 -1372 1384 0
-1373 1384 0
-68 -1373 1385 0
-1374 1385 0
-68 -1374 1386 0
-1375 1386 0
-68 -1375 1387 0
-1376 1387 0
-68 -1376 1388 0
-1377 1388 0
-68 -1377 1389 0
-1378 1389 0
-68 -1378 1390 0
-1379 1390 0
-68 -1379 0
-69 1391 0
-1380 1391 0
-69 -1380 1392 0
-1381 1392 0
-69 -1381 1393 0
-1382 1393 0
-69 -1382 1394 0
-1383 1394 0
-69 -1383 1395 0
-1384 1395 0
-69 -1384 1396 0
-1385 1396 0
-69 -1385 1397 0
-1386 1397 0
-69 -1386 1398 0
-1387 1398 0
-69 -1387 1399 0
-1388 1399 0
-69 -1388 1400 0
-1389 1400 0
-69 -1389 1401 0
-1390 1401 0
-69 -1390 0
-70 1402 0
-1391 1402 0
-70 -1391 1403 0
-1392 1403 0
-70 -1392 1404 0
-1393 1404 0
-70 -1393 1405 0
-1394 1405 0
-70 -1394 1406 0
-1395 1406 0
-70 -1395 1407 0
-1396 1407 0
-70 -1396 1408 0
-1397 1408 0
-70 -1397 1409 0
-1398 1409 0
-70 -1398 1410 0
-1399 1410 0
-70 -1399 1411 0
-1400 1411 0
-70 -1400 1412 0
-1401 1412 0
-70 -1401 0
-71 1413 0
-1402 1413 0
-71 -1402 1414 0
-1403 1414 0
-71 -1403 1415 0
-1404 1415 0
-71 -1404 1416 0
-1405 1416 0
-71 -1405 1417 0
-1406 1417 0
-71 -1406 1418 0
-1407 1418 0
-71 -1407 1419 0
-1408 1419 0
-71 -1408 1420 0
-1409 1420 0
-71 -1409 1421 0
-1410 1421 0
-71 -1410 1422 0
-1411 1422 0
-71 -1411 1423 0
-1412 1423 0
-71 -1412 0
-72 1424 0
-1413 1424 0
-72 -1413 1425 0
-1414 1425 0
-72 -1414 1426 0
-1415 1426 0
-72 -1415 1427 0
-1416 1427 0
-72 -1416 1428 0
-1417 1428 0
-72 -1417 1429 0
-1418 1429 0
-72 -1418 1430 0
-1419 1430 0
-72 -1419 1431 0
-1420 1431 0
-72 -1420 1432 0
-1421 1432 0
-72 -1421 1433 0
-1422 1433 0
-72 -1422 1434 0
-1423 1434 0
-72 -1423 0
-73 1435 0
-1424 1435 0
-73 -1424 1436 0
-1425 1436 0
-73 -1425 1437 0
-1426 1437 0
-73 -1426 1438 0
-1427 1438 0
-73 -1427 1439 0
-1428 1439 0
-73 -1428 1440 0
-1429 1440 0
-73 -1429 1441 0
-1430 1441 0
-73 -1430 1442 0
-1431 1442 0
-73 -1431 1443 0
-1432 1443 0
-73 -1432 1444 0
-1433 1444 0
-73 -1433 1445 0
-1434 1445 0
-73 -1434 0
-74 1446 0
-1435 1446 0
-74 -1435 1447 0
-1436 1447 0
-74 -1436 1448 0
-1437 1448 0
-74 -1437 1449 0
-1438 1449 0
-74 -1438 1450 0
-1439 1450 0
-74 -1439 1451 0
-1440 1451 0
-74 -1440 1452 0
-1441 1452 0
-74 -1441 1453 0
-1442 1453 0
-74 -1442 1454 0
-1443 1454 0
-74 -1443 1455 0
-1444 1455 0
-74 -1444 1456 0
-1445 1456 0
-74 -1445 0
-75 1457 0
-1446 1457 0
-75 -1446 1458 0
-1447 1458 0
-75 -1447 1459 0
-1448 1459 0
-75 -1448 1460 0
-1449 1460 0
-75 -1449 1461 0
-1450 1461 0
-75 -1450 1462 0
-1451 1462 0
-75 -1451 1463 0
-1452 1463 0
-75 -1452 1464 0
-1453 1464 0
-75 -1453 1465 0
-1454 1465 0
-75 -1454 1466 0
-1455 1466 0
-75 -1455 1467 0
-1456 1467 0
-75 -1456 0
-76 1468 0
-1457 1468 0
-76 -1457 1469 0
-1458 1469 0
-76 -1458 1470 0
-1459 1470 0
-76 -1459 1471 0
-1460 1471 0
-76 -1460 1472 0
-1461 1472 0
-76 -1461 1473 0
-1462 1473 0
-76 -1462 1474 0
-1463 1474 0
-76 -1463 1475 0
-1464 1475 0
-76 -1464 1476 0
-1465 1476 0
-76 -1465 1477 0
-1466 1477 0
-76 -1466 1478 0
-1467 1478 0
-76 -1467 0
-77 1479 0
-1468 1479 0
-77 -1468 1480 0
-1469 1480 0
-77 -1469 1481 0
-1470 1481 0
-77 -1470 1482 0
-1471 1482 0
-77 -1471 1483 0
-1472 1483 0
-77 -1472 1484 0
-1473 1484 0
-77 -1473 1485 0
-1474 1485 0
-77 -1474 1486 0
-1475 1486 0
-77 -1475 1487 0
-1476 1487 0
-77 -1476 1488 0
-1477 1488 0
-77 -1477 1489 0
-1478 1489 0
-77 -1478 0
-78 1490 0
-1479 1490 0
-78 -1479 1491 0
-1480 1491 0
-78 -1480 1492 0
-1481 1492 0
-78 -1481 1493 0
-1482 1493 0
-78 -1482 1494 0
-1483 1494 0
-78 -1483 1495 0
-1484 1495 0
-78 -1484 1496 0
-1485 1496 0
-78 -1485 1497 0
-1486 1497 0
-78 -1486 1498 0
-1487 1498 0
-78 -1487 1499 0
-1488 1499 0
-78 -1488 1500 0
-1489 1500 0
-78 -1489 0
-79 1501 0
-1490 1501 0
-79 -1490 1502 0
-1491 1502 0
-79 -1491 1503 0
-1492 1503 0
-79 -1492 1504 0
-1493 1504 0
-79 -1493 1505 0
-1494 1505 0
-79 -1494 1506 0
-1495 1506 0
-79 -1495 1507 0
-1496 1507 0
-79 -1496 1508 0
-1497 1508 0
-79 -1497 1509 0
-1498 1509 0
-79 -1498 1510 0
-1499 1510 0
-79 -1499 1511 0
-1500 1511 0
-79 -1500 0
-80 1512 0
-1501 1512 0
-80 -1501 1513 0
-1502 1513 0
-80 -1502 1514 0
-1503 1514 0
-80 -1503 1515 0
-1504 1515 0
-80 -1504 1516 0
-1505 1516 0
-80 -1505 1517 0
-1506 1517 0
-80 -1506 1518 0
-1507 1518 0
-80 -1507 1519 0
-1508 1519 0
-80 -1508 1520 0
-1509 1520 0
-80 -1509 1521 0
-1510 1521 0
-80 -1510 1522 0
-1511 1522 0
-80 -1511 0
-81 1523 0
-1512 1523 0
-81 -1512 1524 0
-1513 1524 0
-81 -1513 1525 0
-1514 1525 0
-81 -1514 1526 0
-1515 1526 0
-81 -1515 1527 0
-1516 1527 0
-81 -1516 1528 0
-1517 1528 0
-81 -1517 1529 0
-1518 1529 0
-81 -1518 1530 0
-1519 1530 0
-81 -1519 1531 0
-1520 1531 0
-81 -1520 1532 0
-1521 1532 0
-81 -1521 1533 0
-1522 1533 0
-81 -1522 0
-82 1534 0
-1523 1534 0
-82 -1523 1535 0
-1524 1535 0
-82 -1524 1536 0
-1525 1536 0
-82 -1525 1537 0
-1526 1537 0
-82 -1526 1538 0
-1527 1538 0
-82 -1527 1539 0
-1528 1539 0
-82 -1528 1540 0
-1529 1540 0
-82 -1529 1541 0
-1530 1541 0
-82 -1530 1542 0
-1531 1542 0
-82 -1531 1543 0
-1532 1543 0
-82 -1532 1544 0
-1533 1544 0
-82 -1533 0
-83 1545 0
-1534 1545 0
-83 -1534 1546 0
-1535 1546 0
-83 -1535 1547 0
-1536 1547 0
-83 -1536 1548 0
-1537 1548 0
-83 -1537 1549 0
-1538 1549 0
-83 -1538 1550 0
-1539 1550 0
-83 -1539 1551 0
-1540 1551 0
-83 -1540 1552 0
-1541 1552 0
-83 -1541 1553 0
-1542 1553 0
-83 -1542 1554 0
-1543 1554 0
-83 -1543 1555 0
-1544 1555 0
-83 -1544 0
-84 1556 0
-1545 1556 0
-84 -1545 1557 0
-1546 1557 0
-84 -1546 1558 0
-1547 1558 0
-84 -1547 1559 0
-1548 1559 0
-84 -1548 1560 0
-1549 1560 0
-84 -1549 1561 0
-1550 1561 0
-84 -1550 1562 0
-1551 1562 0
-84 -1551 1563 0
-1552 1563 0
-84 -1552 1564 0
-1553 1564 0
-84 -1553 1565 0
-1554 1565 0
-84 -1554 1566 0
-1555 1566 0
-84 -1555 0
-85 1567 0
-1556 1567 0
-85 -1556 1568 0
-1557 1568 0
-85 -1557 1569 0
-1558 1569 0
-85 -1558 1570 0
-1559 1570 0
-85 -1559 1571 0
-1560 1571 0
-85 -1560 1572 0
-1561 1572 0
-85 -1561 1573 0
-1562 1573 0
-85 -1562 1574 0
-1563 1574 0
-85 -1563 1575 0
-1564 1575 0
-85 -1564 1576 0
-1565 1576 0
-85 -1565 1577 0
-1566 1577 0
-85 -1566 0
-86 1578 0
-1567 1578 0
-86 -1567 1579 0
-1568 1579 0
-86 -1568 1580 0
-1569 1580 0
-86 -1569 1581 0
-1570 1581 0
-86 -1570 1582 0
-1571 1582 0
-86 -1571 1583 0
-1572 1583 0
-86 -1572 1584 0
-1573 1584 0
-86 -1573 1585 0
-1574 1585 0
-86 -1574 1586 0
-1575 1586 0
-86 -1575 1587 0
-1576 1587 0
-86 -1576 1588 0
-1577 1588 0
-86 -1577 0
-87 1589 0
-1578 1589 0
-87 -1578 1590 0
-1579 1590 0
-87 -1579 1591 0
-1580 1591 0
-87 -1580 1592 0
-1581 1592 0
-87 -1581 1593 0
-1582 1593 0
-87 -1582 1594 0
-1583 1594 0
-87 -1583 1595 0
-1584 1595 0
-87 -1584 1596 0
-1585 1596 0
-87 -1585 1597 0
-1586 1597 0
-87 -1586 1598 0
-1587 1598 0
-87 -1587 1599 0
-1588 1599 0
-87 -1588 0
-88 1600 0
-1589 1600 0
-88 -1589 1601 0
-1590 1601 0
-88 -1590 1602 0
-1591 1602 0
-88 -1591 1603 0
-1592 1603 0
-88 -1592 1604 0
-1593 1604 0
-88 -1593 1605 0
-1594 1605 0
-88 -1594 1606 0
-1595 1606 0
-88 -1595 1607 0
-1596 1607 0
-88 -1596 1608 0
-1597 1608 0
-88 -1597 1609 0
-1598 1609 0
-88 -1598 1610 0
-1599 1610 0
-88 -1599 0
-89 1611 0
-1600 1611 0
-89 -1600 1612 0
-1601 1612 0
-89 -1601 1613 0
-1602 1613 0
-89 -1602 1614 0
-1603 1614 0
-89 -1603 1615 0
-1604 1615 0
-89 -1604 1616 0
-1605 1616 0
-89 -1605 1617 0
-1606 1617 0
-89 -1606 1618 0
-1607 1618 0
-89 -1607 1619 0
-1608 1619 0
-89 -1608 1620 0
-1609 1620 0
-89 -1609 1621 0
-1610 1621 0
-89 -1610 0
-90 1622 0
-1611 1622 0
-90 -1611 1623 0
-1612 1623 0
-90 -1612 1624 0
-1613 1624 0
-90 -1613 1625 0
-1614 1625 0
-90 -1614 1626 0
-1615 1626 0
-90 -1615 1627 0
-1616 1627 0
-90 -1616 1628 0
-1617 1628 0
-90 -1617 1629 0
-1618 1629 0
-90 -1618 1630 0
-1619 1630 0
-90 -1619 1631 0
-1620 1631 0
-90 -1620 1632 0
-1621 1632 0
-90 -1621 0
-91 1633 0
-1622 1633 0
-91 -1622 1634 0
-1623 1634 0
-91 -1623 1635 0
-1624 1635 0
-91 -1624 1636 0
-1625 1636 0
-91 -1625 1637 0
-1626 1637 0
-91 -1626 1638 0
-1627 1638 0
-91 -1627 1639 0
-1628 1639 0
-91 -1628 1640 0
-1629 1640 0
-91 -1629 1641 0
-1630 1641 0
-91 -1630 1642 0
-1631 1642 0
-91 -1631 1643 0
-1632 1643 0
-91 -1632 0
-92 1644 0
-1633 1644 0
-92 -1633 1645 0
-1634 1645 0
-92 -1634 1646 0
-1635 1646 0
-92 -1635 1647 0
-1636 1647 0
-92 -1636 1648 0
-1637 1648 0
-92 -1637 1649 0
-1638 1649 0
-92 -1638 1650 0
-1639 1650 0
-92 -1639 1651 0
-1640 1651 0
-92 -1640 1652 0
-1641 1652 0
-92 -1641 1653 0
-1642 1653 0
-92 -1642 1654 0
-1643 1654 0
-92 -1643 0
-93 1655 0
-1644 1655 0
-93 -1644 1656 0
-1645 1656 0
-93 -1645 1657 0
-1646 1657 0
-93 -1646 1658 0
-1647 1658 0
-93 -1647 1659 0
-1648 1659 0
-93 -1648 1660 0
-1649 1660 0
-93 -1649 1661 0
-1650 1661 0
-93 -1650 1662 0
-1651 1662 0
-93 -1651 1663 0
-1652 1663 0
-93 -1652 1664 0
-1653 1664 0
-93 -1653 1665 0
-1654 1665 0
-93 -1654 0
-94 1666 0
-1655 1666 0
-94 -1655 1667 0
-1656 1667 0
-94 -1656 1668 0
-1657 1668 0
-94 -1657 1669 0
-1658 1669 0
-94 -1658 1670 0
-1659 1670 0
-94 -1659 1671 0
-1660 1671 0
-94 -1660 1672 0
-1661 1672 0
-94 -1661 1673 0
-1662 1673 0
-94 -1662 1674 0
-1663 1674 0
-94 -1663 1675 0
-1664 1675 0
-94 -1664 1676 0
-1665 1676 0
-94 -1665 0
-95 1677 0
-1666 1677 0
-95 -1666 1678 0
-1667 1678 0
-95 -1667 1679 0
-1668 1679 0
-95 -1668 1680 0
-1669 1680 0
-95 -1669 1681 0
-1670 1681 0
-95 -1670 1682 0
-1671 1682 0
-95 -1671 1683 0
-1672 1683 0
-95 -1672 1684 0
-1673 1684 0
-95 -1673 1685 0
-1674 1685 0
-95 -1674 1686 0
-1675 1686 0
-95 -1675 1687 0
-1676 1687 0
-95 -1676 0
-96 1688 0
-1677 1688 0
-96 -1677 1689 0
-1678 1689 0
-96 -1678 1690 0
-1679 1690 0
-96 -1679 1691 0
-1680 1691 0
-96 -1680 1692 0
-1681 1692 0
-96 -1681 1693 0
-1682 1693 0
-96 -1682 1694 0
-1683 1694 0
-96 -1683 1695 0
-1684 1695 0
-96 -1684 1696 0
-1685 1696 0
-96 -1685 1697 0
-1686 1697 0
-96 -1686 1698 0
-1687 1698 0
-96 -1687 0
-97 1699 0
-1688 1699 0
-97 -1688 1700 0
-1689 1700 0
-97 -1689 1701 0
-1690 1701 0
-97 -1690 1702 0
-1691 1702 0
-97 -1691 1703 0
-1692 1703 0
-97 -1692 1704 0
-1693 1704 0
-97 -1693 1705 0
-1694 1705 0
-97 -1694 1706 0
-1695 1706 0
-97 -1695 1707 0
-1696 1707 0
-97 -1696 1708 0
-1697 1708 0
-97 -1697 1709 0
-1698 1709 0
-97 -1698 0
-98 1710 0
-1699 1710 0
-98 -1699 1711 0
-1700 1711 0
-98 -1700 1712 0
-1701 1712 0
-98 -1701 1713 0
-1702 1713 0
-98 -1702 1714 0
-1703 1714 0
-98 -1703 1715 0
-1704 1715 0
-98 -1704 1716 0
-1705 1716 0
-98 -1705 1717 0
-1706 1717 0
-98 -1706 1718 0
-1707 1718 0
-98 -1707 1719 0
-1708 1719 0
-98 -1708 1720 0
-1709 1720 0
-98 -1709 0
-99 1721 0
-1710 1721 0
-99 -1710 1722 0
-1711 1722 0
-99 -1711 1723 0
-1712 1723 0
-99 -1712 1724 0
-1713 1724 0
-99 -1713 1725 0
-1714 1725 0
-99 -1714 1726 0
-1715 1726 0
-99 -1715 1727 0
-1716 1727 0
-99 -1716 1728 0
-1717 1728 0
-99 -1717 1729 0
-1718 1729 0
-99 -1718 1730 0
-1719 1730 0
-99 -1719 1731 0
-1720 1731 0
-99 -1720 0
-100 1732 0
-1721 1732 0
-100 -1721 1733 0
-1722 1733 0
-100 -1722 1734 0
-1723 1734 0
-100 -1723 1735 0
-1724 1735 0
-100 -1724 1736 0
-1725 1736 0
-100 -1725 1737 0
-1726 1737 0
-100 -1726 1738 0
-1727 1738 0
-100 -1727 1739 0
-1728 1739 0
-100 -1728 1740 0
-1729 1740 0
-100 -1729 1741 0
-1730 1741 0
-100 -1730 1742 0
-1731 1742 0
-100 -1731 0
-101 1743 0
-1732 1743 0
-101 -1732 1744 0
-1733 1744 0
-101 -1733 1745 0
-1734 1745 0
-101 -1734 1746 0
-1735 1746 0
-101 -1735 1747 0
-1736 1747 0
-101 -1736 1748 0
-1737 1748 0
-101 -1737 1749 0
-1738 1749 0
-101 -1738 1750 0
-1739 1750 0
-101 -1739 1751 0
-1740 1751 0
-101 -1740 1752 0
-1741 1752 0
-101 -1741 1753 0
-1742 1753 0
-101 -1742 0
-102 1754 0
-1743 1754 0
-102 -1743 1755 0
-1744 1755 0
-102 -1744 1756 0
-1745 1756 0
-102 -1745 1757 0
-1746 1757 0
-102 -1746 1758 0
-1747 1758 0
-102 -1747 1759 0
-1748 1759 0
-102 -1748 1760 0
-1749 1760 0
-102 -1749 1761 0
-1750 1761 0
-102 -1750 1762 0
-1751 1762 0
-102 -1751 1763 0
-1752 1763 0
-102 -1752 1764 0
-1753 1764 0
-102 -1753 0
-103 1765 0
-1754 1765 0
-103 -1754 1766 0
-1755 1766 0
-103 -1755 1767 0
-1756 1767 0
-103 -1756 1768 0
-1757 1768 0
-103 -1757 1769 0
-1758 1769 0
-103 -1758 1770 0
-1759 1770 0
-103 -1759 1771 0
-1760 1771 0
-103 -1760 1772 0
-1761 1772 0
-103 -1761 1773 0
-1762 1773 0
-103 -1762 1774 0
-1763 1774 0
-103 -1763 1775 0
-1764 1775 0
-103 -1764 0
-104 1776 0
-1765 1776 0
-104 -1765 1777 0
-1766 1777 0
-104 -1766 1778 0
-1767 1778 0
-104 -1767 1779 0
-1768 1779 0
-104 -1768 1780 0
-1769 1780 0
-104 -1769 1781 0
-1770 1781 0
-104 -1770 1782 0
-1771 1782 0
-104 -1771 1783 0
-1772 1783 0
-104 -1772 1784 0
-1773 1784 0
-104 -1773 1785 0
-1774 1785 0
-104 -1774 1786 0
-1775 1786 0
-104 -1775 0
-105 1787 0
-1776 1787 0
-105 -1776 1788 0
-1777 1788 0
-105 -1777 1789 0
-1778 1789 0
-105 -1778 1790 0
-1779 1790 0
-105 -1779 1791 0
-1780 1791 0
-105 -1780 1792 0
-1781 1792 0
-105 -1781 1793 0
-1782 1793 0
-105 -1782 1794 0
-1783 1794 0
-105 -1783 1795 0
-1784 1795 0
-105 -1784 1796 0
-1785 1796 0
-105 -1785 1797 0
-1786 1797 0
-105 -1786 0
-106 1798 0
-1787 1798 0
-106 -1787 1799 0
-1788 1799 0
-106 -1788 1800 0
-1789 1800 0
-106 -1789 1801 0
-1790 1801 0
-106 -1790 1802 0
-1791 1802 0
-106 -1791 1803 0
-1792 1803 0
-106 -1792 1804 0
-1793 1804 0
-106 -1793 1805 0
-1794 1805 0
-106 -1794 1806 0
-1795 1806 0
-106 -1795 1807 0
-1796 1807 0
-106 -1796 1808 0
-1797 1808 0
-106 -1797 0
-107 1809 0
-1798 1809 0
-107 -1798 1810 0
-1799 1810 0
-107 -1799 1811 0
-1800 1811 0
-107 -1800 1812 0
-1801 1812 0
-107 -1801 1813 0
-1802 1813 0
-107 -1802 1814 0
-1803 1814 0
-107 -1803 1815 0
-1804 1815 0
-107 -1804 1816 0
-1805 1816 0
-107 -1805 1817 0
-1806 1817 0
-107 -1806 1818 0
-1807 1818 0
-107 -1807 1819 0
-1808 1819 0
-107 -1808 0
-108 1820 0
-1809 1820 0
-108 -1809 1821 0
-1810 1821 0
-108 -1810 1822 0
-1811 1822 0
-108 -1811 1823 0
-1812 1823 0
-108 -1812 1824 0
-1813 1824 0
-108 -1813 1825 0
-1814 1825 0
-108 -1814 1826 0
-1815 1826 0
-108 -1815 1827 0
-1816 1827 0
-108 -1816 1828 0
-1817 1828 0
-108 -1817 1829 0
-1818 1829 0
-108 -1818 1830 0
-1819 1830 0
-108 -1819 0
-109 1831 0
-1820 1831 0
-109 -1820 1832 0
-1821 1832 0
-109 -1821 1833 0
-1822 1833 0
-109 -1822 1834 0
-1823 1834 0
-109 -1823 1835 0
-1824 1835 0
-109 -1824 1836 0
-1825 1836 0
-109 -1825 1837 0
-1826 1837 0
-109 -1826 1838 0
-1827 1838 0
-109 -1827 1839 0
-1828 1839 0
-109 -1828 1840 0
-1829 1840 0
-109 -1829 1841 0
-1830 1841 0
-109 -1830 0
-110 1842 0
-1831 1842 0
-110 -1831 1843 0
-1832 1843 0
-110 -1832 1844 0
-1833 1844 0
-110 -1833 1845 0
-1834 1845 0
-110 -1834 1846 0
-1835 1846 0
-110 -1835 1847 0
-1836 1847 0
-110 -1836 1848 0
-1837 1848 0
-110 -1837 1849 0
-1838 1849 0
-110 -1838 1850 0
-1839 1850 0
-110 -1839 1851 0
-1840 1851 0
-110 -1840 1852 0
-1841 1852 0
-110 -1841 0
-111 1853 0
-1842 1853 0
-111 -1842 1854 0
-1843 1854 0
-111 -1843 1855 0
-1844 1855 0
-111 -1844 1856 0
-1845 1856 0
-111 -1845 1857 0
-1846 1857 0
-111 -1846 1858 0
-1847 1858 0
-111 -1847 1859 0
-1848 1859 0
-111 -1848 1860 0
-1849 1860 0
-111 -1849 1861 0
-1850 1861 0
-111 -1850 1862 0
-1851 1862 0
-111 -1851 1863 0
-1852 1863 0
-111 -1852 0
-112 1864 0
-1853 1864 0
-112 -1853 1865 0
-1854 1865 0
-112 -1854 1866 0
-1855 1866 0
-112 -1855 1867 0
-1856 1867 0
-112 -1856 1868 0
-1857 1868 0
-112 -1857 1869 0
-1858 1869 0
-112 -1858 1870 0
-1859 1870 0
-112 -1859 1871 0
-1860 1871 0
-112 -1860 1872 0
-1861 1872 0
-112 -1861 1873 0
-1862 1873 0
-112 -1862 1874 0
-1863 1874 0
-112 -1863 0
-113 1875 0
-1864 1875 0
-113 -1864 1876 0
-1865 1876 0
-113 -1865 1877 0
-1866 1877 0
-113 -1866 1878 0
-1867 1878 0
-113 -1867 1879 0
-1868 1879 0
-113 -1868 1880 0
-1869 1880 0
-113 -1869 1881 0
-1870 1881 0
-113 -1870 1882 0
-1871 1882 0
-113 -1871 1883 0
-1872 1883 0
-113 -1872 1884 0
-1873 1884 0
-113 -1873 1885 0
-1874 1885 0
-113 -1874 0
-114 1886 0
-1875 1886 0
-114 -1875 1887 0
-1876 1887 0
-114 -1876 1888 0
-1877 1888 0
-114 -1877 1889 0
-1878 1889 0
-114 -1878 1890 0
-1879 1890 0
-114 -1879 1891 0
-1880 1891 0
-114 -1880 1892 0
-1881 1892 0
-114 -1881 1893 0
-1882 1893 0
-114 -1882 1894 0
-1883 1894 0
-114 -1883 1895 0
-1884 1895 0
-114 -1884 1896 0
-1885 1896 0
-114 -1885 0
-115 1897 0
-1886 1897 0
-115 -1886 1898 0
-1887 1898 0
-115 -1887 1899 0
-1888 1899 0
-115 -1888 1900 0
-1889 1900 0
-115 -1889 1901 0
-1890 1901 0
-115 -1890 1902 0
-1891 1902 0
-115 -1891 1903 0
-1892 1903 0
-115 -1892 1904 0
-1893 1904 0
-115 -1893 1905 0
-1894 1905 0
-115 -1894 1906 0
-1895 1906 0
-115 -1895 1907 0
-1896 1907 0
-115 -1896 0
-116 1908 0
-1897 1908 0
-116 -1897 1909 0
-1898 1909 0
-116 -1898 1910 0
-1899 1910 0
-116 -1899 1911 0
-1900 1911 0
-116 -1900 1912 0
-1901 1912 0
-116 -1901 1913 0
-1902 1913 0
-116 -1902 1914 0
-1903 1914 0
-116 -1903 1915 0
-1904 1915 0
-116 -1904 1916 0
-1905 1916 0
-116 -1905 1917 0
-1906 1917 0
-116 -1906 1918 0
-1907 1918 0
-116 -1907 0
-117 1919 0
-1908 1919 0
-117 -1908 1920 0
-1909 1920 0
-117 -1909 1921 0
-1910 1921 0
-117 -1910 1922 0
-1911 1922 0
-117 -1911 1923 0
-1912 1923 0
-117 -1912 1924 0
-1913 1924 0
-117 -1913 1925 0
-1914 1925 0
-117 -1914 1926 0
-1915 1926 0
-117 -1915 1927 0
-1916 1927 0
-117 -1916 1928 0
-1917 1928 0
-117 -1917 1929 0
-1918 1929 0
-117 -1918 0
-118 1930 0
-1919 1930 0
-118 -1919 1931 0
-1920 1931 0
-118 -1920 1932 0
-1921 1932 0
-118 -1921 1933 0
-1922 1933 0
-118 -1922 1934 0
-1923 1934 0
-118 -1923 1935 0
-1924 1935 0
-118 -1924 1936 0
-1925 1936 0
-118 -1925 1937 0
-1926 1937 0
-118 -1926 1938 0
-1927 1938 0
-118 -1927 1939 0
-1928 1939 0
-118 -1928 1940 0
-1929 1940 0
-118 -1929 0
-119 1941 0
-1930 1941 0
-119 -1930 1942 0
-1931 1942 0
-119 -1931 1943 0
-1932 1943 0
-119 -1932 1944 0
-1933 1944 0
-119 -1933 1945 0
-1934 1945 0
-119 -1934 1946 0
-1935 1946 0
-119 -1935 1947 0
-1936 1947 0
-119 -1936 1948 0
-1937 1948 0
-119 -1937 1949 0
-1938 1949 0
-119 -1938 1950 0
-1939 1950 0
-119 -1939 1951 0
-1940 1951 0
-119 -1940 0
-120 1952 0
-1941 1952 0
-120 -1941 1953 0
-1942 1953 0
-120 -1942 1954 0
-1943 1954 0
-120 -1943 1955 0
-1944 1955 0
-120 -1944 1956 0
-1945 1956 0
-120 -1945 1957 0
-1946 1957 0
-120 -1946 1958 0
-1947 1958 0
-120 -1947 1959 0
-1948 1959 0
-120 -1948 1960 0
-1949 1960 0
-120 -1949 1961 0
-1950 1961 0
-120 -1950 1962 0
-1951 1962 0
-120 -1951 0
-121 1963 0
-1952 1963 0
-121 -1952 1964 0
-1953 1964 0
-121 -1953 1965 0
-1954 1965 0
-121 -1954 1966 0
-1955 1966 0
-121 -1955 1967 0
-1956 1967 0
-121 -1956 1968 0
-1957 1968 0
-121 -1957 1969 0
-1958 1969 0
-121 -1958 1970 0
-1959 1970 0
-121 -1959 1971 0
-1960 1971 0
-121 -1960 1972 0
-1961 1972 0
-121 -1961 1973 0
-1962 1973 0
-121 -1962 0
-122 1974 0
-1963 1974 0
-122 -1963 1975 0
-1964 1975 0
-122 -1964 1976 0
-1965 1976 0
-122 -1965 1977 0
-1966 1977 0
-122 -1966 1978 0
-1967 1978 0
-122 -1967 1979 0
-1968 1979 0
-122 -1968 1980 0
-1969 1980 0
-122 -1969 1981 0
-1970 1981 0
-122 -1970 1982 0
-1971 1982 0
-122 -1971 1983 0
-1972 1983 0
-122 -1972 1984 0
-1973 1984 0
-122 -1973 0
-123 1985 0
-1974 1985 0
-123 -1974 1986 0
-1975 1986 0
-123 -1975 1987 0
-1976 1987 0
-123 -1976 1988 0
-1977 1988 0
-123 -1977 1989 0
-1978 1989 0
-123 -1978 1990 0
-1979 1990 0
-123 -1979 1991 0
-1980 1991 0
-123 -1980 1992 0
-1981 1992 0
-123 -1981 1993 0
-1982 1993 0
-123 -1982 1994 0
-1983 1994 0
-123 -1983 1995 0
-1984 1995 0
-123 -1984 0
-124 1996 0
-1985 1996 0
-124 -1985 1997 0
-1986 1997 0
-124 -1986 1998 0
-1987 1998 0
-124 -1987 1999 0
-1988 1999 0
-124 -1988 2000 0
-1989 2000 0
-124 -1989 2001 0
-1990 2001 0
-124 -1990 2002 0
-1991 2002 0
-124 -1991 2003 0
-1992 2003 0
-124 -1992 2004 0
-1993 2004 0
-124 -1993 2005 0
-1994 2005 0
-124 -1994 2006 0
-1995 2006 0
-124 -1995 0
-125 2007 0
-1996 2007 0
-125 -1996 2008 0
-1997 2008 0
-125 -1997 2009 0
-1998 2009 0
-125 -1998 2010 0
-1999 2010 0
-125 -1999 2011 0
-2000 2011 0
-125 -2000 2012 0
-2001 2012 0
-125 -2001 2013 0
-2002 2013 0
-125 -2002 2014 0
-2003 2014 0
-125 -2003 2015 0
-2004 2015 0
-125 -2004 2016 0
-2005 2016 0
-125 -2005 2017 0
-2006 2017 0
-125 -2006 0
-126 2018 0
-2007 2018 0
-126 -2007 2019 0
-2008 2019 0
-126 -2008 2020 0
-2009 2020 0
-126 -2009 2021 0
-2010 2021 0
-126 -2010 2022 0
-2011 2022 0
-126 -2011 2023 0
-2012 2023 0
-126 -2012 2024 0
-2013 2024 0
-126 -2013 2025 0
-2014 2025 0
-126 -2014 2026 0
-2015 2026 0
-126 -2015 2027 0
-2016 2027 0
-126 -2016 2028 0
-2017 2028 0
-126 -2017 0
-127 2029 0
-2018 2029 0
-127 -2018 2030 0
-2019 2030 0
-127 -2019 2031 0
-2020 2031 0
-127 -2020 2032 0
-2021 2032 0
-127 -2021 2033 0
-2022 2033 0
-127 -2022 2034 0
-2023 2034 0
-127 -2023 2035 0
-2024 2035 0
-127 -2024 2036 0
-2025 2036 0
-127 -2025 2037 0
-2026 2037 0
-127 -2026 2038 0
-2027 2038 0
-127 -2027 2039 0
-2028 2039 0
-127 -2028 0
-128 2040 0
-2029 2040 0
-128 -2029 2041 0
-2030 2041 0
-128 -2030 2042 0
-2031 2042 0
-128 -2031 2043 0
-2032 2043 0
-128 -2032 2044 0
-2033 2044 0
-128 -2033 2045 0
-2034 2045 0
-128 -2034 2046 0
-2035 2046 0
-128 -2035 2047 0
-2036 2047 0
-128 -2036 2048 0
-2037 2048 0
-128 -2037 2049 0
-2038 2049 0
-128 -2038 2050 0
-2039 2050 0
-128 -2039 0
-129 2051 0
-2040 2051 0
-129 -2040 2052 0
-2041 2052 0
-129 -2041 2053 0
-2042 2053 0
-129 -2042 2054 0
-2043 2054 0
-129 -2043 2055 0
-2044 2055 0
-129 -2044 2056 0
-2045 2056 0
-129 -2045 2057 0
-2046 2057 0
-129 -2046 2058 0
-2047 2058 0
-129 -2047 2059 0
-2048 2059 0
-129 -2048 2060 0
-2049 2060 0
-129 -2049 2061 0
-2050 2061 0
-129 -2050 0
-130 2062 0
-2051 2062 0
-130 -2051 2063 0
-2052 2063 0
-130 -2052 2064 0
-2053 2064 0
-130 -2053 2065 0
-2054 2065 0
-130 -2054 2066 0
-2055 2066 0
-130 -2055 2067 0
-2056 2067 0
-130 -2056 2068 0
-2057 2068 0
-130 -2057 2069 0
-2058 2069 0
-130 -2058 2070 0
-2059 2070 0
-130 -2059 2071 0
-2060 2071 0
-130 -2060 2072 0
-2061 2072 0
-130 -2061 0
-131 2073 0
-2062 2073 0
-131 -2062 2074 0
-2063 2074 0
-131 -2063 2075 0
-2064 2075 0
-131 -2064 2076 0
-2065 2076 0
-131 -2065 2077 0
-2066 2077 0
-131 -2066 2078 0
-2067 2078 0
-131 -2067 2079 0
-2068 2079 0
-131 -2068 2080 0
-2069 2080 0
-131 -2069 2081 0
-2070 2081 0
-131 -2070 2082 0
-2071 2082 0
-131 -2071 2083 0
-2072 2083 0
-131 -2072 0
-132 2084 0
-2073 2084 0
-132 -2073 2085 0
-2074 2085 0
-132 -2074 2086 0
-2075 2086 0
-132 -2075 2087 0
-2076 2087 0
-132 -2076 2088 0
-2077 2088 0
-132 -2077 2089 0
-2078 2089 0
-132 -2078 2090 0
-2079 2090 0
-132 -2079 2091 0
-2080 2091 0
-132 -2080 2092 0
-2081 2092 0
-132 -2081 2093 0
-2082 2093 0
-132 -2082 2094 0
-2083 2094 0
-132 -2083 0
-133 2095 0
-2084 2095 0
-133 -2084 2096 0
-2085 2096 0
-133 -2085 2097 0
-2086 2097 0
-133 -2086 2098 0
-2087 2098 0
-133 -2087 2099 0
-2088 2099 0
-133 -2088 2100 0
-2089 2100 0
-133 -2089 2101 0
-2090 2101 0
-133 -2090 2102 0
-2091 2102 0
-133 -2091 2103 0
-2092 2103 0
-133 -2092 2104 0
-2093 2104 0
-133 -2093 2105 0
-2094 2105 0
-133 -2094 0
-134 2106 0
-2095 2106 0
-134 -2095 2107 0
-2096 2107 0
-134 -2096 2108 0
-2097 2108 0
-134 -2097 2109 0
-2098 2109 0
-134 -2098 2110 0
-2099 2110 0
-134 -2099 2111 0
-2100 2111 0
-134 -2100 2112 0
-2101 2112 0
-134 -2101 2113 0
-2102 2113 0
-134 -2102 2114 0
-2103 2114 0
-134 -2103 2115 0
-2104 2115 0
-134 -2104 2116 0
-2105 2116 0
-134 -2105 0
-135 2117 0
-2106 2117 0
-135 -2106 2118 0
-2107 2118 0
-135 -2107 2119 0
-2108 2119 0
-135 -2108 2120 0
-2109 2120 0
-135 -2109 2121 0
-2110 2121 0
-135 -2110 2122 0
-2111 2122 0
-135 -2111 2123 0
-2112 2123 0
-135 -2112 2124 0
-2113 2124 0
-135 -2113 2125 0
-2114 2125 0
-135 -2114 2126 0
-2115 2126 0
-135 -2115 2127 0
-2116 2127 0
-135 -2116 0
-136 2128 0
-2117 2128 0
-136 -2117 2129 0
-2118 2129 0
-136 -2118 2130 0
-2119 2130 0
-136 -2119 2131 0
-2120 2131 0
-136 -2120 2132 0
-2121 2132 0
-136 -2121 2133 0
-2122 2133 0
-136 -2122 2134 0
-2123 2134 0
-136 -2123 2135 0
-2124 2135 0
-136 -2124 2136 0
-2125 2136 0
-136 -2125 2137 0
-2126 2137 0
-136 -2126 2138 0
-2127 2138 0
-136 -2127 0
-137 2139 0
-2128 2139 0
-137 -2128 2140 0
-2129 2140 0
-137 -2129 2141 0
-2130 2141 0
-137 -2130 2142 0
-2131 2142 0
-137 -2131 2143 0
-2132 2143 0
-137 -2132 2144 0
-2133 2144 0
-137 -2133 2145 0
-2134 2145 0
-137 -2134 2146 0
-2135 2146 0
-137 -2135 2147 0
-2136 2147 0
-137 -2136 2148 0
-2137 2148 0
-137 -2137 2149 0
-2138 2149 0
-137 -2138 0
-138 2150 0
-2139 2150 0
-138 -2139 2151 0
-2140 2151 0
-138 -2140 2152 0
-2141 2152 0
-138 -2141 2153 0
-2142 2153 0
-138 -2142 2154 0
-2143 2154 0
-138 -2143 2155 0
-2144 2155 0
-138 -2144 2156 0
-2145 2156 0
-138 -2145 2157 0
-2146 2157 0
-138 -2146 2158 0
-2147 2158 0
-138 -2147 2159 0
-2148 2159 0
-138 -2148 2160 0
-2149 2160 0
-138 -2149 0
-139 2161 0
-2150 2161 0
-139 -2150 2162 0
-2151 2162 0
-139 -2151 2163 0
-2152 2163 0
-139 -2152 2164 0
-2153 2164 0
-139 -2153 2165 0
-2154 2165 0
-139 -2154 2166 0
-2155 2166 0
-139 -2155 2167 0
-2156 2167 0
-139 -2156 2168 0
-2157 2168 0
-139 -2157 2169 0
-2158 2169 0
-139 -2158 2170 0
-2159 2170 0
-139 -2159 2171 0
-2160 2171 0
-139 -2160 0
-140 2172 0
-2161 2172 0
-140 -2161 2173 0
-2162 2173 0
-140 -2162 2174 0
-2163 2174 0
-140 -2163 2175 0
-2164 2175 0
-140 -2164 2176 0
-2165 2176 0
-140 -2165 2177 0
-2166 2177 0
-140 -2166 2178 0
-2167 2178 0
-140 -2167 2179 0
-2168 2179 0
-140 -2168 2180 0
-2169 2180 0
-140 -2169 2181 0
-2170 2181 0
-140 -2170 2182 0
-2171 2182 0
-140 -2171 0
-141 2183 0
-2172 2183 0
-141 -2172 2184 0
-2173 2184 0
-141 -2173 2185 0
-2174 2185 0
-141 -2174 2186 0
-2175 2186 0
-141 -2175 2187 0
-2176 2187 0
-141 -2176 2188 0
-2177 2188 0
-141 -2177 2189 0
-2178 2189 0
-141 -2178 2190 0
-2179 2190 0
-141 -2179 2191 0
-2180 2191 0
-141 -2180 2192 0
-2181 2192 0
-141 -2181 2193 0
-2182 2193 0
-141 -2182 0
-142 2194 0
-2183 2194 0
-142 -2183 2195 0
-2184 2195 0
-142 -2184 2196 0
-2185 2196 0
-142 -2185 2197 0
-2186 2197 0
-142 -2186 2198 0
-2187 2198 0
-142 -2187 2199 0
-2188 2199 0
-142 -2188 2200 0
-2189 2200 0
-142 -2189 2201 0
-2190 2201 0
-142 -2190 2202 0
-2191 2202 0
-142 -2191 2203 0
-2192 2203 0
-142 -2192 2204 0
-2193 2204 0
-142 -2193 0
-143 2205 0
-2194 2205 0
-143 -2194 2206 0
-2195 2206 0
-143 -2195 2207 0
-2196 2207 0
-143 -2196 2208 0
-2197 2208 0
-143 -2197 2209 0
-2198 2209 0
-143 -2198 2210 0
-2199 2210 0
-143 -2199 2211 0
-2200 2211 0
-143 -2200 2212 0
-2201 2212 0
-143 -2201 2213 0
-2202 2213 0
-143 -2202 2214 0
-2203 2214 0
-143 -2203 2215 0
-2204 2215 0
-143 -2204 0
-144 -2215 0
