p cnf 2309 5792
-145 4 61 0
-145 -4 -61 0
145 -4 61 0
145 4 -61 0
-146 145 67 0
-146 -145 -67 0
146 -145 67 0
146 145 -67 0
-147 146 77 0
-147 -146 -77 0
147 -146 77 0
147 146 -77 0
-148 147 78 0
-148 -147 -78 0
148 -147 78 0
148 147 -78 0
-149 148 127 0
-149 -148 -127 0
149 -148 127 0
149 148 -127 0
-149 0
-150 5 62 0
-150 -5 -62 0
150 -5 62 0
150 5 -62 0
-151 150 68 0
-151 -150 -68 0
151 -150 68 0
151 150 -68 0
-152 151 73 0
-152 -151 -73 0
152 -151 73 0
152 151 -73 0
-153 152 78 0
-153 -152 -78 0
153 -152 78 0
153 152 -78 0
-154 153 128 0
-154 -153 -128 0
154 -153 128 0
154 153 -128 0
-154 0
-155 6 63 0
-155 -6 -63 0
155 -6 63 0
155 6 -63 0
-156 155 69 0
-156 -155 -69 0
156 -155 69 0
156 155 -69 0
-157 156 73 0
-157 -156 -73 0
157 -156 73 0
157 156 -73 0
-158 157 74 0
-158 -157 -74 0
158 -157 74 0
158 157 -74 0
-159 158 129 0
-159 -158 -129 0
159 -158 129 0
159 158 -129 0
-159 0
-160 1 64 0
-160 -1 -64 0
160 -1 64 0
160 1 -64 0
-161 160 70 0
-161 -160 -70 0
161 -160 70 0
161 160 -70 0
-162 161 74 0
-162 -161 -74 0
162 -161 74 0
162 161 -74 0
-163 162 75 0
-163 -162 -75 0
163 -162 75 0
163 162 -75 0
-164 163 130 0
-164 -163 -130 0
164 -163 130 0
164 163 -130 0
-164 0
-165 2 65 0
-165 -2 -65 0
165 -2 65 0
165 2 -65 0
-166 165 71 0
-166 -165 -71 0
166 -165 71 0
166 165 -71 0
-167 166 75 0
-167 -166 -75 0
167 -166 75 0
167 166 -75 0
-168 167 76 0
-168 -167 -76 0
168 -167 76 0
168 167 -76 0
-169 168 131 0
-169 -168 -131 0
169 -168 131 0
169 168 -131 0
-169 0
-170 3 66 0
-170 -3 -66 0
170 -3 66 0
170 3 -66 0
-171 170 72 0
-171 -170 -72 0
171 -170 72 0
171 170 -72 0
-172 171 76 0
-172 -171 -76 0
172 -171 76 0
172 171 -76 0
-173 172 77 0
-173 -172 -77 0
173 -172 77 0
173 172 -77 0
-174 173 132 0
-174 -173 -132 0
174 -173 132 0
174 173 -132 0
-174 0
-175 1 10 0
-175 -1 -10 0
175 -1 10 0
175 1 -10 0
-176 175 67 0
-176 -175 -67 0
176 -175 67 0
176 175 -67 0
-177 176 83 0
-177 -176 -83 0
177 -176 83 0
177 176 -83 0
-178 177 84 0
-178 -177 -84 0
178 -177 84 0
178 177 -84 0
-179 178 133 0
-179 -178 -133 0
179 -178 133 0
179 178 -133 0
-179 0
-180 2 11 0
-180 -2 -11 0
180 -2 11 0
180 2 -11 0
-181 180 68 0
-181 -180 -68 0
181 -180 68 0
181 180 -68 0
-182 181 79 0
-182 -181 -79 0
182 -181 79 0
182 181 -79 0
-183 182 84 0
-183 -182 -84 0
183 -182 84 0
183 182 -84 0
-184 183 134 0
-184 -183 -134 0
184 -183 134 0
184 183 -134 0
-184 0
-185 3 12 0
-185 -3 -12 0
185 -3 12 0
185 3 -12 0
-186 185 69 0
-186 -185 -69 0
186 -185 69 0
186 185 -69 0
-187 186 79 0
-187 -186 -79 0
187 -186 79 0
187 186 -79 0
-188 187 80 0
-188 -187 -80 0
188 -187 80 0
188 187 -80 0
-189 188 135 0
-189 -188 -135 0
189 -188 135 0
189 188 -135 0
-189 0
-190 4 7 0
-190 -4 -7 0
190 -4 7 0
190 4 -7 0
-191 190 70 0
-191 -190 -70 0
191 -190 70 0
191 190 -70 0
-192 191 80 0
-192 -191 -80 0
192 -191 80 0
192 191 -80 0
-193 192 81 0
-193 -192 -81 0
193 -192 81 0
193 192 -81 0
-194 193 136 0
-194 -193 -136 0
194 -193 136 0
194 193 -136 0
-194 0
-195 5 8 0
-195 -5 -8 0
195 -5 8 0
195 5 -8 0
-196 195 71 0
-196 -195 -71 0
196 -195 71 0
196 195 -71 0
-197 196 81 0
-197 -196 -81 0
197 -196 81 0
197 196 -81 0
-198 197 82 0
-198 -197 -82 0
198 -197 82 0
198 197 -82 0
-199 198 137 0
-199 -198 -137 0
199 -198 137 0
199 198 -137 0
-199 0
-200 6 9 0
-200 -6 -9 0
200 -6 9 0
200 6 -9 0
-201 200 72 0
-201 -200 -72 0
201 -200 72 0
201 200 -72 0
-202 201 82 0
-202 -201 -82 0
202 -201 82 0
202 201 -82 0
-203 202 83 0
-203 -202 -83 0
203 -202 83 0
203 202 -83 0
-204 203 138 0
-204 -203 -138 0
204 -203 138 0
204 203 -138 0
-204 0
-205 1 7 0
-205 -1 -7 0
205 -1 7 0
205 1 -7 0
-206 205 16 0
-206 -205 -16 0
206 -205 16 0
206 205 -16 0
-207 206 89 0
-207 -206 -89 0
207 -206 89 0
207 206 -89 0
-208 207 90 0
-208 -207 -90 0
208 -207 90 0
208 207 -90 0
-209 208 139 0
-209 -208 -139 0
209 -208 139 0
209 208 -139 0
-209 0
-210 2 8 0
-210 -2 -8 0
210 -2 8 0
210 2 -8 0
-211 210 17 0
-211 -210 -17 0
211 -210 17 0
211 210 -17 0
-212 211 85 0
-212 -211 -85 0
212 -211 85 0
212 211 -85 0
-213 212 90 0
-213 -212 -90 0
213 -212 90 0
213 212 -90 0
-214 213 140 0
-214 -213 -140 0
214 -213 140 0
214 213 -140 0
-214 0
-215 3 9 0
-215 -3 -9 0
215 -3 9 0
215 3 -9 0
-216 215 18 0
-216 -215 -18 0
216 -215 18 0
216 215 -18 0
-217 216 85 0
-217 -216 -85 0
217 -216 85 0
217 216 -85 0
-218 217 86 0
-218 -217 -86 0
218 -217 86 0
218 217 -86 0
-219 218 141 0
-219 -218 -141 0
219 -218 141 0
219 218 -141 0
-219 0
-220 4 10 0
-220 -4 -10 0
220 -4 10 0
220 4 -10 0
-221 220 13 0
-221 -220 -13 0
221 -220 13 0
221 220 -13 0
-222 221 86 0
-222 -221 -86 0
222 -221 86 0
222 221 -86 0
-223 222 87 0
-223 -222 -87 0
223 -222 87 0
223 222 -87 0
-224 223 142 0
-224 -223 -142 0
224 -223 142 0
224 223 -142 0
-224 0
-225 5 11 0
-225 -5 -11 0
225 -5 11 0
225 5 -11 0
-226 225 14 0
-226 -225 -14 0
226 -225 14 0
226 225 -14 0
-227 226 87 0
-227 -226 -87 0
227 -226 87 0
227 226 -87 0
-228 227 88 0
-228 -227 -88 0
228 -227 88 0
228 227 -88 0
-229 228 143 0
-229 -228 -143 0
229 -228 143 0
229 228 -143 0
-229 0
-230 6 12 0
-230 -6 -12 0
230 -6 12 0
230 6 -12 0
-231 230 15 0
-231 -230 -15 0
231 -230 15 0
231 230 -15 0
-232 231 88 0
-232 -231 -88 0
232 -231 88 0
232 231 -88 0
-233 232 89 0
-233 -232 -89 0
233 -232 89 0
233 232 -89 0
-234 233 144 0
-234 -233 -144 0
234 -233 144 0
234 233 -144 0
-234 0
-235 7 13 0
-235 -7 -13 0
235 -7 13 0
235 7 -13 0
-236 235 22 0
-236 -235 -22 0
236 -235 22 0
236 235 -22 0
-237 236 73 0
-237 -236 -73 0
237 -236 73 0
237 236 -73 0
-238 237 95 0
-238 -237 -95 0
238 -237 95 0
238 237 -95 0
-239 238 96 0
-239 -238 -96 0
239 -238 96 0
239 238 -96 0
-239 0
-240 8 14 0
-240 -8 -14 0
240 -8 14 0
240 8 -14 0
-241 240 23 0
-241 -240 -23 0
241 -240 23 0
241 240 -23 0
-242 241 74 0
-242 -241 -74 0
242 -241 74 0
242 241 -74 0
-243 242 91 0
-243 -242 -91 0
243 -242 91 0
243 242 -91 0
-244 243 96 0
-244 -243 -96 0
244 -243 96 0
244 243 -96 0
-244 0
-245 9 15 0
-245 -9 -15 0
245 -9 15 0
245 9 -15 0
-246 245 24 0
-246 -245 -24 0
246 -245 24 0
246 245 -24 0
-247 246 75 0
-247 -246 -75 0
247 -246 75 0
247 246 -75 0
-248 247 91 0
-248 -247 -91 0
248 -247 91 0
248 247 -91 0
-249 248 92 0
-249 -248 -92 0
249 -248 92 0
249 248 -92 0
-249 0
-250 10 16 0
-250 -10 -16 0
250 -10 16 0
250 10 -16 0
-251 250 19 0
-251 -250 -19 0
251 -250 19 0
251 250 -19 0
-252 251 76 0
-252 -251 -76 0
252 -251 76 0
252 251 -76 0
-253 252 92 0
-253 -252 -92 0
253 -252 92 0
253 252 -92 0
-254 253 93 0
-254 -253 -93 0
254 -253 93 0
254 253 -93 0
-254 0
-255 11 17 0
-255 -11 -17 0
255 -11 17 0
255 11 -17 0
-256 255 20 0
-256 -255 -20 0
256 -255 20 0
256 255 -20 0
-257 256 77 0
-257 -256 -77 0
257 -256 77 0
257 256 -77 0
-258 257 93 0
-258 -257 -93 0
258 -257 93 0
258 257 -93 0
-259 258 94 0
-259 -258 -94 0
259 -258 94 0
259 258 -94 0
-259 0
-260 12 18 0
-260 -12 -18 0
260 -12 18 0
260 12 -18 0
-261 260 21 0
-261 -260 -21 0
261 -260 21 0
261 260 -21 0
-262 261 78 0
-262 -261 -78 0
262 -261 78 0
262 261 -78 0
-263 262 94 0
-263 -262 -94 0
263 -262 94 0
263 262 -94 0
-264 263 95 0
-264 -263 -95 0
264 -263 95 0
264 263 -95 0
-264 0
-265 13 19 0
-265 -13 -19 0
265 -13 19 0
265 13 -19 0
-266 265 28 0
-266 -265 -28 0
266 -265 28 0
266 265 -28 0
-267 266 79 0
-267 -266 -79 0
267 -266 79 0
267 266 -79 0
-268 267 101 0
-268 -267 -101 0
268 -267 101 0
268 267 -101 0
-269 268 102 0
-269 -268 -102 0
269 -268 102 0
269 268 -102 0
-269 0
-270 14 20 0
-270 -14 -20 0
270 -14 20 0
270 14 -20 0
-271 270 29 0
-271 -270 -29 0
271 -270 29 0
271 270 -29 0
-272 271 80 0
-272 -271 -80 0
272 -271 80 0
272 271 -80 0
-273 272 97 0
-273 -272 -97 0
273 -272 97 0
273 272 -97 0
-274 273 102 0
-274 -273 -102 0
274 -273 102 0
274 273 -102 0
-274 0
-275 15 21 0
-275 -15 -21 0
275 -15 21 0
275 15 -21 0
-276 275 30 0
-276 -275 -30 0
276 -275 30 0
276 275 -30 0
-277 276 81 0
-277 -276 -81 0
277 -276 81 0
277 276 -81 0
-278 277 97 0
-278 -277 -97 0
278 -277 97 0
278 277 -97 0
-279 278 98 0
-279 -278 -98 0
279 -278 98 0
279 278 -98 0
-279 0
-280 16 22 0
-280 -16 -22 0
280 -16 22 0
280 16 -22 0
-281 280 25 0
-281 -280 -25 0
281 -280 25 0
281 280 -25 0
-282 281 82 0
-282 -281 -82 0
282 -281 82 0
282 281 -82 0
-283 282 98 0
-283 -282 -98 0
283 -282 98 0
283 282 -98 0
-284 283 99 0
-284 -283 -99 0
284 -283 99 0
284 283 -99 0
-284 0
-285 17 23 0
-285 -17 -23 0
285 -17 23 0
285 17 -23 0
-286 285 26 0
-286 -285 -26 0
286 -285 26 0
286 285 -26 0
-287 286 83 0
-287 -286 -83 0
287 -286 83 0
287 286 -83 0
-288 287 99 0
-288 -287 -99 0
288 -287 99 0
288 287 -99 0
-289 288 100 0
-289 -288 -100 0
289 -288 100 0
289 288 -100 0
-289 0
-290 18 24 0
-290 -18 -24 0
290 -18 24 0
290 18 -24 0
-291 290 27 0
-291 -290 -27 0
291 -290 27 0
291 290 -27 0
-292 291 84 0
-292 -291 -84 0
292 -291 84 0
292 291 -84 0
-293 292 100 0
-293 -292 -100 0
293 -292 100 0
293 292 -100 0
-294 293 101 0
-294 -293 -101 0
294 -293 101 0
294 293 -101 0
-294 0
-295 19 25 0
-295 -19 -25 0
295 -19 25 0
295 19 -25 0
-296 295 34 0
-296 -295 -34 0
296 -295 34 0
296 295 -34 0
-297 296 85 0
-297 -296 -85 0
297 -296 85 0
297 296 -85 0
-298 297 107 0
-298 -297 -107 0
298 -297 107 0
298 297 -107 0
-299 298 108 0
-299 -298 -108 0
299 -298 108 0
299 298 -108 0
-299 0
-300 20 26 0
-300 -20 -26 0
300 -20 26 0
300 20 -26 0
-301 300 35 0
-301 -300 -35 0
301 -300 35 0
301 300 -35 0
-302 301 86 0
-302 -301 -86 0
302 -301 86 0
302 301 -86 0
-303 302 103 0
-303 -302 -103 0
303 -302 103 0
303 302 -103 0
-304 303 108 0
-304 -303 -108 0
304 -303 108 0
304 303 -108 0
-304 0
-305 21 27 0
-305 -21 -27 0
305 -21 27 0
305 21 -27 0
-306 305 36 0
-306 -305 -36 0
306 -305 36 0
306 305 -36 0
-307 306 87 0
-307 -306 -87 0
307 -306 87 0
307 306 -87 0
-308 307 103 0
-308 -307 -103 0
308 -307 103 0
308 307 -103 0
-309 308 104 0
-309 -308 -104 0
309 -308 104 0
309 308 -104 0
-309 0
-310 22 28 0
-310 -22 -28 0
310 -22 28 0
310 22 -28 0
-311 310 31 0
-311 -310 -31 0
311 -310 31 0
311 310 -31 0
-312 311 88 0
-312 -311 -88 0
312 -311 88 0
312 311 -88 0
-313 312 104 0
-313 -312 -104 0
313 -312 104 0
313 312 -104 0
-314 313 105 0
-314 -313 -105 0
314 -313 105 0
314 313 -105 0
-314 0
-315 23 29 0
-315 -23 -29 0
315 -23 29 0
315 23 -29 0
-316 315 32 0
-316 -315 -32 0
316 -315 32 0
316 315 -32 0
-317 316 89 0
-317 -316 -89 0
317 -316 89 0
317 316 -89 0
-318 317 105 0
-318 -317 -105 0
318 -317 105 0
318 317 -105 0
-319 318 106 0
-319 -318 -106 0
319 -318 106 0
319 318 -106 0
-319 0
-320 24 30 0
-320 -24 -30 0
320 -24 30 0
320 24 -30 0
-321 320 33 0
-321 -320 -33 0
321 -320 33 0
321 320 -33 0
-322 321 90 0
-322 -321 -90 0
322 -321 90 0
322 321 -90 0
-323 322 106 0
-323 -322 -106 0
323 -322 106 0
323 322 -106 0
-324 323 107 0
-324 -323 -107 0
324 -323 107 0
324 323 -107 0
-324 0
-325 25 31 0
-325 -25 -31 0
325 -25 31 0
325 25 -31 0
-326 325 40 0
-326 -325 -40 0
326 -325 40 0
326 325 -40 0
-327 326 91 0
-327 -326 -91 0
327 -326 91 0
327 326 -91 0
-328 327 113 0
-328 -327 -113 0
328 -327 113 0
328 327 -113 0
-329 328 114 0
-329 -328 -114 0
329 -328 114 0
329 328 -114 0
-329 0
-330 26 32 0
-330 -26 -32 0
330 -26 32 0
330 26 -32 0
-331 330 41 0
-331 -330 -41 0
331 -330 41 0
331 330 -41 0
-332 331 92 0
-332 -331 -92 0
332 -331 92 0
332 331 -92 0
-333 332 109 0
-333 -332 -109 0
333 -332 109 0
333 332 -109 0
-334 333 114 0
-334 -333 -114 0
334 -333 114 0
334 333 -114 0
-334 0
-335 27 33 0
-335 -27 -33 0
335 -27 33 0
335 27 -33 0
-336 335 42 0
-336 -335 -42 0
336 -335 42 0
336 335 -42 0
-337 336 93 0
-337 -336 -93 0
337 -336 93 0
337 336 -93 0
-338 337 109 0
-338 -337 -109 0
338 -337 109 0
338 337 -109 0
-339 338 110 0
-339 -338 -110 0
339 -338 110 0
339 338 -110 0
-339 0
-340 28 34 0
-340 -28 -34 0
340 -28 34 0
340 28 -34 0
-341 340 37 0
-341 -340 -37 0
341 -340 37 0
341 340 -37 0
-342 341 94 0
-342 -341 -94 0
342 -341 94 0
342 341 -94 0
-343 342 110 0
-343 -342 -110 0
343 -342 110 0
343 342 -110 0
-344 343 111 0
-344 -343 -111 0
344 -343 111 0
344 343 -111 0
-344 0
-345 29 35 0
-345 -29 -35 0
345 -29 35 0
345 29 -35 0
-346 345 38 0
-346 -345 -38 0
346 -345 38 0
346 345 -38 0
-347 346 95 0
-347 -346 -95 0
347 -346 95 0
347 346 -95 0
-348 347 111 0
-348 -347 -111 0
348 -347 111 0
348 347 -111 0
-349 348 112 0
-349 -348 -112 0
349 -348 112 0
349 348 -112 0
-349 0
-350 30 36 0
-350 -30 -36 0
350 -30 36 0
350 30 -36 0
-351 350 39 0
-351 -350 -39 0
351 -350 39 0
351 350 -39 0
-352 351 96 0
-352 -351 -96 0
352 -351 96 0
352 351 -96 0
-353 352 112 0
-353 -352 -112 0
353 -352 112 0
353 352 -112 0
-354 353 113 0
-354 -353 -113 0
354 -353 113 0
354 353 -113 0
-354 0
-355 31 37 0
-355 -31 -37 0
355 -31 37 0
355 31 -37 0
-356 355 46 0
-356 -355 -46 0
356 -355 46 0
356 355 -46 0
-357 356 97 0
-357 -356 -97 0
357 -356 97 0
357 356 -97 0
-358 357 119 0
-358 -357 -119 0
358 -357 119 0
358 357 -119 0
-359 358 120 0
-359 -358 -120 0
359 -358 120 0
359 358 -120 0
-359 0
-360 32 38 0
-360 -32 -38 0
360 -32 38 0
360 32 -38 0
-361 360 47 0
-361 -360 -47 0
361 -360 47 0
361 360 -47 0
-362 361 98 0
-362 -361 -98 0
362 -361 98 0
362 361 -98 0
-363 362 115 0
-363 -362 -115 0
363 -362 115 0
363 362 -115 0
-364 363 120 0
-364 -363 -120 0
364 -363 120 0
364 363 -120 0
-364 0
-365 33 39 0
-365 -33 -39 0
365 -33 39 0
365 33 -39 0
-366 365 48 0
-366 -365 -48 0
366 -365 48 0
366 365 -48 0
-367 366 99 0
-367 -366 -99 0
367 -366 99 0
367 366 -99 0
-368 367 115 0
-368 -367 -115 0
368 -367 115 0
368 367 -115 0
-369 368 116 0
-369 -368 -116 0
369 -368 116 0
369 368 -116 0
-369 0
-370 34 40 0
-370 -34 -40 0
370 -34 40 0
370 34 -40 0
-371 370 43 0
-371 -370 -43 0
371 -370 43 0
371 370 -43 0
-372 371 100 0
-372 -371 -100 0
372 -371 100 0
372 371 -100 0
-373 372 116 0
-373 -372 -116 0
373 -372 116 0
373 372 -116 0
-374 373 117 0
-374 -373 -117 0
374 -373 117 0
374 373 -117 0
-374 0
-375 35 41 0
-375 -35 -41 0
375 -35 41 0
375 35 -41 0
-376 375 44 0
-376 -375 -44 0
376 -375 44 0
376 375 -44 0
-377 376 101 0
-377 -376 -101 0
377 -376 101 0
377 376 -101 0
-378 377 117 0
-378 -377 -117 0
378 -377 117 0
378 377 -117 0
-379 378 118 0
-379 -378 -118 0
379 -378 118 0
379 378 -118 0
-379 0
-380 36 42 0
-380 -36 -42 0
380 -36 42 0
380 36 -42 0
-381 380 45 0
-381 -380 -45 0
381 -380 45 0
381 380 -45 0
-382 381 102 0
-382 -381 -102 0
382 -381 102 0
382 381 -102 0
-383 382 118 0
-383 -382 -118 0
383 -382 118 0
383 382 -118 0
-384 383 119 0
-384 -383 -119 0
384 -383 119 0
384 383 -119 0
-384 0
-385 37 43 0
-385 -37 -43 0
385 -37 43 0
385 37 -43 0
-386 385 52 0
-386 -385 -52 0
386 -385 52 0
386 385 -52 0
-387 386 103 0
-387 -386 -103 0
387 -386 103 0
387 386 -103 0
-388 387 125 0
-388 -387 -125 0
388 -387 125 0
388 387 -125 0
-389 388 126 0
-389 -388 -126 0
389 -388 126 0
389 388 -126 0
-389 0
-390 38 44 0
-390 -38 -44 0
390 -38 44 0
390 38 -44 0
-391 390 53 0
-391 -390 -53 0
391 -390 53 0
391 390 -53 0
-392 391 104 0
-392 -391 -104 0
392 -391 104 0
392 391 -104 0
-393 392 121 0
-393 -392 -121 0
393 -392 121 0
393 392 -121 0
-394 393 126 0
-394 -393 -126 0
394 -393 126 0
394 393 -126 0
-394 0
-395 39 45 0
-395 -39 -45 0
395 -39 45 0
395 39 -45 0
-396 395 54 0
-396 -395 -54 0
396 -395 54 0
396 395 -54 0
-397 396 105 0
-397 -396 -105 0
397 -396 105 0
397 396 -105 0
-398 397 121 0
-398 -397 -121 0
398 -397 121 0
398 397 -121 0
-399 398 122 0
-399 -398 -122 0
399 -398 122 0
399 398 -122 0
-399 0
-400 40 46 0
-400 -40 -46 0
400 -40 46 0
400 40 -46 0
-401 400 49 0
-401 -400 -49 0
401 -400 49 0
401 400 -49 0
-402 401 106 0
-402 -401 -106 0
402 -401 106 0
402 401 -106 0
-403 402 122 0
-403 -402 -122 0
403 -402 122 0
403 402 -122 0
-404 403 123 0
-404 -403 -123 0
404 -403 123 0
404 403 -123 0
-404 0
-405 41 47 0
-405 -41 -47 0
405 -41 47 0
405 41 -47 0
-406 405 50 0
-406 -405 -50 0
406 -405 50 0
406 405 -50 0
-407 406 107 0
-407 -406 -107 0
407 -406 107 0
407 406 -107 0
-408 407 123 0
-408 -407 -123 0
408 -407 123 0
408 407 -123 0
-409 408 124 0
-409 -408 -124 0
409 -408 124 0
409 408 -124 0
-409 0
-410 42 48 0
-410 -42 -48 0
410 -42 48 0
410 42 -48 0
-411 410 51 0
-411 -410 -51 0
411 -410 51 0
411 410 -51 0
-412 411 108 0
-412 -411 -108 0
412 -411 108 0
412 411 -108 0
-413 412 124 0
-413 -412 -124 0
413 -412 124 0
413 412 -124 0
-414 413 125 0
-414 -413 -125 0
414 -413 125 0
414 413 -125 0
-414 0
-415 43 49 0
-415 -43 -49 0
415 -43 49 0
415 43 -49 0
-416 415 58 0
-416 -415 -58 0
416 -415 58 0
416 415 -58 0
-417 416 109 0
-417 -416 -109 0
417 -416 109 0
417 416 -109 0
-418 417 131 0
-418 -417 -131 0
418 -417 131 0
418 417 -131 0
-419 418 132 0
-419 -418 -132 0
419 -418 132 0
419 418 -132 0
-419 0
-420 44 50 0
-420 -44 -50 0
420 -44 50 0
420 44 -50 0
-421 420 59 0
-421 -420 -59 0
421 -420 59 0
421 420 -59 0
-422 421 110 0
-422 -421 -110 0
422 -421 110 0
422 421 -110 0
-423 422 127 0
-423 -422 -127 0
423 -422 127 0
423 422 -127 0
-424 423 132 0
-424 -423 -132 0
424 -423 132 0
424 423 -132 0
-424 0
-425 45 51 0
-425 -45 -51 0
425 -45 51 0
425 45 -51 0
-426 425 60 0
-426 -425 -60 0
426 -425 60 0
426 425 -60 0
-427 426 111 0
-427 -426 -111 0
427 -426 111 0
427 426 -111 0
-428 427 127 0
-428 -427 -127 0
428 -427 127 0
428 427 -127 0
-429 428 128 0
-429 -428 -128 0
429 -428 128 0
429 428 -128 0
-429 0
-430 46 52 0
-430 -46 -52 0
430 -46 52 0
430 46 -52 0
-431 430 55 0
-431 -430 -55 0
431 -430 55 0
431 430 -55 0
-432 431 112 0
-432 -431 -112 0
432 -431 112 0
432 431 -112 0
-433 432 128 0
-433 -432 -128 0
433 -432 128 0
433 432 -128 0
-434 433 129 0
-434 -433 -129 0
434 -433 129 0
434 433 -129 0
-434 0
-435 47 53 0
-435 -47 -53 0
435 -47 53 0
435 47 -53 0
-436 435 56 0
-436 -435 -56 0
436 -435 56 0
436 435 -56 0
-437 436 113 0
-437 -436 -113 0
437 -436 113 0
437 436 -113 0
-438 437 129 0
-438 -437 -129 0
438 -437 129 0
438 437 -129 0
-439 438 130 0
-439 -438 -130 0
439 -438 130 0
439 438 -130 0
-439 0
-440 48 54 0
-440 -48 -54 0
440 -48 54 0
440 48 -54 0
-441 440 57 0
-441 -440 -57 0
441 -440 57 0
441 440 -57 0
-442 441 114 0
-442 -441 -114 0
442 -441 114 0
442 441 -114 0
-443 442 130 0
-443 -442 -130 0
443 -442 130 0
443 442 -130 0
-444 443 131 0
-444 -443 -131 0
444 -443 131 0
444 443 -131 0
-444 0
-445 49 55 0
-445 -49 -55 0
445 -49 55 0
445 49 -55 0
-446 445 64 0
-446 -445 -64 0
446 -445 64 0
446 445 -64 0
-447 446 115 0
-447 -446 -115 0
447 -446 115 0
447 446 -115 0
-448 447 137 0
-448 -447 -137 0
448 -447 137 0
448 447 -137 0
-449 448 138 0
-449 -448 -138 0
449 -448 138 0
449 448 -138 0
-449 0
-450 50 56 0
-450 -50 -56 0
450 -50 56 0
450 50 -56 0
-451 450 65 0
-451 -450 -65 0
451 -450 65 0
451 450 -65 0
-452 451 116 0
-452 -451 -116 0
452 -451 116 0
452 451 -116 0
-453 452 133 0
-453 -452 -133 0
453 -452 133 0
453 452 -133 0
-454 453 138 0
-454 -453 -138 0
454 -453 138 0
454 453 -138 0
-454 0
-455 51 57 0
-455 -51 -57 0
455 -51 57 0
455 51 -57 0
-456 455 66 0
-456 -455 -66 0
456 -455 66 0
456 455 -66 0
-457 456 117 0
-457 -456 -117 0
457 -456 117 0
457 456 -117 0
-458 457 133 0
-458 -457 -133 0
458 -457 133 0
458 457 -133 0
-459 458 134 0
-459 -458 -134 0
459 -458 134 0
459 458 -134 0
-459 0
-460 52 58 0
-460 -52 -58 0
460 -52 58 0
460 52 -58 0
-461 460 61 0
-461 -460 -61 0
461 -460 61 0
461 460 -61 0
-462 461 118 0
-462 -461 -118 0
462 -461 118 0
462 461 -118 0
-463 462 134 0
-463 -462 -134 0
463 -462 134 0
463 462 -134 0
-464 463 135 0
-464 -463 -135 0
464 -463 135 0
464 463 -135 0
-464 0
-465 53 59 0
-465 -53 -59 0
465 -53 59 0
465 53 -59 0
-466 465 62 0
-466 -465 -62 0
466 -465 62 0
466 465 -62 0
-467 466 119 0
-467 -466 -119 0
467 -466 119 0
467 466 -119 0
-468 467 135 0
-468 -467 -135 0
468 -467 135 0
468 467 -135 0
-469 468 136 0
-469 -468 -136 0
469 -468 136 0
469 468 -136 0
-469 0
-470 54 60 0
-470 -54 -60 0
470 -54 60 0
470 54 -60 0
-471 470 63 0
-471 -470 -63 0
471 -470 63 0
471 470 -63 0
-472 471 120 0
-472 -471 -120 0
472 -471 120 0
472 471 -120 0
-473 472 136 0
-473 -472 -136 0
473 -472 136 0
473 472 -136 0
-474 473 137 0
-474 -473 -137 0
474 -473 137 0
474 473 -137 0
-474 0
-475 55 61 0
-475 -55 -61 0
475 -55 61 0
475 55 -61 0
-476 475 70 0
-476 -475 -70 0
476 -475 70 0
476 475 -70 0
-477 476 121 0
-477 -476 -121 0
477 -476 121 0
477 476 -121 0
-478 477 143 0
-478 -477 -143 0
478 -477 143 0
478 477 -143 0
-479 478 144 0
-479 -478 -144 0
479 -478 144 0
479 478 -144 0
-479 0
-480 56 62 0
-480 -56 -62 0
480 -56 62 0
480 56 -62 0
-481 480 71 0
-481 -480 -71 0
481 -480 71 0
481 480 -71 0
-482 481 122 0
-482 -481 -122 0
482 -481 122 0
482 481 -122 0
-483 482 139 0
-483 -482 -139 0
483 -482 139 0
483 482 -139 0
-484 483 144 0
-484 -483 -144 0
484 -483 144 0
484 483 -144 0
-484 0
-485 57 63 0
-485 -57 -63 0
485 -57 63 0
485 57 -63 0
-486 485 72 0
-486 -485 -72 0
486 -485 72 0
486 485 -72 0
-487 486 123 0
-487 -486 -123 0
487 -486 123 0
487 486 -123 0
-488 487 139 0
-488 -487 -139 0
488 -487 139 0
488 487 -139 0
-489 488 140 0
-489 -488 -140 0
489 -488 140 0
489 488 -140 0
-489 0
-490 58 64 0
-490 -58 -64 0
490 -58 64 0
490 58 -64 0
-491 490 67 0
-491 -490 -67 0
491 -490 67 0
491 490 -67 0
-492 491 124 0
-492 -491 -124 0
492 -491 124 0
492 491 -124 0
-493 492 140 0
-493 -492 -140 0
493 -492 140 0
493 492 -140 0
-494 493 141 0
-494 -493 -141 0
494 -493 141 0
494 493 -141 0
-494 0
-495 59 65 0
-495 -59 -65 0
495 -59 65 0
495 59 -65 0
-496 495 68 0
-496 -495 -68 0
496 -495 68 0
496 495 -68 0
-497 496 125 0
-497 -496 -125 0
497 -496 125 0
497 496 -125 0
-498 497 141 0
-498 -497 -141 0
498 -497 141 0
498 497 -141 0
-499 498 142 0
-499 -498 -142 0
499 -498 142 0
499 498 -142 0
-499 0
-500 60 66 0
-500 -60 -66 0
500 -60 66 0
500 60 -66 0
-501 500 69 0
-501 -500 -69 0
501 -500 69 0
501 500 -69 0
-502 501 126 0
-502 -501 -126 0
502 -501 126 0
502 501 -126 0
-503 502 142 0
-503 -502 -142 0
503 -502 142 0
503 502 -142 0
-504 503 143 0
-504 -503 -143 0
504 -503 143 0
504 503 -143 0
-504 0
-505 1 2 0
-505 -1 -2 0
505 -1 2 0
505 1 -2 0
-506 505 5 0
-506 -505 -5 0
506 -505 5 0
506 505 -5 0
-507 506 6 0
-507 -506 -6 0
507 -506 6 0
507 506 -6 0
-508 507 19 0
-508 -507 -19 0
508 -507 19 0
508 507 -19 0
-509 508 21 0
-509 -508 -21 0
509 -508 21 0
509 508 -21 0
-510 509 37 0
-510 -509 -37 0
510 -509 37 0
510 509 -37 0
-511 510 38 0
-511 -510 -38 0
511 -510 38 0
511 510 -38 0
-512 511 41 0
-512 -511 -41 0
512 -511 41 0
512 511 -41 0
-513 512 42 0
-513 -512 -42 0
513 -512 42 0
513 512 -42 0
-514 513 55 0
-514 -513 -55 0
514 -513 55 0
514 513 -55 0
-515 514 57 0
-515 -514 -57 0
515 -514 57 0
515 514 -57 0
-516 1 2 0
-516 -1 -2 0
516 -1 2 0
516 1 -2 0
-517 516 3 0
-517 -516 -3 0
517 -516 3 0
517 516 -3 0
-518 517 6 0
-518 -517 -6 0
518 -517 6 0
518 517 -6 0
-519 518 20 0
-519 -518 -20 0
519 -518 20 0
519 518 -20 0
-520 519 22 0
-520 -519 -22 0
520 -519 22 0
520 519 -22 0
-521 520 37 0
-521 -520 -37 0
521 -520 37 0
521 520 -37 0
-522 521 38 0
-522 -521 -38 0
522 -521 38 0
522 521 -38 0
-523 522 39 0
-523 -522 -39 0
523 -522 39 0
523 522 -39 0
-524 523 42 0
-524 -523 -42 0
524 -523 42 0
524 523 -42 0
-525 524 56 0
-525 -524 -56 0
525 -524 56 0
525 524 -56 0
-526 525 58 0
-526 -525 -58 0
526 -525 58 0
526 525 -58 0
-527 3 4 0
-527 -3 -4 0
527 -3 4 0
527 3 -4 0
-528 527 5 0
-528 -527 -5 0
528 -527 5 0
528 527 -5 0
-529 528 6 0
-529 -528 -6 0
529 -528 6 0
529 528 -6 0
-530 529 19 0
-530 -529 -19 0
530 -529 19 0
530 529 -19 0
-531 530 23 0
-531 -530 -23 0
531 -530 23 0
531 530 -23 0
-532 531 39 0
-532 -531 -39 0
532 -531 39 0
532 531 -39 0
-533 532 40 0
-533 -532 -40 0
533 -532 40 0
533 532 -40 0
-534 533 41 0
-534 -533 -41 0
534 -533 41 0
534 533 -41 0
-535 534 42 0
-535 -534 -42 0
535 -534 42 0
535 534 -42 0
-536 535 55 0
-536 -535 -55 0
536 -535 55 0
536 535 -55 0
-537 536 59 0
-537 -536 -59 0
537 -536 59 0
537 536 -59 0
-538 1 4 0
-538 -1 -4 0
538 -1 4 0
538 1 -4 0
-539 538 5 0
-539 -538 -5 0
539 -538 5 0
539 538 -5 0
-540 539 6 0
-540 -539 -6 0
540 -539 6 0
540 539 -6 0
-541 540 20 0
-541 -540 -20 0
541 -540 20 0
541 540 -20 0
-542 541 24 0
-542 -541 -24 0
542 -541 24 0
542 541 -24 0
-543 542 37 0
-543 -542 -37 0
543 -542 37 0
543 542 -37 0
-544 543 40 0
-544 -543 -40 0
544 -543 40 0
544 543 -40 0
-545 544 41 0
-545 -544 -41 0
545 -544 41 0
545 544 -41 0
-546 545 42 0
-546 -545 -42 0
546 -545 42 0
546 545 -42 0
-547 546 56 0
-547 -546 -56 0
547 -546 56 0
547 546 -56 0
-548 547 60 0
-548 -547 -60 0
548 -547 60 0
548 547 -60 0
-549 7 8 0
-549 -7 -8 0
549 -7 8 0
549 7 -8 0
-550 549 11 0
-550 -549 -11 0
550 -549 11 0
550 549 -11 0
-551 550 12 0
-551 -550 -12 0
551 -550 12 0
551 550 -12 0
-552 551 25 0
-552 -551 -25 0
552 -551 25 0
552 551 -25 0
-553 552 27 0
-553 -552 -27 0
553 -552 27 0
553 552 -27 0
-554 553 43 0
-554 -553 -43 0
554 -553 43 0
554 553 -43 0
-555 554 44 0
-555 -554 -44 0
555 -554 44 0
555 554 -44 0
-556 555 47 0
-556 -555 -47 0
556 -555 47 0
556 555 -47 0
-557 556 48 0
-557 -556 -48 0
557 -556 48 0
557 556 -48 0
-558 557 61 0
-558 -557 -61 0
558 -557 61 0
558 557 -61 0
-559 558 63 0
-559 -558 -63 0
559 -558 63 0
559 558 -63 0
-560 7 8 0
-560 -7 -8 0
560 -7 8 0
560 7 -8 0
-561 560 9 0
-561 -560 -9 0
561 -560 9 0
561 560 -9 0
-562 561 12 0
-562 -561 -12 0
562 -561 12 0
562 561 -12 0
-563 562 26 0
-563 -562 -26 0
563 -562 26 0
563 562 -26 0
-564 563 28 0
-564 -563 -28 0
564 -563 28 0
564 563 -28 0
-565 564 43 0
-565 -564 -43 0
565 -564 43 0
565 564 -43 0
-566 565 44 0
-566 -565 -44 0
566 -565 44 0
566 565 -44 0
-567 566 45 0
-567 -566 -45 0
567 -566 45 0
567 566 -45 0
-568 567 48 0
-568 -567 -48 0
568 -567 48 0
568 567 -48 0
-569 568 62 0
-569 -568 -62 0
569 -568 62 0
569 568 -62 0
-570 569 64 0
-570 -569 -64 0
570 -569 64 0
570 569 -64 0
-571 7 8 0
-571 -7 -8 0
571 -7 8 0
571 7 -8 0
-572 571 9 0
-572 -571 -9 0
572 -571 9 0
572 571 -9 0
-573 572 19 0
-573 -572 -19 0
573 -572 19 0
573 572 -19 0
-574 573 20 0
-574 -573 -20 0
574 -573 20 0
574 573 -20 0
-575 574 21 0
-575 -574 -21 0
575 -574 21 0
575 574 -21 0
-576 575 22 0
-576 -575 -22 0
576 -575 22 0
576 575 -22 0
-577 576 23 0
-577 -576 -23 0
577 -576 23 0
577 576 -23 0
-578 577 24 0
-578 -577 -24 0
578 -577 24 0
578 577 -24 0
-579 578 26 0
-579 -578 -26 0
579 -578 26 0
579 578 -26 0
-580 579 28 0
-580 -579 -28 0
580 -579 28 0
580 579 -28 0
-581 580 30 0
-581 -580 -30 0
581 -580 30 0
581 580 -30 0
-582 581 43 0
-582 -581 -43 0
582 -581 43 0
582 581 -43 0
-583 582 44 0
-583 -582 -44 0
583 -582 44 0
583 582 -44 0
-584 583 45 0
-584 -583 -45 0
584 -583 45 0
584 583 -45 0
-585 584 46 0
-585 -584 -46 0
585 -584 46 0
585 584 -46 0
-586 585 47 0
-586 -585 -47 0
586 -585 47 0
586 585 -47 0
-587 586 48 0
-587 -586 -48 0
587 -586 48 0
587 586 -48 0
-588 587 73 0
-588 -587 -73 0
588 -587 73 0
588 587 -73 0
-589 588 74 0
-589 -588 -74 0
589 -588 74 0
589 588 -74 0
-590 589 75 0
-590 -589 -75 0
590 -589 75 0
590 589 -75 0
-591 590 79 0
-591 -590 -79 0
591 -590 79 0
591 590 -79 0
-592 591 80 0
-592 -591 -80 0
592 -591 80 0
592 591 -80 0
-593 592 81 0
-593 -592 -81 0
593 -592 81 0
593 592 -81 0
-594 7 10 0
-594 -7 -10 0
594 -7 10 0
594 7 -10 0
-595 594 25 0
-595 -594 -25 0
595 -594 25 0
595 594 -25 0
-596 595 26 0
-596 -595 -26 0
596 -595 26 0
596 595 -26 0
-597 596 27 0
-597 -596 -27 0
597 -596 27 0
597 596 -27 0
-598 597 28 0
-598 -597 -28 0
598 -597 28 0
598 597 -28 0
-599 598 29 0
-599 -598 -29 0
599 -598 29 0
599 598 -29 0
-600 599 30 0
-600 -599 -30 0
600 -599 30 0
600 599 -30 0
-601 600 73 0
-601 -600 -73 0
601 -600 73 0
601 600 -73 0
-602 601 76 0
-602 -601 -76 0
602 -601 76 0
602 601 -76 0
-603 602 79 0
-603 -602 -79 0
603 -602 79 0
603 602 -79 0
-604 603 82 0
-604 -603 -82 0
604 -603 82 0
604 603 -82 0
-605 7 9 0
-605 -7 -9 0
605 -7 9 0
605 7 -9 0
-606 605 14 0
-606 -605 -14 0
606 -605 14 0
606 605 -14 0
-607 606 15 0
-607 -606 -15 0
607 -606 15 0
607 606 -15 0
-608 607 20 0
-608 -607 -20 0
608 -607 20 0
608 607 -20 0
-609 608 22 0
-609 -608 -22 0
609 -608 22 0
609 608 -22 0
-610 609 24 0
-610 -609 -24 0
610 -609 24 0
610 609 -24 0
-611 610 26 0
-611 -610 -26 0
611 -610 26 0
611 610 -26 0
-612 611 28 0
-612 -611 -28 0
612 -611 28 0
612 611 -28 0
-613 612 30 0
-613 -612 -30 0
613 -612 30 0
613 612 -30 0
-614 613 32 0
-614 -613 -32 0
614 -613 32 0
614 613 -32 0
-615 614 34 0
-615 -614 -34 0
615 -614 34 0
615 614 -34 0
-616 615 36 0
-616 -615 -36 0
616 -615 36 0
616 615 -36 0
-617 616 37 0
-617 -616 -37 0
617 -616 37 0
617 616 -37 0
-618 617 38 0
-618 -617 -38 0
618 -617 38 0
618 617 -38 0
-619 618 39 0
-619 -618 -39 0
619 -618 39 0
619 618 -39 0
-620 619 40 0
-620 -619 -40 0
620 -619 40 0
620 619 -40 0
-621 620 41 0
-621 -620 -41 0
621 -620 41 0
621 620 -41 0
-622 621 42 0
-622 -621 -42 0
622 -621 42 0
622 621 -42 0
-623 622 43 0
-623 -622 -43 0
623 -622 43 0
623 622 -43 0
-624 623 44 0
-624 -623 -44 0
624 -623 44 0
624 623 -44 0
-625 624 45 0
-625 -624 -45 0
625 -624 45 0
625 624 -45 0
-626 625 46 0
-626 -625 -46 0
626 -625 46 0
626 625 -46 0
-627 626 47 0
-627 -626 -47 0
627 -626 47 0
627 626 -47 0
-628 627 48 0
-628 -627 -48 0
628 -627 48 0
628 627 -48 0
-629 628 49 0
-629 -628 -49 0
629 -628 49 0
629 628 -49 0
-630 629 50 0
-630 -629 -50 0
630 -629 50 0
630 629 -50 0
-631 630 51 0
-631 -630 -51 0
631 -630 51 0
631 630 -51 0
-632 631 52 0
-632 -631 -52 0
632 -631 52 0
632 631 -52 0
-633 632 53 0
-633 -632 -53 0
633 -632 53 0
633 632 -53 0
-634 633 54 0
-634 -633 -54 0
634 -633 54 0
634 633 -54 0
-635 634 73 0
-635 -634 -73 0
635 -634 73 0
635 634 -73 0
-636 635 75 0
-636 -635 -75 0
636 -635 75 0
636 635 -75 0
-637 636 79 0
-637 -636 -79 0
637 -636 79 0
637 636 -79 0
-638 637 80 0
-638 -637 -80 0
638 -637 80 0
638 637 -80 0
-639 638 85 0
-639 -638 -85 0
639 -638 85 0
639 638 -85 0
-640 7 9 0
-640 -7 -9 0
640 -7 9 0
640 7 -9 0
-641 640 10 0
-641 -640 -10 0
641 -640 10 0
641 640 -10 0
-642 641 15 0
-642 -641 -15 0
642 -641 15 0
642 641 -15 0
-643 642 16 0
-643 -642 -16 0
643 -642 16 0
643 642 -16 0
-644 643 20 0
-644 -643 -20 0
644 -643 20 0
644 643 -20 0
-645 644 22 0
-645 -644 -22 0
645 -644 22 0
645 644 -22 0
-646 645 24 0
-646 -645 -24 0
646 -645 24 0
646 645 -24 0
-647 646 25 0
-647 -646 -25 0
647 -646 25 0
647 646 -25 0
-648 647 26 0
-648 -647 -26 0
648 -647 26 0
648 647 -26 0
-649 648 27 0
-649 -648 -27 0
649 -648 27 0
649 648 -27 0
-650 649 28 0
-650 -649 -28 0
650 -649 28 0
650 649 -28 0
-651 650 29 0
-651 -650 -29 0
651 -650 29 0
651 650 -29 0
-652 651 30 0
-652 -651 -30 0
652 -651 30 0
652 651 -30 0
-653 652 31 0
-653 -652 -31 0
653 -652 31 0
653 652 -31 0
-654 653 33 0
-654 -653 -33 0
654 -653 33 0
654 653 -33 0
-655 654 35 0
-655 -654 -35 0
655 -654 35 0
655 654 -35 0
-656 655 37 0
-656 -655 -37 0
656 -655 37 0
656 655 -37 0
-657 656 38 0
-657 -656 -38 0
657 -656 38 0
657 656 -38 0
-658 657 39 0
-658 -657 -39 0
658 -657 39 0
658 657 -39 0
-659 658 40 0
-659 -658 -40 0
659 -658 40 0
659 658 -40 0
-660 659 41 0
-660 -659 -41 0
660 -659 41 0
660 659 -41 0
-661 660 42 0
-661 -660 -42 0
661 -660 42 0
661 660 -42 0
-662 661 49 0
-662 -661 -49 0
662 -661 49 0
662 661 -49 0
-663 662 50 0
-663 -662 -50 0
663 -662 50 0
663 662 -50 0
-664 663 51 0
-664 -663 -51 0
664 -663 51 0
664 663 -51 0
-665 664 52 0
-665 -664 -52 0
665 -664 52 0
665 664 -52 0
-666 665 53 0
-666 -665 -53 0
666 -665 53 0
666 665 -53 0
-667 666 54 0
-667 -666 -54 0
667 -666 54 0
667 666 -54 0
-668 667 73 0
-668 -667 -73 0
668 -667 73 0
668 667 -73 0
-669 668 75 0
-669 -668 -75 0
669 -668 75 0
669 668 -75 0
-670 669 76 0
-670 -669 -76 0
670 -669 76 0
670 669 -76 0
-671 670 79 0
-671 -670 -79 0
671 -670 79 0
671 670 -79 0
-672 671 86 0
-672 -671 -86 0
672 -671 86 0
672 671 -86 0
-673 7 8 0
-673 -7 -8 0
673 -7 8 0
673 7 -8 0
-674 673 9 0
-674 -673 -9 0
674 -673 9 0
674 673 -9 0
-675 674 10 0
-675 -674 -10 0
675 -674 10 0
675 674 -10 0
-676 675 13 0
-676 -675 -13 0
676 -675 13 0
676 675 -13 0
-677 676 15 0
-677 -676 -15 0
677 -676 15 0
677 676 -15 0
-678 677 16 0
-678 -677 -16 0
678 -677 16 0
678 677 -16 0
-679 678 19 0
-679 -678 -19 0
679 -678 19 0
679 678 -19 0
-680 679 20 0
-680 -679 -20 0
680 -679 20 0
680 679 -20 0
-681 680 21 0
-681 -680 -21 0
681 -680 21 0
681 680 -21 0
-682 681 22 0
-682 -681 -22 0
682 -681 22 0
682 681 -22 0
-683 682 23 0
-683 -682 -23 0
683 -682 23 0
683 682 -23 0
-684 683 24 0
-684 -683 -24 0
684 -683 24 0
684 683 -24 0
-685 684 31 0
-685 -684 -31 0
685 -684 31 0
685 684 -31 0
-686 685 33 0
-686 -685 -33 0
686 -685 33 0
686 685 -33 0
-687 686 35 0
-687 -686 -35 0
687 -686 35 0
687 686 -35 0
-688 687 49 0
-688 -687 -49 0
688 -687 49 0
688 687 -49 0
-689 688 50 0
-689 -688 -50 0
689 -688 50 0
689 688 -50 0
-690 689 51 0
-690 -689 -51 0
690 -689 51 0
690 689 -51 0
-691 690 52 0
-691 -690 -52 0
691 -690 52 0
691 690 -52 0
-692 691 53 0
-692 -691 -53 0
692 -691 53 0
692 691 -53 0
-693 692 54 0
-693 -692 -54 0
693 -692 54 0
693 692 -54 0
-694 693 73 0
-694 -693 -73 0
694 -693 73 0
694 693 -73 0
-695 694 74 0
-695 -694 -74 0
695 -694 74 0
695 694 -74 0
-696 695 75 0
-696 -695 -75 0
696 -695 75 0
696 695 -75 0
-697 696 76 0
-697 -696 -76 0
697 -696 76 0
697 696 -76 0
-698 697 80 0
-698 -697 -80 0
698 -697 80 0
698 697 -80 0
-699 698 87 0
-699 -698 -87 0
699 -698 87 0
699 698 -87 0
-700 9 10 0
-700 -9 -10 0
700 -9 10 0
700 9 -10 0
-701 700 13 0
-701 -700 -13 0
701 -700 13 0
701 700 -13 0
-702 701 14 0
-702 -701 -14 0
702 -701 14 0
702 701 -14 0
-703 702 15 0
-703 -702 -15 0
703 -702 15 0
703 702 -15 0
-704 703 16 0
-704 -703 -16 0
704 -703 16 0
704 703 -16 0
-705 704 20 0
-705 -704 -20 0
705 -704 20 0
705 704 -20 0
-706 705 22 0
-706 -705 -22 0
706 -705 22 0
706 705 -22 0
-707 706 24 0
-707 -706 -24 0
707 -706 24 0
707 706 -24 0
-708 707 25 0
-708 -707 -25 0
708 -707 25 0
708 707 -25 0
-709 708 27 0
-709 -708 -27 0
709 -708 27 0
709 708 -27 0
-710 709 29 0
-710 -709 -29 0
710 -709 29 0
710 709 -29 0
-711 710 31 0
-711 -710 -31 0
711 -710 31 0
711 710 -31 0
-712 711 33 0
-712 -711 -33 0
712 -711 33 0
712 711 -33 0
-713 712 35 0
-713 -712 -35 0
713 -712 35 0
713 712 -35 0
-714 713 37 0
-714 -713 -37 0
714 -713 37 0
714 713 -37 0
-715 714 38 0
-715 -714 -38 0
715 -714 38 0
715 714 -38 0
-716 715 39 0
-716 -715 -39 0
716 -715 39 0
716 715 -39 0
-717 716 40 0
-717 -716 -40 0
717 -716 40 0
717 716 -40 0
-718 717 41 0
-718 -717 -41 0
718 -717 41 0
718 717 -41 0
-719 718 42 0
-719 -718 -42 0
719 -718 42 0
719 718 -42 0
-720 719 43 0
-720 -719 -43 0
720 -719 43 0
720 719 -43 0
-721 720 44 0
-721 -720 -44 0
721 -720 44 0
721 720 -44 0
-722 721 45 0
-722 -721 -45 0
722 -721 45 0
722 721 -45 0
-723 722 46 0
-723 -722 -46 0
723 -722 46 0
723 722 -46 0
-724 723 47 0
-724 -723 -47 0
724 -723 47 0
724 723 -47 0
-725 724 48 0
-725 -724 -48 0
725 -724 48 0
725 724 -48 0
-726 725 49 0
-726 -725 -49 0
726 -725 49 0
726 725 -49 0
-727 726 50 0
-727 -726 -50 0
727 -726 50 0
727 726 -50 0
-728 727 51 0
-728 -727 -51 0
728 -727 51 0
728 727 -51 0
-729 728 52 0
-729 -728 -52 0
729 -728 52 0
729 728 -52 0
-730 729 53 0
-730 -729 -53 0
730 -729 53 0
730 729 -53 0
-731 730 54 0
-731 -730 -54 0
731 -730 54 0
731 730 -54 0
-732 731 75 0
-732 -731 -75 0
732 -731 75 0
732 731 -75 0
-733 732 76 0
-733 -732 -76 0
733 -732 76 0
733 732 -76 0
-734 733 79 0
-734 -733 -79 0
734 -733 79 0
734 733 -79 0
-735 734 80 0
-735 -734 -80 0
735 -734 80 0
735 734 -80 0
-736 735 88 0
-736 -735 -88 0
736 -735 88 0
736 735 -88 0
515 526 537 548 559 570 593 604 639 672 699 736 0
-1 737 0
-738 0
-739 0
-740 0
-741 0
-742 0
-743 0
-744 0
-745 0
-746 0
-747 0
-2 748 0
-737 748 0
-2 -737 749 0
-738 749 0
-2 -738 750 0
-739 750 0
-2 -739 751 0
-740 751 0
-2 -740 752 0
-741 752 0
-2 -741 753 0
-742 753 0
-2 -742 754 0
-743 754 0
-2 -743 755 0
-744 755 0
-2 -744 756 0
-745 756 0
-2 -745 757 0
-746 757 0
-2 -746 758 0
-747 758 0
-2 -747 0
-3 759 0
-748 759 0
-3 -748 760 0
-749 760 0
-3 -749 761 0
-750 761 0
-3 -750 762 0
-751 762 0
-3 -751 763 0
-752 763 0
-3 -752 764 0
-753 764 0
-3 -753 765 0
-754 765 0
-3 -754 766 0
-755 766 0
-3 -755 767 0
-756 767 0
-3 -756 768 0
-757 768 0
-3 -757 769 0
-758 769 0
-3 -758 0
-4 770 0
-759 770 0
-4 -759 771 0
-760 771 0
-4 -760 772 0
-761 772 0
-4 -761 773 0
-762 773 0
-4 -762 774 0
-763 774 0
-4 -763 775 0
-764 775 0
-4 -764 776 0
-765 776 0
-4 -765 777 0
-766 777 0
-4 -766 778 0
-767 778 0
-4 -767 779 0
-768 779 0
-4 -768 780 0
-769 780 0
-4 -769 0
-5 781 0
-770 781 0
-5 -770 782 0
-771 782 0
-5 -771 783 0
-772 783 0
-5 -772 784 0
-773 784 0
-5 -773 785 0
-774 785 0
-5 -774 786 0
-775 786 0
-5 -775 787 0
-776 787 0
-5 -776 788 0
-777 788 0
-5 -777 789 0
-778 789 0
-5 -778 790 0
-779 790 0
-5 -779 791 0
-780 791 0
-5 -780 0
-6 792 0
-781 792 0
-6 -781 793 0
-782 793 0
-6 -782 794 0
-783 794 0
-6 -783 795 0
-784 795 0
-6 -784 796 0
-785 796 0
-6 -785 797 0
-786 797 0
-6 -786 798 0
-787 798 0
-6 -787 799 0
-788 799 0
-6 -788 800 0
-789 800 0
-6 -789 801 0
-790 801 0
-6 -790 802 0
-791 802 0
-6 -791 0
-7 803 0
-792 803 0
-7 -792 804 0
-793 804 0
-7 -793 805 0
-794 805 0
-7 -794 806 0
-795 806 0
-7 -795 807 0
-796 807 0
-7 -796 808 0
-797 808 0
-7 -797 809 0
-798 809 0
-7 -798 810 0
-799 810 0
-7 -799 811 0
-800 811 0
-7 -800 812 0
-801 812 0
-7 -801 813 0
-802 813 0
-7 -802 0
-8 814 0
-803 814 0
-8 -803 815 0
-804 815 0
-8 -804 816 0
-805 816 0
-8 -805 817 0
-806 817 0
-8 -806 818 0
-807 818 0
-8 -807 819 0
-808 819 0
-8 -808 820 0
-809 820 0
-8 -809 821 0
-810 821 0
-8 -810 822 0
-811 822 0
-8 -811 823 0
-812 823 0
-8 -812 824 0
-813 824 0
-8 -813 0
-9 825 0
-814 825 0
-9 -814 826 0
-815 826 0
-9 -815 827 0
-816 827 0
-9 -816 828 0
-817 828 0
-9 -817 829 0
-818 829 0
-9 -818 830 0
-819 830 0
-9 -819 831 0
-820 831 0
-9 -820 832 0
-821 832 0
-9 -821 833 0
-822 833 0
-9 -822 834 0
-823 834 0
-9 -823 835 0
-824 835 0
-9 -824 0
-10 836 0
-825 836 0
-10 -825 837 0
-826 837 0
-10 -826 838 0
-827 838 0
-10 -827 839 0
-828 839 0
-10 -828 840 0
-829 840 0
-10 -829 841 0
-830 841 0
-10 -830 842 0
-831 842 0
-10 -831 843 0
-832 843 0
-10 -832 844 0
-833 844 0
-10 -833 845 0
-834 845 0
-10 -834 846 0
-835 846 0
-10 -835 0
-11 847 0
-836 847 0
-11 -836 848 0
-837 848 0
-11 -837 849 0
-838 849 0
-11 -838 850 0
-839 850 0
-11 -839 851 0
-840 851 0
-11 -840 852 0
-841 852 0
-11 -841 853 0
-842 853 0
-11 -842 854 0
-843 854 0
-11 -843 855 0
-844 855 0
-11 -844 856 0
-845 856 0
-11 -845 857 0
-846 857 0
-11 -846 0
-12 858 0
-847 858 0
-12 -847 859 0
-848 859 0
-12 -848 860 0
-849 860 0
-12 -849 861 0
-850 861 0
-12 -850 862 0
-851 862 0
-12 -851 863 0
-852 863 0
-12 -852 864 0
-853 864 0
-12 -853 865 0
-854 865 0
-12 -854 866 0
-855 866 0
-12 -855 867 0
-856 867 0
-12 -856 868 0
-857 868 0
-12 -857 0
-13 869 0
-858 869 0
-13 -858 870 0
-859 870 0
-13 -859 871 0
-860 871 0
-13 -860 872 0
-861 872 0
-13 -861 873 0
-862 873 0
-13 -862 874 0
-863 874 0
-13 -863 875 0
-864 875 0
-13 -864 876 0
-865 876 0
-13 -865 877 0
-866 877 0
-13 -866 878 0
-867 878 0
-13 -867 879 0
-868 879 0
-13 -868 0
-14 880 0
-869 880 0
-14 -869 881 0
-870 881 0
-14 -870 882 0
-871 882 0
-14 -871 883 0
-872 883 0
-14 -872 884 0
-873 884 0
-14 -873 885 0
-874 885 0
-14 -874 886 0
-875 886 0
-14 -875 887 0
-876 887 0
-14 -876 888 0
-877 888 0
-14 -877 889 0
-878 889 0
-14 -878 890 0
-879 890 0
-14 -879 0
-15 891 0
-880 891 0
-15 -880 892 0
-881 892 0
-15 -881 893 0
-882 893 0
-15 -882 894 0
-883 894 0
-15 -883 895 0
-884 895 0
-15 -884 896 0
-885 896 0
-15 -885 897 0
-886 897 0
-15 -886 898 0
-887 898 0
-15 -887 899 0
-888 899 0
-15 -888 900 0
-889 900 0
-15 -889 901 0
-890 901 0
-15 -890 0
-16 902 0
-891 902 0
-16 -891 903 0
-892 903 0
-16 -892 904 0
-893 904 0
-16 -893 905 0
-894 905 0
-16 -894 906 0
-895 906 0
-16 -895 907 0
-896 907 0
-16 -896 908 0
-897 908 0
-16 -897 909 0
-898 909 0
-16 -898 910 0
-899 910 0
-16 -899 911 0
-900 911 0
-16 -900 912 0
-901 912 0
-16 -901 0
-17 913 0
-902 913 0
-17 -902 914 0
-903 914 0
-17 -903 915 0
-904 915 0
-17 -904 916 0
-905 916 0
-17 -905 917 0
-906 917 0
-17 -906 918 0
-907 918 0
-17 -907 919 0
-908 919 0
-17 -908 920 0
-909 920 0
-17 -909 921 0
-910 921 0
-17 -910 922 0
-911 922 0
-17 -911 923 0
-912 923 0
-17 -912 0
-18 924 0
-913 924 0
-18 -913 925 0
-914 925 0
-18 -914 926 0
-915 926 0
-18 -915 927 0
-916 927 0
-18 -916 928 0
-917 928 0
-18 -917 929 0
-918 929 0
-18 -918 930 0
-919 930 0
-18 -919 931 0
-920 931 0
-18 -920 932 0
-921 932 0
-18 -921 933 0
-922 933 0
-18 -922 934 0
-923 934 0
-18 -923 0
-19 935 0
-924 935 0
-19 -924 936 0
-925 936 0
-19 -925 937 0
-926 937 0
-19 -926 938 0
-927 938 0
-19 -927 939 0
-928 939 0
-19 -928 940 0
-929 940 0
-19 -929 941 0
-930 941 0
-19 -930 942 0
-931 942 0
-19 -931 943 0
-932 943 0
-19 -932 944 0
-933 944 0
-19 -933 945 0
-934 945 0
-19 -934 0
-20 946 0
-935 946 0
-20 -935 947 0
-936 947 0
-20 -936 948 0
-937 948 0
-20 -937 949 0
-938 949 0
-20 -938 950 0
-939 950 0
-20 -939 951 0
-940 951 0
-20 -940 952 0
-941 952 0
-20 -941 953 0
-942 953 0
-20 -942 954 0
-943 954 0
-20 -943 955 0
-944 955 0
-20 -944 956 0
-945 956 0
-20 -945 0
-21 957 0
-946 957 0
-21 -946 958 0
-947 958 0
-21 -947 959 0
-948 959 0
-21 -948 960 0
-949 960 0
-21 -949 961 0
-950 961 0
-21 -950 962 0
-951 962 0
-21 -951 963 0
-952 963 0
-21 -952 964 0
-953 964 0
-21 -953 965 0
-954 965 0
-21 -954 966 0
-955 966 0
-21 -955 967 0
-956 967 0
-21 -956 0
-22 968 0
-957 968 0
-22 -957 969 0
-958 969 0
-22 -958 970 0
-959 970 0
-22 -959 971 0
-960 971 0
-22 -960 972 0
-961 972 0
-22 -961 973 0
-962 973 0
-22 -962 974 0
-963 974 0
-22 -963 975 0
-964 975 0
-22 -964 976 0
-965 976 0
-22 -965 977 0
-966 977 0
-22 -966 978 0
-967 978 0
-22 -967 0
-23 979 0
-968 979 0
-23 -968 980 0
-969 980 0
-23 -969 981 0
-970 981 0
-23 -970 982 0
-971 982 0
-23 -971 983 0
-972 983 0
-23 -972 984 0
-973 984 0
-23 -973 985 0
-974 985 0
-23 -974 986 0
-975 986 0
-23 -975 987 0
-976 987 0
-23 -976 988 0
-977 988 0
-23 -977 989 0
-978 989 0
-23 -978 0
-24 990 0
-979 990 0
-24 -979 991 0
-980 991 0
-24 -980 992 0
-981 992 0
-24 -981 993 0
-982 993 0
-24 -982 994 0
-983 994 0
-24 -983 995 0
-984 995 0
-24 -984 996 0
-985 996 0
-24 -985 997 0
-986 997 0
-24 -986 998 0
-987 998 0
-24 -987 999 0
-988 999 0
-24 -988 1000 0
-989 1000 0
-24 -989 0
-25 1001 0
-990 1001 0
-25 -990 1002 0
-991 1002 0
-25 -991 1003 0
-992 1003 0
-25 -992 1004 0
-993 1004 0
-25 -993 1005 0
-994 1005 0
-25 -994 1006 0
-995 1006 0
-25 -995 1007 0
-996 1007 0
-25 -996 1008 0
-997 1008 0
-25 -997 1009 0
-998 1009 0
-25 -998 1010 0
-999 1010 0
-25 -999 1011 0
-1000 1011 0
-25 -1000 0
-26 1012 0
-1001 1012 0
-26 -1001 1013 0
-1002 1013 0
-26 -1002 1014 0
-1003 1014 0
-26 -1003 1015 0
-1004 1015 0
-26 -1004 1016 0
-1005 1016 0
-26 -1005 1017 0
-1006 1017 0
-26 -1006 1018 0
-1007 1018 0
-26 -1007 1019 0
-1008 1019 0
-26 -1008 1020 0
-1009 1020 0
-26 -1009 1021 0
-1010 1021 0
-26 -1010 1022 0
-1011 1022 0
-26 -1011 0
-27 1023 0
-1012 1023 0
-27 -1012 1024 0
-1013 1024 0
-27 -1013 1025 0
-1014 1025 0
-27 -1014 1026 0
-1015 1026 0
-27 -1015 1027 0
-1016 1027 0
-27 -1016 1028 0
-1017 1028 0
-27 -1017 1029 0
-1018 1029 0
-27 -1018 1030 0
-1019 1030 0
-27 -1019 1031 0
-1020 1031 0
-27 -1020 1032 0
-1021 1032 0
-27 -1021 1033 0
-1022 1033 0
-27 -1022 0
-28 1034 0
-1023 1034 0
-28 -1023 1035 0
-1024 1035 0
-28 -1024 1036 0
-1025 1036 0
-28 -1025 1037 0
-1026 1037 0
-28 -1026 1038 0
-1027 1038 0
-28 -1027 1039 0
-1028 1039 0
-28 -1028 1040 0
-1029 1040 0
-28 -1029 1041 0
-1030 1041 0
-28 -1030 1042 0
-1031 1042 0
-28 -1031 1043 0
-1032 1043 0
-28 -1032 1044 0
-1033 1044 0
-28 -1033 0
-29 1045 0
-1034 1045 0
-29 -1034 1046 0
-1035 1046 0
-29 -1035 1047 0
-1036 1047 0
-29 -1036 1048 0
-1037 1048 0
-29 -1037 1049 0
-1038 1049 0
-29 -1038 1050 0
-1039 1050 0
-29 -1039 1051 0
-1040 1051 0
-29 -1040 1052 0
-1041 1052 0
-29 -1041 1053 0
-1042 1053 0
-29 -1042 1054 0
-1043 1054 0
-29 -1043 1055 0
-1044 1055 0
-29 -1044 0
-30 1056 0
-1045 1056 0
-30 -1045 1057 0
-1046 1057 0
-30 -1046 1058 0
-1047 1058 0
-30 -1047 1059 0
-1048 1059 0
-30 -1048 1060 0
-1049 1060 0
-30 -1049 1061 0
-1050 1061 0
-30 -1050 1062 0
-1051 1062 0
-30 -1051 1063 0
-1052 1063 0
-30 -1052 1064 0
-1053 1064 0
-30 -1053 1065 0
-1054 1065 0
-30 -1054 1066 0
-1055 1066 0
-30 -1055 0
-31 1067 0
-1056 1067 0
-31 -1056 1068 0
-1057 1068 0
-31 -1057 1069 0
-1058 1069 0
-31 -1058 1070 0
-1059 1070 0
-31 -1059 1071 0
-1060 1071 0
-31 -1060 1072 0
-1061 1072 0
-31 -1061 1073 0
-1062 1073 0
-31 -1062 1074 0
-1063 1074 0
-31 -1063 1075 0
-1064 1075 0
-31 -1064 1076 0
-1065 1076 0
-31 -1065 1077 0
-1066 1077 0
-31 -1066 0
-32 1078 0
-1067 1078 0
-32 -1067 1079 0
-1068 1079 0
-32 -1068 1080 0
-1069 1080 0
-32 -1069 1081 0
-1070 1081 0
-32 -1070 1082 0
-1071 1082 0
-32 -1071 1083 0
-1072 1083 0
-32 -1072 1084 0
-1073 1084 0
-32 -1073 1085 0
-1074 1085 0
-32 -1074 1086 0
-1075 1086 0
-32 -1075 1087 0
-1076 1087 0
-32 -1076 1088 0
-1077 1088 0
-32 -1077 0
-33 1089 0
-1078 1089 0
-33 -1078 1090 0
-1079 1090 0
-33 -1079 1091 0
-1080 1091 0
-33 -1080 1092 0
-1081 1092 0
-33 -1081 1093 0
-1082 1093 0
-33 -1082 1094 0
-1083 1094 0
-33 -1083 1095 0
-1084 1095 0
-33 -1084 1096 0
-1085 1096 0
-33 -1085 1097 0
-1086 1097 0
-33 -1086 1098 0
-1087 1098 0
-33 -1087 1099 0
-1088 1099 0
-33 -1088 0
-34 1100 0
-1089 1100 0
-34 -1089 1101 0
-1090 1101 0
-34 -1090 1102 0
-1091 1102 0
-34 -1091 1103 0
-1092 1103 0
-34 -1092 1104 0
-1093 1104 0
-34 -1093 1105 0
-1094 1105 0
-34 -1094 1106 0
-1095 1106 0
-34 -1095 1107 0
-1096 1107 0
-34 -1096 1108 0
-1097 1108 0
-34 -1097 1109 0
-1098 1109 0
-34 -1098 1110 0
-1099 1110 0
-34 -1099 0
-35 1111 0
-1100 1111 0
-35 -1100 1112 0
-1101 1112 0
-35 -1101 1113 0
-1102 1113 0
-35 -1102 1114 0
-1103 1114 0
-35 -1103 1115 0
-1104 1115 0
-35 -1104 1116 0
-1105 1116 0
-35 -1105 1117 0
-1106 1117 0
-35 -1106 1118 0
-1107 1118 0
-35 -1107 1119 0
-1108 1119 0
-35 -1108 1120 0
-1109 1120 0
-35 -1109 1121 0
-1110 1121 0
-35 -1110 0
-36 1122 0
-1111 1122 0
-36 -1111 1123 0
-1112 1123 0
-36 -1112 1124 0
-1113 1124 0
-36 -1113 1125 0
-1114 1125 0
-36 -1114 1126 0
-1115 1126 0
-36 -1115 1127 0
-1116 1127 0
-36 -1116 1128 0
-1117 1128 0
-36 -1117 1129 0
-1118 1129 0
-36 -1118 1130 0
-1119 1130 0
-36 -1119 1131 0
-1120 1131 0
-36 -1120 1132 0
-1121 1132 0
-36 -1121 0
-37 1133 0
-1122 1133 0
-37 -1122 1134 0
-1123 1134 0
-37 -1123 1135 0
-1124 1135 0
-37 -1124 1136 0
-1125 1136 0
-37 -1125 1137 0
-1126 1137 0
-37 -1126 1138 0
-1127 1138 0
-37 -1127 1139 0
-1128 1139 0
-37 -1128 1140 0
-1129 1140 0
-37 -1129 1141 0
-1130 1141 0
-37 -1130 1142 0
-1131 1142 0
-37 -1131 1143 0
-1132 1143 0
-37 -1132 0
-38 1144 0
-1133 1144 0
-38 -1133 1145 0
-1134 1145 0
-38 -1134 1146 0
-1135 1146 0
-38 -1135 1147 0
-1136 1147 0
-38 -1136 1148 0
-1137 1148 0
-38 -1137 1149 0
-1138 1149 0
-38 -1138 1150 0
-1139 1150 0
-38 -1139 1151 0
-1140 1151 0
-38 -1140 1152 0
-1141 1152 0
-38 -1141 1153 0
-1142 1153 0
-38 -1142 1154 0
-1143 1154 0
-38 -1143 0
-39 1155 0
-1144 1155 0
-39 -1144 1156 0
-1145 1156 0
-39 -1145 1157 0
-1146 1157 0
-39 -1146 1158 0
-1147 1158 0
-39 -1147 1159 0
-1148 1159 0
-39 -1148 1160 0
-1149 1160 0
-39 -1149 1161 0
-1150 1161 0
-39 -1150 1162 0
-1151 1162 0
-39 -1151 1163 0
-1152 1163 0
-39 -1152 1164 0
-1153 1164 0
-39 -1153 1165 0
-1154 1165 0
-39 -1154 0
-40 1166 0
-1155 1166 0
-40 -1155 1167 0
-1156 1167 0
-40 -1156 1168 0
-1157 1168 0
-40 -1157 1169 0
-1158 1169 0
-40 -1158 1170 0
-1159 1170 0
-40 -1159 1171 0
-1160 1171 0
-40 -1160 1172 0
-1161 1172 0
-40 -1161 1173 0
-1162 1173 0
-40 -1162 1174 0
-1163 1174 0
-40 -1163 1175 0
-1164 1175 0
-40 -1164 1176 0
-1165 1176 0
-40 -1165 0
-41 1177 0
-1166 1177 0
-41 -1166 1178 0
-1167 1178 0
-41 -1167 1179 0
-1168 1179 0
-41 -1168 1180 0
-1169 1180 0
-41 -1169 1181 0
-1170 1181 0
-41 -1170 1182 0
-1171 1182 0
-41 -1171 1183 0
-1172 1183 0
-41 -1172 1184 0
-1173 1184 0
-41 -1173 1185 0
-1174 1185 0
-41 -1174 1186 0
-1175 1186 0
-41 -1175 1187 0
-1176 1187 0
-41 -1176 0
-42 1188 0
-1177 1188 0
-42 -1177 1189 0
-1178 1189 0
-42 -1178 1190 0
-1179 1190 0
-42 -1179 1191 0
-1180 1191 0
-42 -1180 1192 0
-1181 1192 0
-42 -1181 1193 0
-1182 1193 0
-42 -1182 1194 0
-1183 1194 0
-42 -1183 1195 0
-1184 1195 0
-42 -1184 1196 0
-1185 1196 0
-42 -1185 1197 0
-1186 1197 0
-42 -1186 1198 0
-1187 1198 0
-42 -1187 0
-43 1199 0
-1188 1199 0
-43 -1188 1200 0
-1189 1200 0
-43 -1189 1201 0
-1190 1201 0
-43 -1190 1202 0
-1191 1202 0
-43 -1191 1203 0
-1192 1203 0
-43 -1192 1204 0
-1193 1204 0
-43 -1193 1205 0
-1194 1205 0
-43 -1194 1206 0
-1195 1206 0
-43 -1195 1207 0
-1196 1207 0
-43 -1196 1208 0
-1197 1208 0
-43 -1197 1209 0
-1198 1209 0
-43 -1198 0
-44 1210 0
-1199 1210 0
-44 -1199 1211 0
-1200 1211 0
-44 -1200 1212 0
-1201 1212 0
-44 -1201 1213 0
-1202 1213 0
-44 -1202 1214 0
-1203 1214 0
-44 -1203 1215 0
-1204 1215 0
-44 -1204 1216 0
-1205 1216 0
-44 -1205 1217 0
-1206 1217 0
-44 -1206 1218 0
-1207 1218 0
-44 -1207 1219 0
-1208 1219 0
-44 -1208 1220 0
-1209 1220 0
-44 -1209 0
-45 1221 0
-1210 1221 0
-45 -1210 1222 0
-1211 1222 0
-45 -1211 1223 0
-1212 1223 0
-45 -1212 1224 0
-1213 1224 0
-45 -1213 1225 0
-1214 1225 0
-45 -1214 1226 0
-1215 1226 0
-45 -1215 1227 0
-1216 1227 0
-45 -1216 1228 0
-1217 1228 0
-45 -1217 1229 0
-1218 1229 0
-45 -1218 1230 0
-1219 1230 0
-45 -1219 1231 0
-1220 1231 0
-45 -1220 0
-46 1232 0
-1221 1232 0
-46 -1221 1233 0
-1222 1233 0
-46 -1222 1234 0
-1223 1234 0
-46 -1223 1235 0
-1224 1235 0
-46 -1224 1236 0
-1225 1236 0
-46 -1225 1237 0
-1226 1237 0
-46 -1226 1238 0
-1227 1238 0
-46 -1227 1239 0
-1228 1239 0
-46 -1228 1240 0
-1229 1240 0
-46 -1229 1241 0
-1230 1241 0
-46 -1230 1242 0
-1231 1242 0
-46 -1231 0
-47 1243 0
-1232 1243 0
-47 -1232 1244 0
-1233 1244 0
-47 -1233 1245 0
-1234 1245 0
-47 -1234 1246 0
-1235 1246 0
-47 -1235 1247 0
-1236 1247 0
-47 -1236 1248 0
-1237 1248 0
-47 -1237 1249 0
-1238 1249 0
-47 -1238 1250 0
-1239 1250 0
-47 -1239 1251 0
-1240 1251 0
-47 -1240 1252 0
-1241 1252 0
-47 -1241 1253 0
-1242 1253 0
-47 -1242 0
-48 1254 0
-1243 1254 0
-48 -1243 1255 0
-1244 1255 0
-48 -1244 1256 0
-1245 1256 0
-48 -1245 1257 0
-1246 1257 0
-48 -1246 1258 0
-1247 1258 0
-48 -1247 1259 0
-1248 1259 0
-48 -1248 1260 0
-1249 1260 0
-48 -1249 1261 0
-1250 1261 0
-48 -1250 1262 0
-1251 1262 0
-48 -1251 1263 0
-1252 1263 0
-48 -1252 1264 0
-1253 1264 0
-48 -1253 0
-49 1265 0
-1254 1265 0
-49 -1254 1266 0
-1255 1266 0
-49 -1255 1267 0
-1256 1267 0
-49 -1256 1268 0
-1257 1268 0
-49 -1257 1269 0
-1258 1269 0
-49 -1258 1270 0
-1259 1270 0
-49 -1259 1271 0
-1260 1271 0
-49 -1260 1272 0
-1261 1272 0
-49 -1261 1273 0
-1262 1273 0
-49 -1262 1274 0
-1263 1274 0
-49 -1263 1275 0
-1264 1275 0
-49 -1264 0
-50 1276 0
-1265 1276 0
-50 -1265 1277 0
-1266 1277 0
-50 -1266 1278 0
-1267 1278 0
-50 -1267 1279 0
-1268 1279 0
-50 -1268 1280 0
-1269 1280 0
-50 -1269 1281 0
-1270 1281 0
-50 -1270 1282 0
-1271 1282 0
-50 -1271 1283 0
-1272 1283 0
-50 -1272 1284 0
-1273 1284 0
-50 -1273 1285 0
-1274 1285 0
-50 -1274 1286 0
-1275 1286 0
-50 -1275 0
-51 1287 0
-1276 1287 0
-51 -1276 1288 0
-1277 1288 0
-51 -1277 1289 0
-1278 1289 0
-51 -1278 1290 0
-1279 1290 0
-51 -1279 1291 0
-1280 1291 0
-51 -1280 1292 0
-1281 1292 0
-51 -1281 1293 0
-1282 1293 0
-51 -1282 1294 0
-1283 1294 0
-51 -1283 1295 0
-1284 1295 0
-51 -1284 1296 0
-1285 1296 0
-51 -1285 1297 0
-1286 1297 0
-51 -1286 0
-52 1298 0
-1287 1298 0
-52 -1287 1299 0
-1288 1299 0
-52 -1288 1300 0
-1289 1300 0
-52 -1289 1301 0
-1290 1301 0
-52 -1290 1302 0
-1291 1302 0
-52 -1291 1303 0
-1292 1303 0
-52 -1292 1304 0
-1293 1304 0
-52 -1293 1305 0
-1294 1305 0
-52 -1294 1306 0
-1295 1306 0
-52 -1295 1307 0
-1296 1307 0
-52 -1296 1308 0
-1297 1308 0
-52 -1297 0
-53 1309 0
-1298 1309 0
-53 -1298 1310 0
-1299 1310 0
-53 -1299 1311 0
-1300 1311 0
-53 -1300 1312 0
-1301 1312 0
-53 -1301 1313 0
-1302 1313 0
-53 -1302 1314 0
-1303 1314 0
-53 -1303 1315 0
-1304 1315 0
-53 -1304 1316 0
-1305 1316 0
-53 -1305 1317 0
-1306 1317 0
-53 -1306 1318 0
-1307 1318 0
-53 -1307 1319 0
-1308 1319 0
-53 -1308 0
-54 1320 0
-1309 1320 0
-54 -1309 1321 0
-1310 1321 0
-54 -1310 1322 0
-1311 1322 0
-54 -1311 1323 0
-1312 1323 0
-54 -1312 1324 0
-1313 1324 0
-54 -1313 1325 0
-1314 1325 0
-54 -1314 1326 0
-1315 1326 0
-54 -1315 1327 0
-1316 1327 0
-54 -1316 1328 0
-1317 1328 0
-54 -1317 1329 0
-1318 1329 0
-54 -1318 1330 0
-1319 1330 0
-54 -1319 0
-55 1331 0
-1320 1331 0
-55 -1320 1332 0
-1321 1332 0
-55 -1321 1333 0
-1322 1333 0
-55 -1322 1334 0
-1323 1334 0
-55 -1323 1335 0
-1324 1335 0
-55 -1324 1336 0
-1325 1336 0
-55 -1325 1337 0
-1326 1337 0
-55 -1326 1338 0
-1327 1338 0
-55 -1327 1339 0
-1328 1339 0
-55 -1328 1340 0
-1329 1340 0
-55 -1329 1341 0
-1330 1341 0
-55 -1330 0
-56 1342 0
-1331 1342 0
-56 -1331 1343 0
-1332 1343 0
-56 -1332 1344 0
-1333 1344 0
-56 -1333 1345 0
-1334 1345 0
-56 -1334 1346 0
-1335 1346 0
-56 -1335 1347 0
-1336 1347 0
-56 -1336 1348 0
-1337 1348 0
-56 -1337 1349 0
-1338 1349 0
-56 -1338 1350 0
-1339 1350 0
-56 -1339 1351 0
-1340 1351 0
-56 -1340 1352 0
-1341 1352 0
-56 -1341 0
-57 1353 0
-1342 1353 0
-57 -1342 1354 0
-1343 1354 0
-57 -1343 1355 0
-1344 1355 0
-57 -1344 1356 0
-1345 1356 0
-57 -1345 1357 0
-1346 1357 0
-57 -1346 1358 0
-1347 1358 0
-57 -1347 1359 0
-1348 1359 0
-57 -1348 1360 0
-1349 1360 0
-57 -1349 1361 0
-1350 1361 0
-57 -1350 1362 0
-1351 1362 0
-57 -1351 1363 0
-1352 1363 0
-57 -1352 0
-58 1364 0
-1353 1364 0
-58 -1353 1365 0
-1354 1365 0
-58 -1354 1366 0
-1355 1366 0
-58 -1355 1367 0
-1356 1367 0
-58 -1356 1368 0
-1357 1368 0
-58 -1357 1369 0
-1358 1369 0
-58 -1358 1370 0
-1359 1370 0
-58 -1359 1371 0
-1360 1371 0
-58 -1360 1372 0
-1361 1372 0
-58 -1361 1373 0
-1362 1373 0
-58 -1362 1374 0
-1363 1374 0
-58 -1363 0
-59 1375 0
-1364 1375 0
-59 -1364 1376 0
-1365 1376 0
-59 -1365 1377 0
-1366 1377 0
-59 -1366 1378 0
-1367 1378 0
-59 -1367 1379 0
-1368 1379 0
-59 -1368 1380 0
-1369 1380 0
-59 -1369 1381 0
-1370 1381 0
-59 -1370 1382 0
-1371 1382 0
-59 -1371 1383 0
-1372 1383 0
-59 -1372 1384 0
-1373 1384 0
-59 -1373 1385 0
-1374 1385 0
-59 -1374 0
-60 1386 0
-1375 1386 0
-60 -1375 1387 0
-1376 1387 0
-60 -1376 1388 0
-1377 1388 0
-60 -1377 1389 0
-1378 1389 0
-60 -1378 1390 0
-1379 1390 0
-60 -1379 1391 0
-1380 1391 0
-60 -1380 1392 0
-1381 1392 0
-60 -1381 1393 0
-1382 1393 0
-60 -1382 1394 0
-1383 1394 0
-60 -1383 1395 0
-1384 1395 0
-60 -1384 1396 0
-1385 1396 0
-60 -1385 0
-61 1397 0
-1386 1397 0
-61 -1386 1398 0
-1387 1398 0
-61 -1387 1399 0
-1388 1399 0
-61 -1388 1400 0
-1389 1400 0
-61 -1389 1401 0
-1390 1401 0
-61 -1390 1402 0
-1391 1402 0
-61 -1391 1403 0
-1392 1403 0
-61 -1392 1404 0
-1393 1404 0
-61 -1393 1405 0
-1394 1405 0
-61 -1394 1406 0
-1395 1406 0
-61 -1395 1407 0
-1396 1407 0
-61 -1396 0
-62 1408 0
-1397 1408 0
-62 -1397 1409 0
-1398 1409 0
-62 -1398 1410 0
-1399 1410 0
-62 -1399 1411 0
-1400 1411 0
-62 -1400 1412 0
-1401 1412 0
-62 -1401 1413 0
-1402 1413 0
-62 -1402 1414 0
-1403 1414 0
-62 -1403 1415 0
-1404 1415 0
-62 -1404 1416 0
-1405 1416 0
-62 -1405 1417 0
-1406 1417 0
-62 -1406 1418 0
-1407 1418 0
-62 -1407 0
-63 1419 0
-1408 1419 0
-63 -1408 1420 0
-1409 1420 0
-63 -1409 1421 0
-1410 1421 0
-63 -1410 1422 0
-1411 1422 0
-63 -1411 1423 0
-1412 1423 0
-63 -1412 1424 0
-1413 1424 0
-63 -1413 1425 0
-1414 1425 0
-63 -1414 1426 0
-1415 1426 0
-63 -1415 1427 0
-1416 1427 0
-63 -1416 1428 0
-1417 1428 0
-63 -1417 1429 0
-1418 1429 0
-63 -1418 0
-64 1430 0
-1419 1430 0
-64 -1419 1431 0
-1420 1431 0
-64 -1420 1432 0
-1421 1432 0
-64 -1421 1433 0
-1422 1433 0
-64 -1422 1434 0
-1423 1434 0
-64 -1423 1435 0
-1424 1435 0
-64 -1424 1436 0
-1425 1436 0
-64 -1425 1437 0
-1426 1437 0
-64 -1426 1438 0
-1427 1438 0
-64 -1427 1439 0
-1428 1439 0
-64 -1428 1440 0
-1429 1440 0
-64 -1429 0
-65 1441 0
-1430 1441 0
-65 -1430 1442 0
-1431 1442 0
-65 -1431 1443 0
-1432 1443 0
-65 -1432 1444 0
-1433 1444 0
-65 -1433 1445 0
-1434 1445 0
-65 -1434 1446 0
-1435 1446 0
-65 -1435 1447 0
-1436 1447 0
-65 -1436 1448 0
-1437 1448 0
-65 -1437 1449 0
-1438 1449 0
-65 -1438 1450 0
-1439 1450 0
-65 -1439 1451 0
-1440 1451 0
-65 -1440 0
-66 1452 0
-1441 1452 0
-66 -1441 1453 0
-1442 1453 0
-66 -1442 1454 0
-1443 1454 0
-66 -1443 1455 0
-1444 1455 0
-66 -1444 1456 0
-1445 1456 0
-66 -1445 1457 0
-1446 1457 0
-66 -1446 1458 0
-1447 1458 0
-66 -1447 1459 0
-1448 1459 0
-66 -1448 1460 0
-1449 1460 0
-66 -1449 1461 0
-1450 1461 0
-66 -1450 1462 0
-1451 1462 0
-66 -1451 0
-67 1463 0
-1452 1463 0
-67 -1452 1464 0
-1453 1464 0
-67 -1453 1465 0
-1454 1465 0
-67 -1454 1466 0
-1455 1466 0
-67 -1455 1467 0
-1456 1467 0
-67 -1456 1468 0
-1457 1468 0
-67 -1457 1469 0
-1458 1469 0
-67 -1458 1470 0
-1459 1470 0
-67 -1459 1471 0
-1460 1471 0
-67 -1460 1472 0
-1461 1472 0
-67 -1461 1473 0
-1462 1473 0
-67 -1462 0
-68 1474 0
-1463 1474 0
-68 -1463 1475 0
-1464 1475 0
-68 -1464 1476 0
-1465 1476 0
-68 -1465 1477 0
-1466 1477 0
-68 -1466 1478 0
-1467 1478 0
-68 -1467 1479 0
-1468 1479 0
-68 -1468 1480 0
-1469 1480 0
-68 -1469 1481 0
-1470 1481 0
-68 -1470 1482 0
-1471 1482 0
-68 -1471 1483 0
-1472 1483 0
-68 -1472 1484 0
-1473 1484 0
-68 -1473 0
-69 1485 0
-1474 1485 0
-69 -1474 1486 0
-1475 1486 0
-69 -1475 1487 0
-1476 1487 0
-69 -1476 1488 0
-1477 1488 0
-69 -1477 1489 0
-1478 1489 0
-69 -1478 1490 0
-1479 1490 0
-69 -1479 1491 0
-1480 1491 0
-69 -1480 1492 0
-1481 1492 0
-69 -1481 1493 0
-1482 1493 0
-69 -1482 1494 0
-1483 1494 0
-69 -1483 1495 0
-1484 1495 0
-69 -1484 0
-70 1496 0
-1485 1496 0
-70 -1485 1497 0
-1486 1497 0
-70 -1486 1498 0
-1487 1498 0
-70 -1487 1499 0
-1488 1499 0
-70 -1488 1500 0
-1489 1500 0
-70 -1489 1501 0
-1490 1501 0
-70 -1490 1502 0
-1491 1502 0
-70 -1491 1503 0
-1492 1503 0
-70 -1492 1504 0
-1493 1504 0
-70 -1493 1505 0
-1494 1505 0
-70 -1494 1506 0
-1495 1506 0
-70 -1495 0
-71 1507 0
-1496 1507 0
-71 -1496 1508 0
-1497 1508 0
-71 -1497 1509 0
-1498 1509 0
-71 -1498 1510 0
-1499 1510 0
-71 -1499 1511 0
-1500 1511 0
-71 -1500 1512 0
-1501 1512 0
-71 -1501 1513 0
-1502 1513 0
-71 -1502 1514 0
-1503 1514 0
-71 -1503 1515 0
-1504 1515 0
-71 -1504 1516 0
-1505 1516 0
-71 -1505 1517 0
-1506 1517 0
-71 -1506 0
-72 1518 0
-1507 1518 0
-72 -1507 1519 0
-1508 1519 0
-72 -1508 1520 0
-1509 1520 0
-72 -1509 1521 0
-1510 1521 0
-72 -1510 1522 0
-1511 1522 0
-72 -1511 1523 0
-1512 1523 0
-72 -1512 1524 0
-1513 1524 0
-72 -1513 1525 0
-1514 1525 0
-72 -1514 1526 0
-1515 1526 0
-72 -1515 1527 0
-1516 1527 0
-72 -1516 1528 0
-1517 1528 0
-72 -1517 0
-73 1529 0
-1518 1529 0
-73 -1518 1530 0
-1519 1530 0
-73 -1519 1531 0
-1520 1531 0
-73 -1520 1532 0
-1521 1532 0
-73 -1521 1533 0
-1522 1533 0
-73 -1522 1534 0
-1523 1534 0
-73 -1523 1535 0
-1524 1535 0
-73 -1524 1536 0
-1525 1536 0
-73 -1525 1537 0
-1526 1537 0
-73 -1526 1538 0
-1527 1538 0
-73 -1527 1539 0
-1528 1539 0
-73 -1528 0
-74 1540 0
-1529 1540 0
-74 -1529 1541 0
-1530 1541 0
-74 -1530 1542 0
-1531 1542 0
-74 -1531 1543 0
-1532 1543 0
-74 -1532 1544 0
-1533 1544 0
-74 -1533 1545 0
-1534 1545 0
-74 -1534 1546 0
-1535 1546 0
-74 -1535 1547 0
-1536 1547 0
-74 -1536 1548 0
-1537 1548 0
-74 -1537 1549 0
-1538 1549 0
-74 -1538 1550 0
-1539 1550 0
-74 -1539 0
-75 1551 0
-1540 1551 0
-75 -1540 1552 0
-1541 1552 0
-75 -1541 1553 0
-1542 1553 0
-75 -1542 1554 0
-1543 1554 0
-75 -1543 1555 0
-1544 1555 0
-75 -1544 1556 0
-1545 1556 0
-75 -1545 1557 0
-1546 1557 0
-75 -1546 1558 0
-1547 1558 0
-75 -1547 1559 0
-1548 1559 0
-75 -1548 1560 0
-1549 1560 0
-75 -1549 1561 0
-1550 1561 0
-75 -1550 0
-76 1562 0
-1551 1562 0
-76 -1551 1563 0
-1552 1563 0
-76 -1552 1564 0
-1553 1564 0
-76 -1553 1565 0
-1554 1565 0
-76 -1554 1566 0
-1555 1566 0
-76 -1555 1567 0
-1556 1567 0
-76 -1556 1568 0
-1557 1568 0
-76 -1557 1569 0
-1558 1569 0
-76 -1558 1570 0
-1559 1570 0
-76 -1559 1571 0
-1560 1571 0
-76 -1560 1572 0
-1561 1572 0
-76 -1561 0
-77 1573 0
-1562 1573 0
-77 -1562 1574 0
-1563 1574 0
-77 -1563 1575 0
-1564 1575 0
-77 -1564 1576 0
-1565 1576 0
-77 -1565 1577 0
-1566 1577 0
-77 -1566 1578 0
-1567 1578 0
-77 -1567 1579 0
-1568 1579 0
-77 -1568 1580 0
-1569 1580 0
-77 -1569 1581 0
-1570 1581 0
-77 -1570 1582 0
-1571 1582 0
-77 -1571 1583 0
-1572 1583 0
-77 -1572 0
-78 1584 0
-1573 1584 0
-78 -1573 1585 0
-1574 1585 0
-78 -1574 1586 0
-1575 1586 0
-78 -1575 1587 0
-1576 1587 0
-78 -1576 1588 0
-1577 1588 0
-78 -1577 1589 0
-1578 1589 0
-78 -1578 1590 0
-1579 1590 0
-78 -1579 1591 0
-1580 1591 0
-78 -1580 1592 0
-1581 1592 0
-78 -1581 1593 0
-1582 1593 0
-78 -1582 1594 0
-1583 1594 0
-78 -1583 0
-79 1595 0
-1584 1595 0
-79 -1584 1596 0
-1585 1596 0
-79 -1585 1597 0
-1586 1597 0
-79 -1586 1598 0
-1587 1598 0
-79 -1587 1599 0
-1588 1599 0
-79 -1588 1600 0
-1589 1600 0
-79 -1589 1601 0
-1590 1601 0
-79 -1590 1602 0
-1591 1602 0
-79 -1591 1603 0
-1592 1603 0
-79 -1592 1604 0
-1593 1604 0
-79 -1593 1605 0
-1594 1605 0
-79 -1594 0
-80 1606 0
-1595 1606 0
-80 -1595 1607 0
-1596 1607 0
-80 -1596 1608 0
-1597 1608 0
-80 -1597 1609 0
-1598 1609 0
-80 -1598 1610 0
-1599 1610 0
-80 -1599 1611 0
-1600 1611 0
-80 -1600 1612 0
-1601 1612 0
-80 -1601 1613 0
-1602 1613 0
-80 -1602 1614 0
-1603 1614 0
-80 -1603 1615 0
-1604 1615 0
-80 -1604 1616 0
-1605 1616 0
-80 -1605 0
-81 1617 0
-1606 1617 0
-81 -1606 1618 0
-1607 1618 0
-81 -1607 1619 0
-1608 1619 0
-81 -1608 1620 0
-1609 1620 0
-81 -1609 1621 0
-1610 1621 0
-81 -1610 1622 0
-1611 1622 0
-81 -1611 1623 0
-1612 1623 0
-81 -1612 1624 0
-1613 1624 0
-81 -1613 1625 0
-1614 1625 0
-81 -1614 1626 0
-1615 1626 0
-81 -1615 1627 0
-1616 1627 0
-81 -1616 0
-82 1628 0
-1617 1628 0
-82 -1617 1629 0
-1618 1629 0
-82 -1618 1630 0
-1619 1630 0
-82 -1619 1631 0
-1620 1631 0
-82 -1620 1632 0
-1621 1632 0
-82 -1621 1633 0
-1622 1633 0
-82 -1622 1634 0
-1623 1634 0
-82 -1623 1635 0
-1624 1635 0
-82 -1624 1636 0
-1625 1636 0
-82 -1625 1637 0
-1626 1637 0
-82 -1626 1638 0
-1627 1638 0
-82 -1627 0
-83 1639 0
-1628 1639 0
-83 -1628 1640 0
-1629 1640 0
-83 -1629 1641 0
-1630 1641 0
-83 -1630 1642 0
-1631 1642 0
-83 -1631 1643 0
-1632 1643 0
-83 -1632 1644 0
-1633 1644 0
-83 -1633 1645 0
-1634 1645 0
-83 -1634 1646 0
-1635 1646 0
-83 -1635 1647 0
-1636 1647 0
-83 -1636 1648 0
-1637 1648 0
-83 -1637 1649 0
-1638 1649 0
-83 -1638 0
-84 1650 0
-1639 1650 0
-84 -1639 1651 0
-1640 1651 0
-84 -1640 1652 0
-1641 1652 0
-84 -1641 1653 0
-1642 1653 0
-84 -1642 1654 0
-1643 1654 0
-84 -1643 1655 0
-1644 1655 0
-84 -1644 1656 0
-1645 1656 0
-84 -1645 1657 0
-1646 1657 0
-84 -1646 1658 0
-1647 1658 0
-84 -1647 1659 0
-1648 1659 0
-84 -1648 1660 0
-1649 1660 0
-84 -1649 0
-85 1661 0
-1650 1661 0
-85 -1650 1662 0
-1651 1662 0
-85 -1651 1663 0
-1652 1663 0
-85 -1652 1664 0
-1653 1664 0
-85 -1653 1665 0
-1654 1665 0
-85 -1654 1666 0
-1655 1666 0
-85 -1655 1667 0
-1656 1667 0
-85 -1656 1668 0
-1657 1668 0
-85 -1657 1669 0
-1658 1669 0
-85 -1658 1670 0
-1659 1670 0
-85 -1659 1671 0
-1660 1671 0
-85 -1660 0
-86 1672 0
-1661 1672 0
-86 -1661 1673 0
-1662 1673 0
-86 -1662 1674 0
-1663 1674 0
-86 -1663 1675 0
-1664 1675 0
-86 -1664 1676 0
-1665 1676 0
-86 -1665 1677 0
-1666 1677 0
-86 -1666 1678 0
-1667 1678 0
-86 -1667 1679 0
-1668 1679 0
-86 -1668 1680 0
-1669 1680 0
-86 -1669 1681 0
-1670 1681 0
-86 -1670 1682 0
-1671 1682 0
-86 -1671 0
-87 1683 0
-1672 1683 0
-87 -1672 1684 0
-1673 1684 0
-87 -1673 1685 0
-1674 1685 0
-87 -1674 1686 0
-1675 1686 0
-87 -1675 1687 0
-1676 1687 0
-87 -1676 1688 0
-1677 1688 0
-87 -1677 1689 0
-1678 1689 0
-87 -1678 1690 0
-1679 1690 0
-87 -1679 1691 0
-1680 1691 0
-87 -1680 1692 0
-1681 1692 0
-87 -1681 1693 0
-1682 1693 0
-87 -1682 0
-88 1694 0
-1683 1694 0
-88 -1683 1695 0
-1684 1695 0
-88 -1684 1696 0
-1685 1696 0
-88 -1685 1697 0
-1686 1697 0
-88 -1686 1698 0
-1687 1698 0
-88 -1687 1699 0
-1688 1699 0
-88 -1688 1700 0
-1689 1700 0
-88 -1689 1701 0
-1690 1701 0
-88 -1690 1702 0
-1691 1702 0
-88 -1691 1703 0
-1692 1703 0
-88 -1692 1704 0
-1693 1704 0
-88 -1693 0
-89 1705 0
-1694 1705 0
-89 -1694 1706 0
-1695 1706 0
-89 -1695 1707 0
-1696 1707 0
-89 -1696 1708 0
-1697 1708 0
-89 -1697 1709 0
-1698 1709 0
-89 -1698 1710 0
-1699 1710 0
-89 -1699 1711 0
-1700 1711 0
-89 -1700 1712 0
-1701 1712 0
-89 -1701 1713 0
-1702 1713 0
-89 -1702 1714 0
-1703 1714 0
-89 -1703 1715 0
-1704 1715 0
-89 -1704 0
-90 1716 0
-1705 1716 0
-90 -1705 1717 0
-1706 1717 0
-90 -1706 1718 0
-1707 1718 0
-90 -1707 1719 0
-1708 1719 0
-90 -1708 1720 0
-1709 1720 0
-90 -1709 1721 0
-1710 1721 0
-90 -1710 1722 0
-1711 1722 0
-90 -1711 1723 0
-1712 1723 0
-90 -1712 1724 0
-1713 1724 0
-90 -1713 1725 0
-1714 1725 0
-90 -1714 1726 0
-1715 1726 0
-90 -1715 0
-91 1727 0
-1716 1727 0
-91 -1716 1728 0
-1717 1728 0
-91 -1717 1729 0
-1718 1729 0
-91 -1718 1730 0
-1719 1730 0
-91 -1719 1731 0
-1720 1731 0
-91 -1720 1732 0
-1721 1732 0
-91 -1721 1733 0
-1722 1733 0
-91 -1722 1734 0
-1723 1734 0
-91 -1723 1735 0
-1724 1735 0
-91 -1724 1736 0
-1725 1736 0
-91 -1725 1737 0
-1726 1737 0
-91 -1726 0
-92 1738 0
-1727 1738 0
-92 -1727 1739 0
-1728 1739 0
-92 -1728 1740 0
-1729 1740 0
-92 -1729 1741 0
-1730 1741 0
-92 -1730 1742 0
-1731 1742 0
-92 -1731 1743 0
-1732 1743 0
-92 -1732 1744 0
-1733 1744 0
-92 -1733 1745 0
-1734 1745 0
-92 -1734 1746 0
-1735 1746 0
-92 -1735 1747 0
-1736 1747 0
-92 -1736 1748 0
-1737 1748 0
-92 -1737 0
-93 1749 0
-1738 1749 0
-93 -1738 1750 0
-1739 1750 0
-93 -1739 1751 0
-1740 1751 0
-93 -1740 1752 0
-1741 1752 0
-93 -1741 1753 0
-1742 1753 0
-93 -1742 1754 0
-1743 1754 0
-93 -1743 1755 0
-1744 1755 0
-93 -1744 1756 0
-1745 1756 0
-93 -1745 1757 0
-1746 1757 0
-93 -1746 1758 0
-1747 1758 0
-93 -1747 1759 0
-1748 1759 0
-93 -1748 0
-94 1760 0
-1749 1760 0
-94 -1749 1761 0
-1750 1761 0
-94 -1750 1762 0
-1751 1762 0
-94 -1751 1763 0
-1752 1763 0
-94 -1752 1764 0
-1753 1764 0
-94 -1753 1765 0
-1754 1765 0
-94 -1754 1766 0
-1755 1766 0
-94 -1755 1767 0
-1756 1767 0
-94 -1756 1768 0
-1757 1768 0
-94 -1757 1769 0
-1758 1769 0
-94 -1758 1770 0
-1759 1770 0
-94 -1759 0
-95 1771 0
-1760 1771 0
-95 -1760 1772 0
-1761 1772 0
-95 -1761 1773 0
-1762 1773 0
-95 -1762 1774 0
-1763 1774 0
-95 -1763 1775 0
-1764 1775 0
-95 -1764 1776 0
-1765 1776 0
-95 -1765 1777 0
-1766 1777 0
-95 -1766 1778 0
-1767 1778 0
-95 -1767 1779 0
-1768 1779 0
-95 -1768 1780 0
-1769 1780 0
-95 -1769 1781 0
-1770 1781 0
-95 -1770 0
-96 1782 0
-1771 1782 0
-96 -1771 1783 0
-1772 1783 0
-96 -1772 1784 0
-1773 1784 0
-96 -1773 1785 0
-1774 1785 0
-96 -1774 1786 0
-1775 1786 0
-96 -1775 1787 0
-1776 1787 0
-96 -1776 1788 0
-1777 1788 0
-96 -1777 1789 0
-1778 1789 0
-96 -1778 1790 0
-1779 1790 0
-96 -1779 1791 0
-1780 1791 0
-96 -1780 1792 0
-1781 1792 0
-96 -1781 0
-97 1793 0
-1782 1793 0
-97 -1782 1794 0
-1783 1794 0
-97 -1783 1795 0
-1784 1795 0
-97 -1784 1796 0
-1785 1796 0
-97 -1785 1797 0
-1786 1797 0
-97 -1786 1798 0
-1787 1798 0
-97 -1787 1799 0
-1788 1799 0
-97 -1788 1800 0
-1789 1800 0
-97 -1789 1801 0
-1790 1801 0
-97 -1790 1802 0
-1791 1802 0
-97 -1791 1803 0
-1792 1803 0
-97 -1792 0
-98 1804 0
-1793 1804 0
-98 -1793 1805 0
-1794 1805 0
-98 -1794 1806 0
-1795 1806 0
-98 -1795 1807 0
-1796 1807 0
-98 -1796 1808 0
-1797 1808 0
-98 -1797 1809 0
-1798 1809 0
-98 -1798 1810 0
-1799 1810 0
-98 -1799 1811 0
-1800 1811 0
-98 -1800 1812 0
-1801 1812 0
-98 -1801 1813 0
-1802 1813 0
-98 -1802 1814 0
-1803 1814 0
-98 -1803 0
-99 1815 0
-1804 1815 0
-99 -1804 1816 0
-1805 1816 0
-99 -1805 1817 0
-1806 1817 0
-99 -1806 1818 0
-1807 1818 0
-99 -1807 1819 0
-1808 1819 0
-99 -1808 1820 0
-1809 1820 0
-99 -1809 1821 0
-1810 1821 0
-99 -1810 1822 0
-1811 1822 0
-99 -1811 1823 0
-1812 1823 0
-99 -1812 1824 0
-1813 1824 0
-99 -1813 1825 0
-1814 1825 0
-99 -1814 0
-100 1826 0
-1815 1826 0
-100 -1815 1827 0
-1816 1827 0
-100 -1816 1828 0
-1817 1828 0
-100 -1817 1829 0
-1818 1829 0
-100 -1818 1830 0
-1819 1830 0
-100 -1819 1831 0
-1820 1831 0
-100 -1820 1832 0
-1821 1832 0
-100 -1821 1833 0
-1822 1833 0
-100 -1822 1834 0
-1823 1834 0
-100 -1823 1835 0
-1824 1835 0
-100 -1824 1836 0
-1825 1836 0
-100 -1825 0
-101 1837 0
-1826 1837 0
-101 -1826 1838 0
-1827 1838 0
-101 -1827 1839 0
-1828 1839 0
-101 -1828 1840 0
-1829 1840 0
-101 -1829 1841 0
-1830 1841 0
-101 -1830 1842 0
-1831 1842 0
-101 -1831 1843 0
-1832 1843 0
-101 -1832 1844 0
-1833 1844 0
-101 -1833 1845 0
-1834 1845 0
-101 -1834 1846 0
-1835 1846 0
-101 -1835 1847 0
-1836 1847 0
-101 -1836 0
-102 1848 0
-1837 1848 0
-102 -1837 1849 0
-1838 1849 0
-102 -1838 1850 0
-1839 1850 0
-102 -1839 1851 0
-1840 1851 0
-102 -1840 1852 0
-1841 1852 0
-102 -1841 1853 0
-1842 1853 0
-102 -1842 1854 0
-1843 1854 0
-102 -1843 1855 0
-1844 1855 0
-102 -1844 1856 0
-1845 1856 0
-102 -1845 1857 0
-1846 1857 0
-102 -1846 1858 0
-1847 1858 0
-102 -1847 0
-103 1859 0
-1848 1859 0
-103 -1848 1860 0
-1849 1860 0
-103 -1849 1861 0
-1850 1861 0
-103 -1850 1862 0
-1851 1862 0
-103 -1851 1863 0
-1852 1863 0
-103 -1852 1864 0
-1853 1864 0
-103 -1853 1865 0
-1854 1865 0
-103 -1854 1866 0
-1855 1866 0
-103 -1855 1867 0
-1856 1867 0
-103 -1856 1868 0
-1857 1868 0
-103 -1857 1869 0
-1858 1869 0
-103 -1858 0
-104 1870 0
-1859 1870 0
-104 -1859 1871 0
-1860 1871 0
-104 -1860 1872 0
-1861 1872 0
-104 -1861 1873 0
-1862 1873 0
-104 -1862 1874 0
-1863 1874 0
-104 -1863 1875 0
-1864 1875 0
-104 -1864 1876 0
-1865 1876 0
-104 -1865 1877 0
-1866 1877 0
-104 -1866 1878 0
-1867 1878 0
-104 -1867 1879 0
-1868 1879 0
-104 -1868 1880 0
-1869 1880 0
-104 -1869 0
-105 1881 0
-1870 1881 0
-105 -1870 1882 0
-1871 1882 0
-105 -1871 1883 0
-1872 1883 0
-105 -1872 1884 0
-1873 1884 0
-105 -1873 1885 0
-1874 1885 0
-105 -1874 1886 0
-1875 1886 0
-105 -1875 1887 0
-1876 1887 0
-105 -1876 1888 0
-1877 1888 0
-105 -1877 1889 0
-1878 1889 0
-105 -1878 1890 0
-1879 1890 0
-105 -1879 1891 0
-1880 1891 0
-105 -1880 0
-106 1892 0
-1881 1892 0
-106 -1881 1893 0
-1882 1893 0
-106 -1882 1894 0
-1883 1894 0
-106 -1883 1895 0
-1884 1895 0
-106 -1884 1896 0
-1885 1896 0
-106 -1885 1897 0
-1886 1897 0
-106 -1886 1898 0
-1887 1898 0
-106 -1887 1899 0
-1888 1899 0
-106 -1888 1900 0
-1889 1900 0
-106 -1889 1901 0
-1890 1901 0
-106 -1890 1902 0
-1891 1902 0
-106 -1891 0
-107 1903 0
-1892 1903 0
-107 -1892 1904 0
-1893 1904 0
-107 -1893 1905 0
-1894 1905 0
-107 -1894 1906 0
-1895 1906 0
-107 -1895 1907 0
-1896 1907 0
-107 -1896 1908 0
-1897 1908 0
-107 -1897 1909 0
-1898 1909 0
-107 -1898 1910 0
-1899 1910 0
-107 -1899 1911 0
-1900 1911 0
-107 -1900 1912 0
-1901 1912 0
-107 -1901 1913 0
-1902 1913 0
-107 -1902 0
-108 1914 0
-1903 1914 0
-108 -1903 1915 0
-1904 1915 0
-108 -1904 1916 0
-1905 1916 0
-108 -1905 1917 0
-1906 1917 0
-108 -1906 1918 0
-1907 1918 0
-108 -1907 1919 0
-1908 1919 0
-108 -1908 1920 0
-1909 1920 0
-108 -1909 1921 0
-1910 1921 0
-108 -1910 1922 0
-1911 1922 0
-108 -1911 1923 0
-1912 1923 0
-108 -1912 1924 0
-1913 1924 0
-108 -1913 0
-109 1925 0
-1914 1925 0
-109 -1914 1926 0
-1915 1926 0
-109 -1915 1927 0
-1916 1927 0
-109 -1916 1928 0
-1917 1928 0
-109 -1917 1929 0
-1918 1929 0
-109 -1918 1930 0
-1919 1930 0
-109 -1919 1931 0
-1920 1931 0
-109 -1920 1932 0
-1921 1932 0
-109 -1921 1933 0
-1922 1933 0
-109 -1922 1934 0
-1923 1934 0
-109 -1923 1935 0
-1924 1935 0
-109 -1924 0
-110 1936 0
-1925 1936 0
-110 -1925 1937 0
-1926 1937 0
-110 -1926 1938 0
-1927 1938 0
-110 -1927 1939 0
-1928 1939 0
-110 -1928 1940 0
-1929 1940 0
-110 -1929 1941 0
-1930 1941 0
-110 -1930 1942 0
-1931 1942 0
-110 -1931 1943 0
-1932 1943 0
-110 -1932 1944 0
-1933 1944 0
-110 -1933 1945 0
-1934 1945 0
-110 -1934 1946 0
-1935 1946 0
-110 -1935 0
-111 1947 0
-1936 1947 0
-111 -1936 1948 0
-1937 1948 0
-111 -1937 1949 0
-1938 1949 0
-111 -1938 1950 0
-1939 1950 0
-111 -1939 1951 0
-1940 1951 0
-111 -1940 1952 0
-1941 1952 0
-111 -1941 1953 0
-1942 1953 0
-111 -1942 1954 0
-1943 1954 0
-111 -1943 1955 0
-1944 1955 0
-111 -1944 1956 0
-1945 1956 0
-111 -1945 1957 0
-1946 1957 0
-111 -1946 0
-112 1958 0
-1947 1958 0
-112 -1947 1959 0
-1948 1959 0
-112 -1948 1960 0
-1949 1960 0
-112 -1949 1961 0
-1950 1961 0
-112 -1950 1962 0
-1951 1962 0
-112 -1951 1963 0
-1952 1963 0
-112 -1952 1964 0
-1953 1964 0
-112 -1953 1965 0
-1954 1965 0
-112 -1954 1966 0
-1955 1966 0
-112 -1955 1967 0
-1956 1967 0
-112 -1956 1968 0
-1957 1968 0
-112 -1957 0
-113 1969 0
-1958 1969 0
-113 -1958 1970 0
-1959 1970 0
-113 -1959 1971 0
-1960 1971 0
-113 -1960 1972 0
-1961 1972 0
-113 -1961 1973 0
-1962 1973 0
-113 -1962 1974 0
-1963 1974 0
-113 -1963 1975 0
-1964 1975 0
-113 -1964 1976 0
-1965 1976 0
-113 -1965 1977 0
-1966 1977 0
-113 -1966 1978 0
-1967 1978 0
-113 -1967 1979 0
-1968 1979 0
-113 -1968 0
-114 1980 0
-1969 1980 0
-114 -1969 1981 0
-1970 1981 0
-114 -1970 1982 0
-1971 1982 0
-114 -1971 1983 0
-1972 1983 0
-114 -1972 1984 0
-1973 1984 0
-114 -1973 1985 0
-1974 1985 0
-114 -1974 1986 0
-1975 1986 0
-114 -1975 1987 0
-1976 1987 0
-114 -1976 1988 0
-1977 1988 0
-114 -1977 1989 0
-1978 1989 0
-114 -1978 1990 0
-1979 1990 0
-114 -1979 0
-115 1991 0
-1980 1991 0
-115 -1980 1992 0
-1981 1992 0
-115 -1981 1993 0
-1982 1993 0
-115 -1982 1994 0
-1983 1994 0
-115 -1983 1995 0
-1984 1995 0
-115 -1984 1996 0
-1985 1996 0
-115 -1985 1997 0
-1986 1997 0
-115 -1986 1998 0
-1987 1998 0
-115 -1987 1999 0
-1988 1999 0
-115 -1988 2000 0
-1989 2000 0
-115 -1989 2001 0
-1990 2001 0
-115 -1990 0
-116 2002 0
-1991 2002 0
-116 -1991 2003 0
-1992 2003 0
-116 -1992 2004 0
-1993 2004 0
-116 -1993 2005 0
-1994 2005 0
-116 -1994 2006 0
-1995 2006 0
-116 -1995 2007 0
-1996 2007 0
-116 -1996 2008 0
-1997 2008 0
-116 -1997 2009 0
-1998 2009 0
-116 -1998 2010 0
-1999 2010 0
-116 -1999 2011 0
-2000 2011 0
-116 -2000 2012 0
-2001 2012 0
-116 -2001 0
-117 2013 0
-2002 2013 0
-117 -2002 2014 0
-2003 2014 0
-117 -2003 2015 0
-2004 2015 0
-117 -2004 2016 0
-2005 2016 0
-117 -2005 2017 0
-2006 2017 0
-117 -2006 2018 0
-2007 2018 0
-117 -2007 2019 0
-2008 2019 0
-117 -2008 2020 0
-2009 2020 0
-117 -2009 2021 0
-2010 2021 0
-117 -2010 2022 0
-2011 2022 0
-117 -2011 2023 0
-2012 2023 0
-117 -2012 0
-118 2024 0
-2013 2024 0
-118 -2013 2025 0
-2014 2025 0
-118 -2014 2026 0
-2015 2026 0
-118 -2015 2027 0
-2016 2027 0
-118 -2016 2028 0
-2017 2028 0
-118 -2017 2029 0
-2018 2029 0
-118 -2018 2030 0
-2019 2030 0
-118 -2019 2031 0
-2020 2031 0
-118 -2020 2032 0
-2021 2032 0
-118 -2021 2033 0
-2022 2033 0
-118 -2022 2034 0
-2023 2034 0
-118 -2023 0
-119 2035 0
-2024 2035 0
-119 -2024 2036 0
-2025 2036 0
-119 -2025 2037 0
-2026 2037 0
-119 -2026 2038 0
-2027 2038 0
-119 -2027 2039 0
-2028 2039 0
-119 -2028 2040 0
-2029 2040 0
-119 -2029 2041 0
-2030 2041 0
-119 -2030 2042 0
-2031 2042 0
-119 -2031 2043 0
-2032 2043 0
-119 -2032 2044 0
-2033 2044 0
-119 -2033 2045 0
-2034 2045 0
-119 -2034 0
-120 2046 0
-2035 2046 0
-120 -2035 2047 0
-2036 2047 0
-120 -2036 2048 0
-2037 2048 0
-120 -2037 2049 0
-2038 2049 0
-120 -2038 2050 0
-2039 2050 0
-120 -2039 2051 0
-2040 2051 0
-120 -2040 2052 0
-2041 2052 0
-120 -2041 2053 0
-2042 2053 0
-120 -2042 2054 0
-2043 2054 0
-120 -2043 2055 0
-2044 2055 0
-120 -2044 2056 0
-2045 2056 0
-120 -2045 0
-121 2057 0
-2046 2057 0
-121 -2046 2058 0
-2047 2058 0
-121 -2047 2059 0
-2048 2059 0
-121 -2048 2060 0
-2049 2060 0
-121 -2049 2061 0
-2050 2061 0
-121 -2050 2062 0
-2051 2062 0
-121 -2051 2063 0
-2052 2063 0
-121 -2052 2064 0
-2053 2064 0
-121 -2053 2065 0
-2054 2065 0
-121 -2054 2066 0
-2055 2066 0
-121 -2055 2067 0
-2056 2067 0
-121 -2056 0
-122 2068 0
-2057 2068 0
-122 -2057 2069 0
-2058 2069 0
-122 -2058 2070 0
-2059 2070 0
-122 -2059 2071 0
-2060 2071 0
-122 -2060 2072 0
-2061 2072 0
-122 -2061 2073 0
-2062 2073 0
-122 -2062 2074 0
-2063 2074 0
-122 -2063 2075 0
-2064 2075 0
-122 -2064 2076 0
-2065 2076 0
-122 -2065 2077 0
-2066 2077 0
-122 -2066 2078 0
-2067 2078 0
-122 -2067 0
-123 2079 0
-2068 2079 0
-123 -2068 2080 0
-2069 2080 0
-123 -2069 2081 0
-2070 2081 0
-123 -2070 2082 0
-2071 2082 0
-123 -2071 2083 0
-2072 2083 0
-123 -2072 2084 0
-2073 2084 0
-123 -2073 2085 0
-2074 2085 0
-123 -2074 2086 0
-2075 2086 0
-123 -2075 2087 0
-2076 2087 0
-123 -2076 2088 0
-2077 2088 0
-123 -2077 2089 0
-2078 2089 0
-123 -2078 0
-124 2090 0
-2079 2090 0
-124 -2079 2091 0
-2080 2091 0
-124 -2080 2092 0
-2081 2092 0
-124 -2081 2093 0
-2082 2093 0
-124 -2082 2094 0
-2083 2094 0
-124 -2083 2095 0
-2084 2095 0
-124 -2084 2096 0
-2085 2096 0
-124 -2085 2097 0
-2086 2097 0
-124 -2086 2098 0
-2087 2098 0
-124 -2087 2099 0
-2088 2099 0
-124 -2088 2100 0
-2089 2100 0
-124 -2089 0
-125 2101 0
-2090 2101 0
-125 -2090 2102 0
-2091 2102 0
-125 -2091 2103 0
-2092 2103 0
-125 -2092 2104 0
-2093 2104 0
-125 -2093 2105 0
-2094 2105 0
-125 -2094 2106 0
-2095 2106 0
-125 -2095 2107 0
-2096 2107 0
-125 -2096 2108 0
-2097 2108 0
-125 -2097 2109 0
-2098 2109 0
-125 -2098 2110 0
-2099 2110 0
-125 -2099 2111 0
-2100 2111 0
-125 -2100 0
-126 2112 0
-2101 2112 0
-126 -2101 2113 0
-2102 2113 0
-126 -2102 2114 0
-2103 2114 0
-126 -2103 2115 0
-2104 2115 0
-126 -2104 2116 0
-2105 2116 0
-126 -2105 2117 0
-2106 2117 0
-126 -2106 2118 0
-2107 2118 0
-126 -2107 2119 0
-2108 2119 0
-126 -2108 2120 0
-2109 2120 0
-126 -2109 2121 0
-2110 2121 0
-126 -2110 2122 0
-2111 2122 0
-126 -2111 0
-127 2123 0
-2112 2123 0
-127 -2112 2124 0
-2113 2124 0
-127 -2113 2125 0
-2114 2125 0
-127 -2114 2126 0
-2115 2126 0
-127 -2115 2127 0
-2116 2127 0
-127 -2116 2128 0
-2117 2128 0
-127 -2117 2129 0
-2118 2129 0
-127 -2118 2130 0
-2119 2130 0
-127 -2119 2131 0
-2120 2131 0
-127 -2120 2132 0
-2121 2132 0
-127 -2121 2133 0
-2122 2133 0
-127 -2122 0
-128 2134 0
-2123 2134 0
-128 -2123 2135 0
-2124 2135 0
-128 -2124 2136 0
-2125 2136 0
-128 -2125 2137 0
-2126 2137 0
-128 -2126 2138 0
-2127 2138 0
-128 -2127 2139 0
-2128 2139 0
-128 -2128 2140 0
-2129 2140 0
-128 -2129 2141 0
-2130 2141 0
-128 -2130 2142 0
-2131 2142 0
-128 -2131 2143 0
-2132 2143 0
-128 -2132 2144 0
-2133 2144 0
-128 -2133 0
-129 2145 0
-2134 2145 0
-129 -2134 2146 0
-2135 2146 0
-129 -2135 2147 0
-2136 2147 0
-129 -2136 2148 0
-2137 2148 0
-129 -2137 2149 0
-2138 2149 0
-129 -2138 2150 0
-2139 2150 0
-129 -2139 2151 0
-2140 2151 0
-129 -2140 2152 0
-2141 2152 0
-129 -2141 2153 0
-2142 2153 0
-129 -2142 2154 0
-2143 2154 0
-129 -2143 2155 0
-2144 2155 0
-129 -2144 0
-130 2156 0
-2145 2156 0
-130 -2145 2157 0
-2146 2157 0
-130 -2146 2158 0
-2147 2158 0
-130 -2147 2159 0
-2148 2159 0
-130 -2148 2160 0
-2149 2160 0
-130 -2149 2161 0
-2150 2161 0
-130 -2150 2162 0
-2151 2162 0
-130 -2151 2163 0
-2152 2163 0
-130 -2152 2164 0
-2153 2164 0
-130 -2153 2165 0
-2154 2165 0
-130 -2154 2166 0
-2155 2166 0
-130 -2155 0
-131 2167 0
-2156 2167 0
-131 -2156 2168 0
-2157 2168 0
-131 -2157 2169 0
-2158 2169 0
-131 -2158 2170 0
-2159 2170 0
-131 -2159 2171 0
-2160 2171 0
-131 -2160 2172 0
-2161 2172 0
-131 -2161 2173 0
-2162 2173 0
-131 -2162 2174 0
-2163 2174 0
-131 -2163 2175 0
-2164 2175 0
-131 -2164 2176 0
-2165 2176 0
-131 -2165 2177 0
-2166 2177 0
-131 -2166 0
-132 2178 0
-2167 2178 0
-132 -2167 2179 0
-2168 2179 0
-132 -2168 2180 0
-2169 2180 0
-132 -2169 2181 0
-2170 2181 0
-132 -2170 2182 0
-2171 2182 0
-132 -2171 2183 0
-2172 2183 0
-132 -2172 2184 0
-2173 2184 0
-132 -2173 2185 0
-2174 2185 0
-132 -2174 2186 0
-2175 2186 0
-132 -2175 2187 0
-2176 2187 0
-132 -2176 2188 0
-2177 2188 0
-132 -2177 0
-133 2189 0
-2178 2189 0
-133 -2178 2190 0
-2179 2190 0
-133 -2179 2191 0
-2180 2191 0
-133 -2180 2192 0
-2181 2192 0
-133 -2181 2193 0
-2182 2193 0
-133 -2182 2194 0
-2183 2194 0
-133 -2183 2195 0
-2184 2195 0
-133 -2184 2196 0
-2185 2196 0
-133 -2185 2197 0
-2186 2197 0
-133 -2186 2198 0
-2187 2198 0
-133 -2187 2199 0
-2188 2199 0
-133 -2188 0
-134 2200 0
-2189 2200 0
-134 -2189 2201 0
-2190 2201 0
-134 -2190 2202 0
-2191 2202 0
-134 -2191 2203 0
-2192 2203 0
-134 -2192 2204 0
-2193 2204 0
-134 -2193 2205 0
-2194 2205 0
-134 -2194 2206 0
-2195 2206 0
-134 -2195 2207 0
-2196 2207 0
-134 -2196 2208 0
-2197 2208 0
-134 -2197 2209 0
-2198 2209 0
-134 -2198 2210 0
-2199 2210 0
-134 -2199 0
-135 2211 0
-2200 2211 0
-135 -2200 2212 0
-2201 2212 0
-135 -2201 2213 0
-2202 2213 0
-135 -2202 2214 0
-2203 2214 0
-135 -2203 2215 0
-2204 2215 0
-135 -2204 2216 0
-2205 2216 0
-135 -2205 2217 0
-2206 2217 0
-135 -2206 2218 0
-2207 2218 0
-135 -2207 2219 0
-2208 2219 0
-135 -2208 2220 0
-2209 2220 0
-135 -2209 2221 0
-2210 2221 0
-135 -2210 0
-136 2222 0
-2211 2222 0
-136 -2211 2223 0
-2212 2223 0
-136 -2212 2224 0
-2213 2224 0
-136 -2213 2225 0
-2214 2225 0
-136 -2214 2226 0
-2215 2226 0
-136 -2215 2227 0
-2216 2227 0
-136 -2216 2228 0
-2217 2228 0
-136 -2217 2229 0
-2218 2229 0
-136 -2218 2230 0
-2219 2230 0
-136 -2219 2231 0
-2220 2231 0
-136 -2220 2232 0
-2221 2232 0
-136 -2221 0
-137 2233 0
-2222 2233 0
-137 -2222 2234 0
-2223 2234 0
-137 -2223 2235 0
-2224 2235 0
-137 -2224 2236 0
-2225 2236 0
-137 -2225 2237 0
-2226 2237 0
-137 -2226 2238 0
-2227 2238 0
-137 -2227 2239 0
-2228 2239 0
-137 -2228 2240 0
-2229 2240 0
-137 -2229 2241 0
-2230 2241 0
-137 -2230 2242 0
-2231 2242 0
-137 -2231 2243 0
-2232 2243 0
-137 -2232 0
-138 2244 0
-2233 2244 0
-138 -2233 2245 0
-2234 2245 0
-138 -2234 2246 0
-2235 2246 0
-138 -2235 2247 0
-2236 2247 0
-138 -2236 2248 0
-2237 2248 0
-138 -2237 2249 0
-2238 2249 0
-138 -2238 2250 0
-2239 2250 0
-138 -2239 2251 0
-2240 2251 0
-138 -2240 2252 0
-2241 2252 0
-138 -2241 2253 0
-2242 2253 0
-138 -2242 2254 0
-2243 2254 0
-138 -2243 0
-139 2255 0
-2244 2255 0
-139 -2244 2256 0
-2245 2256 0
-139 -2245 2257 0
-2246 2257 0
-139 -2246 2258 0
-2247 2258 0
-139 -2247 2259 0
-2248 2259 0
-139 -2248 2260 0
-2249 2260 0
-139 -2249 2261 0
-2250 2261 0
-139 -2250 2262 0
-2251 2262 0
-139 -2251 2263 0
-2252 2263 0
-139 -2252 2264 0
-2253 2264 0
-139 -2253 2265 0
-2254 2265 0
-139 -2254 0
-140 2266 0
-2255 2266 0
-140 -2255 2267 0
-2256 2267 0
-140 -2256 2268 0
-2257 2268 0
-140 -2257 2269 0
-2258 2269 0
-140 -2258 2270 0
-2259 2270 0
-140 -2259 2271 0
-2260 2271 0
-140 -2260 2272 0
-2261 2272 0
-140 -2261 2273 0
-2262 2273 0
-140 -2262 2274 0
-2263 2274 0
-140 -2263 2275 0
-2264 2275 0
-140 -2264 2276 0
-2265 2276 0
-140 -2265 0
-141 2277 0
-2266 2277 0
-141 -2266 2278 0
-2267 2278 0
-141 -2267 2279 0
-2268 2279 0
-141 -2268 2280 0
-2269 2280 0
-141 -2269 2281 0
-2270 2281 0
-141 -2270 2282 0
-2271 2282 0
-141 -2271 2283 0
-2272 2283 0
-141 -2272 2284 0
-2273 2284 0
-141 -2273 2285 0
-2274 2285 0
-141 -2274 2286 0
-2275 2286 0
-141 -2275 2287 0
-2276 2287 0
-141 -2276 0
-142 2288 0
-2277 2288 0
-142 -2277 2289 0
-2278 2289 0
-142 -2278 2290 0
-2279 2290 0
-142 -2279 2291 0
-2280 2291 0
-142 -2280 2292 0
-2281 2292 0
-142 -2281 2293 0
-2282 2293 0
-142 -2282 2294 0
-2283 2294 0
-142 -2283 2295 0
-2284 2295 0
-142 -2284 2296 0
-2285 2296 0
-142 -2285 2297 0
-2286 2297 0
-142 -2286 2298 0
-2287 2298 0
-142 -2287 0
-143 2299 0
-2288 2299 0
-143 -2288 2300 0
-2289 2300 0
-143 -2289 2301 0
-2290 2301 0
-143 -2290 2302 0
-2291 2302 0
-143 -2291 2303 0
-2292 2303 0
-143 -2292 2304 0
-2293 2304 0
-143 -2293 2305 0
-2294 2305 0
-143 -2294 2306 0
-2295 2306 0
-143 -2295 2307 0
-2296 2307 0
-143 -2296 2308 0
-2297 2308 0
-143 -2297 2309 0
-2298 2309 0
-143 -2298 0
-144 -2309 0
-1 0
-2 0
-3 0
-4 0
-5 0
-6 0
-7 0
-8 0
-9 0
-10 0
-11 0
-12 0
-13 0
-14 0
-15 0
-16 0
-17 0
-18 0
-19 0
-20 0
-21 0
-22 0
-23 0
-24 0
-25 0
-26 0
-27 0
-28 0
-29 0
-30 0
-31 0
-32 0
-33 0
-34 0
-35 0
-36 0
-37 0
-38 0
-39 0
-40 0
-41 0
-42 0
-43 0
-44 0
-45 0
-46 0
-47 0
-48 0
-49 0
-50 0
-51 0
-52 0
-53 0
-54 0
-55 0
-56 0
-57 0
-58 0
-59 0
-60 0
-61 0
-62 0
-63 0
-64 0
-65 0
-66 0
-67 0
-68 0
-69 0
-70 0
-71 0
-72 0
73 0
