p cnf 2358 5628
-145 2 3 0
-145 -2 -3 0
145 -2 3 0
145 2 -3 0
-146 145 19 0
-146 -145 -19 0
146 -145 19 0
146 145 -19 0
-147 146 76 0
-147 -146 -76 0
147 -146 76 0
147 146 -76 0
-148 147 79 0
-148 -147 -79 0
148 -147 79 0
148 147 -79 0
-149 148 85 0
-149 -148 -85 0
149 -148 85 0
149 148 -85 0
-149 0
-150 3 4 0
-150 -3 -4 0
150 -3 4 0
150 3 -4 0
-151 150 20 0
-151 -150 -20 0
151 -150 20 0
151 150 -20 0
-152 151 77 0
-152 -151 -77 0
152 -151 77 0
152 151 -77 0
-153 152 80 0
-153 -152 -80 0
153 -152 80 0
153 152 -80 0
-154 153 86 0
-154 -153 -86 0
154 -153 86 0
154 153 -86 0
-154 0
-155 4 5 0
-155 -4 -5 0
155 -4 5 0
155 4 -5 0
-156 155 21 0
-156 -155 -21 0
156 -155 21 0
156 155 -21 0
-157 156 78 0
-157 -156 -78 0
157 -156 78 0
157 156 -78 0
-158 157 81 0
-158 -157 -81 0
158 -157 81 0
158 157 -81 0
-159 158 87 0
-159 -158 -87 0
159 -158 87 0
159 158 -87 0
-159 0
-160 5 6 0
-160 -5 -6 0
160 -5 6 0
160 5 -6 0
-161 160 22 0
-161 -160 -22 0
161 -160 22 0
161 160 -22 0
-162 161 73 0
-162 -161 -73 0
162 -161 73 0
162 161 -73 0
-163 162 82 0
-163 -162 -82 0
163 -162 82 0
163 162 -82 0
-164 163 88 0
-164 -163 -88 0
164 -163 88 0
164 163 -88 0
-164 0
-165 1 6 0
-165 -1 -6 0
165 -1 6 0
165 1 -6 0
-166 165 23 0
-166 -165 -23 0
166 -165 23 0
166 165 -23 0
-167 166 74 0
-167 -166 -74 0
167 -166 74 0
167 166 -74 0
-168 167 83 0
-168 -167 -83 0
168 -167 83 0
168 167 -83 0
-169 168 89 0
-169 -168 -89 0
169 -168 89 0
169 168 -89 0
-169 0
-170 1 2 0
-170 -1 -2 0
170 -1 2 0
170 1 -2 0
-171 170 24 0
-171 -170 -24 0
171 -170 24 0
171 170 -24 0
-172 171 75 0
-172 -171 -75 0
172 -171 75 0
172 171 -75 0
-173 172 84 0
-173 -172 -84 0
173 -172 84 0
173 172 -84 0
-174 173 90 0
-174 -173 -90 0
174 -173 90 0
174 173 -90 0
-174 0
-175 8 9 0
-175 -8 -9 0
175 -8 9 0
175 8 -9 0
-176 175 25 0
-176 -175 -25 0
176 -175 25 0
176 175 -25 0
-177 176 82 0
-177 -176 -82 0
177 -176 82 0
177 176 -82 0
-178 177 85 0
-178 -177 -85 0
178 -177 85 0
178 177 -85 0
-179 178 91 0
-179 -178 -91 0
179 -178 91 0
179 178 -91 0
-179 0
-180 9 10 0
-180 -9 -10 0
180 -9 10 0
180 9 -10 0
-181 180 26 0
-181 -180 -26 0
181 -180 26 0
181 180 -26 0
-182 181 83 0
-182 -181 -83 0
182 -181 83 0
182 181 -83 0
-183 182 86 0
-183 -182 -86 0
183 -182 86 0
183 182 -86 0
-184 183 92 0
-184 -183 -92 0
184 -183 92 0
184 183 -92 0
-184 0
-185 10 11 0
-185 -10 -11 0
185 -10 11 0
185 10 -11 0
-186 185 27 0
-186 -185 -27 0
186 -185 27 0
186 185 -27 0
-187 186 84 0
-187 -186 -84 0
187 -186 84 0
187 186 -84 0
-188 187 87 0
-188 -187 -87 0
188 -187 87 0
188 187 -87 0
-189 188 93 0
-189 -188 -93 0
189 -188 93 0
189 188 -93 0
-189 0
-190 11 12 0
-190 -11 -12 0
190 -11 12 0
190 11 -12 0
-191 190 28 0
-191 -190 -28 0
191 -190 28 0
191 190 -28 0
-192 191 79 0
-192 -191 -79 0
192 -191 79 0
192 191 -79 0
-193 192 88 0
-193 -192 -88 0
193 -192 88 0
193 192 -88 0
-194 193 94 0
-194 -193 -94 0
194 -193 94 0
194 193 -94 0
-194 0
-195 7 12 0
-195 -7 -12 0
195 -7 12 0
195 7 -12 0
-196 195 29 0
-196 -195 -29 0
196 -195 29 0
196 195 -29 0
-197 196 80 0
-197 -196 -80 0
197 -196 80 0
197 196 -80 0
-198 197 89 0
-198 -197 -89 0
198 -197 89 0
198 197 -89 0
-199 198 95 0
-199 -198 -95 0
199 -198 95 0
199 198 -95 0
-199 0
-200 7 8 0
-200 -7 -8 0
200 -7 8 0
200 7 -8 0
-201 200 30 0
-201 -200 -30 0
201 -200 30 0
201 200 -30 0
-202 201 81 0
-202 -201 -81 0
202 -201 81 0
202 201 -81 0
-203 202 90 0
-203 -202 -90 0
203 -202 90 0
203 202 -90 0
-204 203 96 0
-204 -203 -96 0
204 -203 96 0
204 203 -96 0
-204 0
-205 14 15 0
-205 -14 -15 0
205 -14 15 0
205 14 -15 0
-206 205 31 0
-206 -205 -31 0
206 -205 31 0
206 205 -31 0
-207 206 88 0
-207 -206 -88 0
207 -206 88 0
207 206 -88 0
-208 207 91 0
-208 -207 -91 0
208 -207 91 0
208 207 -91 0
-209 208 97 0
-209 -208 -97 0
209 -208 97 0
209 208 -97 0
-209 0
-210 15 16 0
-210 -15 -16 0
210 -15 16 0
210 15 -16 0
-211 210 32 0
-211 -210 -32 0
211 -210 32 0
211 210 -32 0
-212 211 89 0
-212 -211 -89 0
212 -211 89 0
212 211 -89 0
-213 212 92 0
-213 -212 -92 0
213 -212 92 0
213 212 -92 0
-214 213 98 0
-214 -213 -98 0
214 -213 98 0
214 213 -98 0
-214 0
-215 16 17 0
-215 -16 -17 0
215 -16 17 0
215 16 -17 0
-216 215 33 0
-216 -215 -33 0
216 -215 33 0
216 215 -33 0
-217 216 90 0
-217 -216 -90 0
217 -216 90 0
217 216 -90 0
-218 217 93 0
-218 -217 -93 0
218 -217 93 0
218 217 -93 0
-219 218 99 0
-219 -218 -99 0
219 -218 99 0
219 218 -99 0
-219 0
-220 17 18 0
-220 -17 -18 0
220 -17 18 0
220 17 -18 0
-221 220 34 0
-221 -220 -34 0
221 -220 34 0
221 220 -34 0
-222 221 85 0
-222 -221 -85 0
222 -221 85 0
222 221 -85 0
-223 222 94 0
-223 -222 -94 0
223 -222 94 0
223 222 -94 0
-224 223 100 0
-224 -223 -100 0
224 -223 100 0
224 223 -100 0
-224 0
-225 13 18 0
-225 -13 -18 0
225 -13 18 0
225 13 -18 0
-226 225 35 0
-226 -225 -35 0
226 -225 35 0
226 225 -35 0
-227 226 86 0
-227 -226 -86 0
227 -226 86 0
227 226 -86 0
-228 227 95 0
-228 -227 -95 0
228 -227 95 0
228 227 -95 0
-229 228 101 0
-229 -228 -101 0
229 -228 101 0
229 228 -101 0
-229 0
-230 13 14 0
-230 -13 -14 0
230 -13 14 0
230 13 -14 0
-231 230 36 0
-231 -230 -36 0
231 -230 36 0
231 230 -36 0
-232 231 87 0
-232 -231 -87 0
232 -231 87 0
232 231 -87 0
-233 232 96 0
-233 -232 -96 0
233 -232 96 0
233 232 -96 0
-234 233 102 0
-234 -233 -102 0
234 -233 102 0
234 233 -102 0
-234 0
-235 20 21 0
-235 -20 -21 0
235 -20 21 0
235 20 -21 0
-236 235 37 0
-236 -235 -37 0
236 -235 37 0
236 235 -37 0
-237 236 94 0
-237 -236 -94 0
237 -236 94 0
237 236 -94 0
-238 237 97 0
-238 -237 -97 0
238 -237 97 0
238 237 -97 0
-239 238 103 0
-239 -238 -103 0
239 -238 103 0
239 238 -103 0
-239 0
-240 21 22 0
-240 -21 -22 0
240 -21 22 0
240 21 -22 0
-241 240 38 0
-241 -240 -38 0
241 -240 38 0
241 240 -38 0
-242 241 95 0
-242 -241 -95 0
242 -241 95 0
242 241 -95 0
-243 242 98 0
-243 -242 -98 0
243 -242 98 0
243 242 -98 0
-244 243 104 0
-244 -243 -104 0
244 -243 104 0
244 243 -104 0
-244 0
-245 22 23 0
-245 -22 -23 0
245 -22 23 0
245 22 -23 0
-246 245 39 0
-246 -245 -39 0
246 -245 39 0
246 245 -39 0
-247 246 96 0
-247 -246 -96 0
247 -246 96 0
247 246 -96 0
-248 247 99 0
-248 -247 -99 0
248 -247 99 0
248 247 -99 0
-249 248 105 0
-249 -248 -105 0
249 -248 105 0
249 248 -105 0
-249 0
-250 23 24 0
-250 -23 -24 0
250 -23 24 0
250 23 -24 0
-251 250 40 0
-251 -250 -40 0
251 -250 40 0
251 250 -40 0
-252 251 91 0
-252 -251 -91 0
252 -251 91 0
252 251 -91 0
-253 252 100 0
-253 -252 -100 0
253 -252 100 0
253 252 -100 0
-254 253 106 0
-254 -253 -106 0
254 -253 106 0
254 253 -106 0
-254 0
-255 19 24 0
-255 -19 -24 0
255 -19 24 0
255 19 -24 0
-256 255 41 0
-256 -255 -41 0
256 -255 41 0
256 255 -41 0
-257 256 92 0
-257 -256 -92 0
257 -256 92 0
257 256 -92 0
-258 257 101 0
-258 -257 -101 0
258 -257 101 0
258 257 -101 0
-259 258 107 0
-259 -258 -107 0
259 -258 107 0
259 258 -107 0
-259 0
-260 19 20 0
-260 -19 -20 0
260 -19 20 0
260 19 -20 0
-261 260 42 0
-261 -260 -42 0
261 -260 42 0
261 260 -42 0
-262 261 93 0
-262 -261 -93 0
262 -261 93 0
262 261 -93 0
-263 262 102 0
-263 -262 -102 0
263 -262 102 0
263 262 -102 0
-264 263 108 0
-264 -263 -108 0
264 -263 108 0
264 263 -108 0
-264 0
-265 26 27 0
-265 -26 -27 0
265 -26 27 0
265 26 -27 0
-266 265 43 0
-266 -265 -43 0
266 -265 43 0
266 265 -43 0
-267 266 100 0
-267 -266 -100 0
267 -266 100 0
267 266 -100 0
-268 267 103 0
-268 -267 -103 0
268 -267 103 0
268 267 -103 0
-269 268 109 0
-269 -268 -109 0
269 -268 109 0
269 268 -109 0
-269 0
-270 27 28 0
-270 -27 -28 0
270 -27 28 0
270 27 -28 0
-271 270 44 0
-271 -270 -44 0
271 -270 44 0
271 270 -44 0
-272 271 101 0
-272 -271 -101 0
272 -271 101 0
272 271 -101 0
-273 272 104 0
-273 -272 -104 0
273 -272 104 0
273 272 -104 0
-274 273 110 0
-274 -273 -110 0
274 -273 110 0
274 273 -110 0
-274 0
-275 28 29 0
-275 -28 -29 0
275 -28 29 0
275 28 -29 0
-276 275 45 0
-276 -275 -45 0
276 -275 45 0
276 275 -45 0
-277 276 102 0
-277 -276 -102 0
277 -276 102 0
277 276 -102 0
-278 277 105 0
-278 -277 -105 0
278 -277 105 0
278 277 -105 0
-279 278 111 0
-279 -278 -111 0
279 -278 111 0
279 278 -111 0
-279 0
-280 29 30 0
-280 -29 -30 0
280 -29 30 0
280 29 -30 0
-281 280 46 0
-281 -280 -46 0
281 -280 46 0
281 280 -46 0
-282 281 97 0
-282 -281 -97 0
282 -281 97 0
282 281 -97 0
-283 282 106 0
-283 -282 -106 0
283 -282 106 0
283 282 -106 0
-284 283 112 0
-284 -283 -112 0
284 -283 112 0
284 283 -112 0
-284 0
-285 25 30 0
-285 -25 -30 0
285 -25 30 0
285 25 -30 0
-286 285 47 0
-286 -285 -47 0
286 -285 47 0
286 285 -47 0
-287 286 98 0
-287 -286 -98 0
287 -286 98 0
287 286 -98 0
-288 287 107 0
-288 -287 -107 0
288 -287 107 0
288 287 -107 0
-289 288 113 0
-289 -288 -113 0
289 -288 113 0
289 288 -113 0
-289 0
-290 25 26 0
-290 -25 -26 0
290 -25 26 0
290 25 -26 0
-291 290 48 0
-291 -290 -48 0
291 -290 48 0
291 290 -48 0
-292 291 99 0
-292 -291 -99 0
292 -291 99 0
292 291 -99 0
-293 292 108 0
-293 -292 -108 0
293 -292 108 0
293 292 -108 0
-294 293 114 0
-294 -293 -114 0
294 -293 114 0
294 293 -114 0
-294 0
-295 32 33 0
-295 -32 -33 0
295 -32 33 0
295 32 -33 0
-296 295 49 0
-296 -295 -49 0
296 -295 49 0
296 295 -49 0
-297 296 106 0
-297 -296 -106 0
297 -296 106 0
297 296 -106 0
-298 297 109 0
-298 -297 -109 0
298 -297 109 0
298 297 -109 0
-299 298 115 0
-299 -298 -115 0
299 -298 115 0
299 298 -115 0
-299 0
-300 33 34 0
-300 -33 -34 0
300 -33 34 0
300 33 -34 0
-301 300 50 0
-301 -300 -50 0
301 -300 50 0
301 300 -50 0
-302 301 107 0
-302 -301 -107 0
302 -301 107 0
302 301 -107 0
-303 302 110 0
-303 -302 -110 0
303 -302 110 0
303 302 -110 0
-304 303 116 0
-304 -303 -116 0
304 -303 116 0
304 303 -116 0
-304 0
-305 34 35 0
-305 -34 -35 0
305 -34 35 0
305 34 -35 0
-306 305 51 0
-306 -305 -51 0
306 -305 51 0
306 305 -51 0
-307 306 108 0
-307 -306 -108 0
307 -306 108 0
307 306 -108 0
-308 307 111 0
-308 -307 -111 0
308 -307 111 0
308 307 -111 0
-309 308 117 0
-309 -308 -117 0
309 -308 117 0
309 308 -117 0
-309 0
-310 35 36 0
-310 -35 -36 0
310 -35 36 0
310 35 -36 0
-311 310 52 0
-311 -310 -52 0
311 -310 52 0
311 310 -52 0
-312 311 103 0
-312 -311 -103 0
312 -311 103 0
312 311 -103 0
-313 312 112 0
-313 -312 -112 0
313 -312 112 0
313 312 -112 0
-314 313 118 0
-314 -313 -118 0
314 -313 118 0
314 313 -118 0
-314 0
-315 31 36 0
-315 -31 -36 0
315 -31 36 0
315 31 -36 0
-316 315 53 0
-316 -315 -53 0
316 -315 53 0
316 315 -53 0
-317 316 104 0
-317 -316 -104 0
317 -316 104 0
317 316 -104 0
-318 317 113 0
-318 -317 -113 0
318 -317 113 0
318 317 -113 0
-319 318 119 0
-319 -318 -119 0
319 -318 119 0
319 318 -119 0
-319 0
-320 31 32 0
-320 -31 -32 0
320 -31 32 0
320 31 -32 0
-321 320 54 0
-321 -320 -54 0
321 -320 54 0
321 320 -54 0
-322 321 105 0
-322 -321 -105 0
322 -321 105 0
322 321 -105 0
-323 322 114 0
-323 -322 -114 0
323 -322 114 0
323 322 -114 0
-324 323 120 0
-324 -323 -120 0
324 -323 120 0
324 323 -120 0
-324 0
-325 38 39 0
-325 -38 -39 0
325 -38 39 0
325 38 -39 0
-326 325 55 0
-326 -325 -55 0
326 -325 55 0
326 325 -55 0
-327 326 112 0
-327 -326 -112 0
327 -326 112 0
327 326 -112 0
-328 327 115 0
-328 -327 -115 0
328 -327 115 0
328 327 -115 0
-329 328 121 0
-329 -328 -121 0
329 -328 121 0
329 328 -121 0
-329 0
-330 39 40 0
-330 -39 -40 0
330 -39 40 0
330 39 -40 0
-331 330 56 0
-331 -330 -56 0
331 -330 56 0
331 330 -56 0
-332 331 113 0
-332 -331 -113 0
332 -331 113 0
332 331 -113 0
-333 332 116 0
-333 -332 -116 0
333 -332 116 0
333 332 -116 0
-334 333 122 0
-334 -333 -122 0
334 -333 122 0
334 333 -122 0
-334 0
-335 40 41 0
-335 -40 -41 0
335 -40 41 0
335 40 -41 0
-336 335 57 0
-336 -335 -57 0
336 -335 57 0
336 335 -57 0
-337 336 114 0
-337 -336 -114 0
337 -336 114 0
337 336 -114 0
-338 337 117 0
-338 -337 -117 0
338 -337 117 0
338 337 -117 0
-339 338 123 0
-339 -338 -123 0
339 -338 123 0
339 338 -123 0
-339 0
-340 41 42 0
-340 -41 -42 0
340 -41 42 0
340 41 -42 0
-341 340 58 0
-341 -340 -58 0
341 -340 58 0
341 340 -58 0
-342 341 109 0
-342 -341 -109 0
342 -341 109 0
342 341 -109 0
-343 342 118 0
-343 -342 -118 0
343 -342 118 0
343 342 -118 0
-344 343 124 0
-344 -343 -124 0
344 -343 124 0
344 343 -124 0
-344 0
-345 37 42 0
-345 -37 -42 0
345 -37 42 0
345 37 -42 0
-346 345 59 0
-346 -345 -59 0
346 -345 59 0
346 345 -59 0
-347 346 110 0
-347 -346 -110 0
347 -346 110 0
347 346 -110 0
-348 347 119 0
-348 -347 -119 0
348 -347 119 0
348 347 -119 0
-349 348 125 0
-349 -348 -125 0
349 -348 125 0
349 348 -125 0
-349 0
-350 37 38 0
-350 -37 -38 0
350 -37 38 0
350 37 -38 0
-351 350 60 0
-351 -350 -60 0
351 -350 60 0
351 350 -60 0
-352 351 111 0
-352 -351 -111 0
352 -351 111 0
352 351 -111 0
-353 352 120 0
-353 -352 -120 0
353 -352 120 0
353 352 -120 0
-354 353 126 0
-354 -353 -126 0
354 -353 126 0
354 353 -126 0
-354 0
-355 44 45 0
-355 -44 -45 0
355 -44 45 0
355 44 -45 0
-356 355 61 0
-356 -355 -61 0
356 -355 61 0
356 355 -61 0
-357 356 118 0
-357 -356 -118 0
357 -356 118 0
357 356 -118 0
-358 357 121 0
-358 -357 -121 0
358 -357 121 0
358 357 -121 0
-359 358 127 0
-359 -358 -127 0
359 -358 127 0
359 358 -127 0
-359 0
-360 45 46 0
-360 -45 -46 0
360 -45 46 0
360 45 -46 0
-361 360 62 0
-361 -360 -62 0
361 -360 62 0
361 360 -62 0
-362 361 119 0
-362 -361 -119 0
362 -361 119 0
362 361 -119 0
-363 362 122 0
-363 -362 -122 0
363 -362 122 0
363 362 -122 0
-364 363 128 0
-364 -363 -128 0
364 -363 128 0
364 363 -128 0
-364 0
-365 46 47 0
-365 -46 -47 0
365 -46 47 0
365 46 -47 0
-366 365 63 0
-366 -365 -63 0
366 -365 63 0
366 365 -63 0
-367 366 120 0
-367 -366 -120 0
367 -366 120 0
367 366 -120 0
-368 367 123 0
-368 -367 -123 0
368 -367 123 0
368 367 -123 0
-369 368 129 0
-369 -368 -129 0
369 -368 129 0
369 368 -129 0
-369 0
-370 47 48 0
-370 -47 -48 0
370 -47 48 0
370 47 -48 0
-371 370 64 0
-371 -370 -64 0
371 -370 64 0
371 370 -64 0
-372 371 115 0
-372 -371 -115 0
372 -371 115 0
372 371 -115 0
-373 372 124 0
-373 -372 -124 0
373 -372 124 0
373 372 -124 0
-374 373 130 0
-374 -373 -130 0
374 -373 130 0
374 373 -130 0
-374 0
-375 43 48 0
-375 -43 -48 0
375 -43 48 0
375 43 -48 0
-376 375 65 0
-376 -375 -65 0
376 -375 65 0
376 375 -65 0
-377 376 116 0
-377 -376 -116 0
377 -376 116 0
377 376 -116 0
-378 377 125 0
-378 -377 -125 0
378 -377 125 0
378 377 -125 0
-379 378 131 0
-379 -378 -131 0
379 -378 131 0
379 378 -131 0
-379 0
-380 43 44 0
-380 -43 -44 0
380 -43 44 0
380 43 -44 0
-381 380 66 0
-381 -380 -66 0
381 -380 66 0
381 380 -66 0
-382 381 117 0
-382 -381 -117 0
382 -381 117 0
382 381 -117 0
-383 382 126 0
-383 -382 -126 0
383 -382 126 0
383 382 -126 0
-384 383 132 0
-384 -383 -132 0
384 -383 132 0
384 383 -132 0
-384 0
-385 50 51 0
-385 -50 -51 0
385 -50 51 0
385 50 -51 0
-386 385 67 0
-386 -385 -67 0
386 -385 67 0
386 385 -67 0
-387 386 124 0
-387 -386 -124 0
387 -386 124 0
387 386 -124 0
-388 387 127 0
-388 -387 -127 0
388 -387 127 0
388 387 -127 0
-389 388 133 0
-389 -388 -133 0
389 -388 133 0
389 388 -133 0
-389 0
-390 51 52 0
-390 -51 -52 0
390 -51 52 0
390 51 -52 0
-391 390 68 0
-391 -390 -68 0
391 -390 68 0
391 390 -68 0
-392 391 125 0
-392 -391 -125 0
392 -391 125 0
392 391 -125 0
-393 392 128 0
-393 -392 -128 0
393 -392 128 0
393 392 -128 0
-394 393 134 0
-394 -393 -134 0
394 -393 134 0
394 393 -134 0
-394 0
-395 52 53 0
-395 -52 -53 0
395 -52 53 0
395 52 -53 0
-396 395 69 0
-396 -395 -69 0
396 -395 69 0
396 395 -69 0
-397 396 126 0
-397 -396 -126 0
397 -396 126 0
397 396 -126 0
-398 397 129 0
-398 -397 -129 0
398 -397 129 0
398 397 -129 0
-399 398 135 0
-399 -398 -135 0
399 -398 135 0
399 398 -135 0
-399 0
-400 53 54 0
-400 -53 -54 0
400 -53 54 0
400 53 -54 0
-401 400 70 0
-401 -400 -70 0
401 -400 70 0
401 400 -70 0
-402 401 121 0
-402 -401 -121 0
402 -401 121 0
402 401 -121 0
-403 402 130 0
-403 -402 -130 0
403 -402 130 0
403 402 -130 0
-404 403 136 0
-404 -403 -136 0
404 -403 136 0
404 403 -136 0
-404 0
-405 49 54 0
-405 -49 -54 0
405 -49 54 0
405 49 -54 0
-406 405 71 0
-406 -405 -71 0
406 -405 71 0
406 405 -71 0
-407 406 122 0
-407 -406 -122 0
407 -406 122 0
407 406 -122 0
-408 407 131 0
-408 -407 -131 0
408 -407 131 0
408 407 -131 0
-409 408 137 0
-409 -408 -137 0
409 -408 137 0
409 408 -137 0
-409 0
-410 49 50 0
-410 -49 -50 0
410 -49 50 0
410 49 -50 0
-411 410 72 0
-411 -410 -72 0
411 -410 72 0
411 410 -72 0
-412 411 123 0
-412 -411 -123 0
412 -411 123 0
412 411 -123 0
-413 412 132 0
-413 -412 -132 0
413 -412 132 0
413 412 -132 0
-414 413 138 0
-414 -413 -138 0
414 -413 138 0
414 413 -138 0
-414 0
-415 1 56 0
-415 -1 -56 0
415 -1 56 0
415 1 -56 0
-416 415 57 0
-416 -415 -57 0
416 -415 57 0
416 415 -57 0
-417 416 130 0
-417 -416 -130 0
417 -416 130 0
417 416 -130 0
-418 417 133 0
-418 -417 -133 0
418 -417 133 0
418 417 -133 0
-419 418 139 0
-419 -418 -139 0
419 -418 139 0
419 418 -139 0
-419 0
-420 2 57 0
-420 -2 -57 0
420 -2 57 0
420 2 -57 0
-421 420 58 0
-421 -420 -58 0
421 -420 58 0
421 420 -58 0
-422 421 131 0
-422 -421 -131 0
422 -421 131 0
422 421 -131 0
-423 422 134 0
-423 -422 -134 0
423 -422 134 0
423 422 -134 0
-424 423 140 0
-424 -423 -140 0
424 -423 140 0
424 423 -140 0
-424 0
-425 3 58 0
-425 -3 -58 0
425 -3 58 0
425 3 -58 0
-426 425 59 0
-426 -425 -59 0
426 -425 59 0
426 425 -59 0
-427 426 132 0
-427 -426 -132 0
427 -426 132 0
427 426 -132 0
-428 427 135 0
-428 -427 -135 0
428 -427 135 0
428 427 -135 0
-429 428 141 0
-429 -428 -141 0
429 -428 141 0
429 428 -141 0
-429 0
-430 4 59 0
-430 -4 -59 0
430 -4 59 0
430 4 -59 0
-431 430 60 0
-431 -430 -60 0
431 -430 60 0
431 430 -60 0
-432 431 127 0
-432 -431 -127 0
432 -431 127 0
432 431 -127 0
-433 432 136 0
-433 -432 -136 0
433 -432 136 0
433 432 -136 0
-434 433 142 0
-434 -433 -142 0
434 -433 142 0
434 433 -142 0
-434 0
-435 5 55 0
-435 -5 -55 0
435 -5 55 0
435 5 -55 0
-436 435 60 0
-436 -435 -60 0
436 -435 60 0
436 435 -60 0
-437 436 128 0
-437 -436 -128 0
437 -436 128 0
437 436 -128 0
-438 437 137 0
-438 -437 -137 0
438 -437 137 0
438 437 -137 0
-439 438 143 0
-439 -438 -143 0
439 -438 143 0
439 438 -143 0
-439 0
-440 6 55 0
-440 -6 -55 0
440 -6 55 0
440 6 -55 0
-441 440 56 0
-441 -440 -56 0
441 -440 56 0
441 440 -56 0
-442 441 129 0
-442 -441 -129 0
442 -441 129 0
442 441 -129 0
-443 442 138 0
-443 -442 -138 0
443 -442 138 0
443 442 -138 0
-444 443 144 0
-444 -443 -144 0
444 -443 144 0
444 443 -144 0
-444 0
-445 7 62 0
-445 -7 -62 0
445 -7 62 0
445 7 -62 0
-446 445 63 0
-446 -445 -63 0
446 -445 63 0
446 445 -63 0
-447 446 73 0
-447 -446 -73 0
447 -446 73 0
447 446 -73 0
-448 447 136 0
-448 -447 -136 0
448 -447 136 0
448 447 -136 0
-449 448 139 0
-449 -448 -139 0
449 -448 139 0
449 448 -139 0
-449 0
-450 8 63 0
-450 -8 -63 0
450 -8 63 0
450 8 -63 0
-451 450 64 0
-451 -450 -64 0
451 -450 64 0
451 450 -64 0
-452 451 74 0
-452 -451 -74 0
452 -451 74 0
452 451 -74 0
-453 452 137 0
-453 -452 -137 0
453 -452 137 0
453 452 -137 0
-454 453 140 0
-454 -453 -140 0
454 -453 140 0
454 453 -140 0
-454 0
-455 9 64 0
-455 -9 -64 0
455 -9 64 0
455 9 -64 0
-456 455 65 0
-456 -455 -65 0
456 -455 65 0
456 455 -65 0
-457 456 75 0
-457 -456 -75 0
457 -456 75 0
457 456 -75 0
-458 457 138 0
-458 -457 -138 0
458 -457 138 0
458 457 -138 0
-459 458 141 0
-459 -458 -141 0
459 -458 141 0
459 458 -141 0
-459 0
-460 10 65 0
-460 -10 -65 0
460 -10 65 0
460 10 -65 0
-461 460 66 0
-461 -460 -66 0
461 -460 66 0
461 460 -66 0
-462 461 76 0
-462 -461 -76 0
462 -461 76 0
462 461 -76 0
-463 462 133 0
-463 -462 -133 0
463 -462 133 0
463 462 -133 0
-464 463 142 0
-464 -463 -142 0
464 -463 142 0
464 463 -142 0
-464 0
-465 11 61 0
-465 -11 -61 0
465 -11 61 0
465 11 -61 0
-466 465 66 0
-466 -465 -66 0
466 -465 66 0
466 465 -66 0
-467 466 77 0
-467 -466 -77 0
467 -466 77 0
467 466 -77 0
-468 467 134 0
-468 -467 -134 0
468 -467 134 0
468 467 -134 0
-469 468 143 0
-469 -468 -143 0
469 -468 143 0
469 468 -143 0
-469 0
-470 12 61 0
-470 -12 -61 0
470 -12 61 0
470 12 -61 0
-471 470 62 0
-471 -470 -62 0
471 -470 62 0
471 470 -62 0
-472 471 78 0
-472 -471 -78 0
472 -471 78 0
472 471 -78 0
-473 472 135 0
-473 -472 -135 0
473 -472 135 0
473 472 -135 0
-474 473 144 0
-474 -473 -144 0
474 -473 144 0
474 473 -144 0
-474 0
-475 13 68 0
-475 -13 -68 0
475 -13 68 0
475 13 -68 0
-476 475 69 0
-476 -475 -69 0
476 -475 69 0
476 475 -69 0
-477 476 73 0
-477 -476 -73 0
477 -476 73 0
477 476 -73 0
-478 477 79 0
-478 -477 -79 0
478 -477 79 0
478 477 -79 0
-479 478 142 0
-479 -478 -142 0
479 -478 142 0
479 478 -142 0
-479 0
-480 14 69 0
-480 -14 -69 0
480 -14 69 0
480 14 -69 0
-481 480 70 0
-481 -480 -70 0
481 -480 70 0
481 480 -70 0
-482 481 74 0
-482 -481 -74 0
482 -481 74 0
482 481 -74 0
-483 482 80 0
-483 -482 -80 0
483 -482 80 0
483 482 -80 0
-484 483 143 0
-484 -483 -143 0
484 -483 143 0
484 483 -143 0
-484 0
-485 15 70 0
-485 -15 -70 0
485 -15 70 0
485 15 -70 0
-486 485 71 0
-486 -485 -71 0
486 -485 71 0
486 485 -71 0
-487 486 75 0
-487 -486 -75 0
487 -486 75 0
487 486 -75 0
-488 487 81 0
-488 -487 -81 0
488 -487 81 0
488 487 -81 0
-489 488 144 0
-489 -488 -144 0
489 -488 144 0
489 488 -144 0
-489 0
-490 16 71 0
-490 -16 -71 0
490 -16 71 0
490 16 -71 0
-491 490 72 0
-491 -490 -72 0
491 -490 72 0
491 490 -72 0
-492 491 76 0
-492 -491 -76 0
492 -491 76 0
492 491 -76 0
-493 492 82 0
-493 -492 -82 0
493 -492 82 0
493 492 -82 0
-494 493 139 0
-494 -493 -139 0
494 -493 139 0
494 493 -139 0
-494 0
-495 17 67 0
-495 -17 -67 0
495 -17 67 0
495 17 -67 0
-496 495 72 0
-496 -495 -72 0
496 -495 72 0
496 495 -72 0
-497 496 77 0
-497 -496 -77 0
497 -496 77 0
497 496 -77 0
-498 497 83 0
-498 -497 -83 0
498 -497 83 0
498 497 -83 0
-499 498 140 0
-499 -498 -140 0
499 -498 140 0
499 498 -140 0
-499 0
-500 18 67 0
-500 -18 -67 0
500 -18 67 0
500 18 -67 0
-501 500 68 0
-501 -500 -68 0
501 -500 68 0
501 500 -68 0
-502 501 78 0
-502 -501 -78 0
502 -501 78 0
502 501 -78 0
-503 502 84 0
-503 -502 -84 0
503 -502 84 0
503 502 -84 0
-504 503 141 0
-504 -503 -141 0
504 -503 141 0
504 503 -141 0
-504 0
-505 4 7 0
-505 -4 -7 0
505 -4 7 0
505 4 -7 0
-506 505 13 0
-506 -505 -13 0
506 -505 13 0
506 505 -13 0
-507 506 16 0
-507 -506 -16 0
507 -506 16 0
507 506 -16 0
-508 507 19 0
-508 -507 -19 0
508 -507 19 0
508 507 -19 0
-509 508 25 0
-509 -508 -25 0
509 -508 25 0
509 508 -25 0
-510 509 40 0
-510 -509 -40 0
510 -509 40 0
510 509 -40 0
-511 510 43 0
-511 -510 -43 0
511 -510 43 0
511 510 -43 0
-512 511 49 0
-512 -511 -49 0
512 -511 49 0
512 511 -49 0
-513 512 52 0
-513 -512 -52 0
513 -512 52 0
513 512 -52 0
-514 513 55 0
-514 -513 -55 0
514 -513 55 0
514 513 -55 0
-515 514 61 0
-515 -514 -61 0
515 -514 61 0
515 514 -61 0
-516 5 8 0
-516 -5 -8 0
516 -5 8 0
516 5 -8 0
-517 516 14 0
-517 -516 -14 0
517 -516 14 0
517 516 -14 0
-518 517 17 0
-518 -517 -17 0
518 -517 17 0
518 517 -17 0
-519 518 20 0
-519 -518 -20 0
519 -518 20 0
519 518 -20 0
-520 519 26 0
-520 -519 -26 0
520 -519 26 0
520 519 -26 0
-521 520 41 0
-521 -520 -41 0
521 -520 41 0
521 520 -41 0
-522 521 44 0
-522 -521 -44 0
522 -521 44 0
522 521 -44 0
-523 522 50 0
-523 -522 -50 0
523 -522 50 0
523 522 -50 0
-524 523 53 0
-524 -523 -53 0
524 -523 53 0
524 523 -53 0
-525 524 56 0
-525 -524 -56 0
525 -524 56 0
525 524 -56 0
-526 525 62 0
-526 -525 -62 0
526 -525 62 0
526 525 -62 0
-527 6 9 0
-527 -6 -9 0
527 -6 9 0
527 6 -9 0
-528 527 15 0
-528 -527 -15 0
528 -527 15 0
528 527 -15 0
-529 528 18 0
-529 -528 -18 0
529 -528 18 0
529 528 -18 0
-530 529 21 0
-530 -529 -21 0
530 -529 21 0
530 529 -21 0
-531 530 27 0
-531 -530 -27 0
531 -530 27 0
531 530 -27 0
-532 531 42 0
-532 -531 -42 0
532 -531 42 0
532 531 -42 0
-533 532 45 0
-533 -532 -45 0
533 -532 45 0
533 532 -45 0
-534 533 51 0
-534 -533 -51 0
534 -533 51 0
534 533 -51 0
-535 534 54 0
-535 -534 -54 0
535 -534 54 0
535 534 -54 0
-536 535 57 0
-536 -535 -57 0
536 -535 57 0
536 535 -57 0
-537 536 63 0
-537 -536 -63 0
537 -536 63 0
537 536 -63 0
-538 1 10 0
-538 -1 -10 0
538 -1 10 0
538 1 -10 0
-539 538 13 0
-539 -538 -13 0
539 -538 13 0
539 538 -13 0
-540 539 16 0
-540 -539 -16 0
540 -539 16 0
540 539 -16 0
-541 540 22 0
-541 -540 -22 0
541 -540 22 0
541 540 -22 0
-542 541 28 0
-542 -541 -28 0
542 -541 28 0
542 541 -28 0
-543 542 37 0
-543 -542 -37 0
543 -542 37 0
543 542 -37 0
-544 543 46 0
-544 -543 -46 0
544 -543 46 0
544 543 -46 0
-545 544 49 0
-545 -544 -49 0
545 -544 49 0
545 544 -49 0
-546 545 52 0
-546 -545 -52 0
546 -545 52 0
546 545 -52 0
-547 546 58 0
-547 -546 -58 0
547 -546 58 0
547 546 -58 0
-548 547 64 0
-548 -547 -64 0
548 -547 64 0
548 547 -64 0
-549 4 7 0
-549 -4 -7 0
549 -4 7 0
549 4 -7 0
-550 549 10 0
-550 -549 -10 0
550 -549 10 0
550 549 -10 0
-551 550 16 0
-551 -550 -16 0
551 -550 16 0
551 550 -16 0
-552 551 22 0
-552 -551 -22 0
552 -551 22 0
552 551 -22 0
-553 552 31 0
-553 -552 -31 0
553 -552 31 0
553 552 -31 0
-554 553 40 0
-554 -553 -40 0
554 -553 40 0
554 553 -40 0
-555 554 43 0
-555 -554 -43 0
555 -554 43 0
555 554 -43 0
-556 555 46 0
-556 -555 -46 0
556 -555 46 0
556 555 -46 0
-557 556 52 0
-557 -556 -52 0
557 -556 52 0
557 556 -52 0
-558 557 58 0
-558 -557 -58 0
558 -557 58 0
558 557 -58 0
-559 558 67 0
-559 -558 -67 0
559 -558 67 0
559 558 -67 0
-560 5 8 0
-560 -5 -8 0
560 -5 8 0
560 5 -8 0
-561 560 11 0
-561 -560 -11 0
561 -560 11 0
561 560 -11 0
-562 561 17 0
-562 -561 -17 0
562 -561 17 0
562 561 -17 0
-563 562 23 0
-563 -562 -23 0
563 -562 23 0
563 562 -23 0
-564 563 32 0
-564 -563 -32 0
564 -563 32 0
564 563 -32 0
-565 564 41 0
-565 -564 -41 0
565 -564 41 0
565 564 -41 0
-566 565 44 0
-566 -565 -44 0
566 -565 44 0
566 565 -44 0
-567 566 47 0
-567 -566 -47 0
567 -566 47 0
567 566 -47 0
-568 567 53 0
-568 -567 -53 0
568 -567 53 0
568 567 -53 0
-569 568 59 0
-569 -568 -59 0
569 -568 59 0
569 568 -59 0
-570 569 68 0
-570 -569 -68 0
570 -569 68 0
570 569 -68 0
-571 1 2 0
-571 -1 -2 0
571 -1 2 0
571 1 -2 0
-572 571 4 0
-572 -571 -4 0
572 -571 4 0
572 571 -4 0
-573 572 5 0
-573 -572 -5 0
573 -572 5 0
573 572 -5 0
-574 573 7 0
-574 -573 -7 0
574 -573 7 0
574 573 -7 0
-575 574 8 0
-575 -574 -8 0
575 -574 8 0
575 574 -8 0
-576 575 10 0
-576 -575 -10 0
576 -575 10 0
576 575 -10 0
-577 576 11 0
-577 -576 -11 0
577 -576 11 0
577 576 -11 0
-578 577 73 0
-578 -577 -73 0
578 -577 73 0
578 577 -73 0
-579 578 74 0
-579 -578 -74 0
579 -578 74 0
579 578 -74 0
-580 579 76 0
-580 -579 -76 0
580 -579 76 0
580 579 -76 0
-581 580 77 0
-581 -580 -77 0
581 -580 77 0
581 580 -77 0
-582 1 3 0
-582 -1 -3 0
582 -1 3 0
582 1 -3 0
-583 582 4 0
-583 -582 -4 0
583 -582 4 0
583 582 -4 0
-584 583 6 0
-584 -583 -6 0
584 -583 6 0
584 583 -6 0
-585 584 7 0
-585 -584 -7 0
585 -584 7 0
585 584 -7 0
-586 585 9 0
-586 -585 -9 0
586 -585 9 0
586 585 -9 0
-587 586 10 0
-587 -586 -10 0
587 -586 10 0
587 586 -10 0
-588 587 12 0
-588 -587 -12 0
588 -587 12 0
588 587 -12 0
-589 588 73 0
-589 -588 -73 0
589 -588 73 0
589 588 -73 0
-590 589 75 0
-590 -589 -75 0
590 -589 75 0
590 589 -75 0
-591 590 76 0
-591 -590 -76 0
591 -590 76 0
591 590 -76 0
-592 591 78 0
-592 -591 -78 0
592 -591 78 0
592 591 -78 0
-593 1 2 0
-593 -1 -2 0
593 -1 2 0
593 1 -2 0
-594 593 3 0
-594 -593 -3 0
594 -593 3 0
594 593 -3 0
-595 594 6 0
-595 -594 -6 0
595 -594 6 0
595 594 -6 0
-596 595 7 0
-596 -595 -7 0
596 -595 7 0
596 595 -7 0
-597 596 8 0
-597 -596 -8 0
597 -596 8 0
597 596 -8 0
-598 597 9 0
-598 -597 -9 0
598 -597 9 0
598 597 -9 0
-599 598 10 0
-599 -598 -10 0
599 -598 10 0
599 598 -10 0
-600 599 13 0
-600 -599 -13 0
600 -599 13 0
600 599 -13 0
-601 600 15 0
-601 -600 -15 0
601 -600 15 0
601 600 -15 0
-602 601 74 0
-602 -601 -74 0
602 -601 74 0
602 601 -74 0
-603 602 76 0
-603 -602 -76 0
603 -602 76 0
603 602 -76 0
-604 603 79 0
-604 -603 -79 0
604 -603 79 0
604 603 -79 0
-605 604 81 0
-605 -604 -81 0
605 -604 81 0
605 604 -81 0
-606 3 5 0
-606 -3 -5 0
606 -3 5 0
606 3 -5 0
-607 606 7 0
-607 -606 -7 0
607 -606 7 0
607 606 -7 0
-608 607 9 0
-608 -607 -9 0
608 -607 9 0
608 607 -9 0
-609 608 14 0
-609 -608 -14 0
609 -608 14 0
609 608 -14 0
-610 609 16 0
-610 -609 -16 0
610 -609 16 0
610 609 -16 0
-611 610 73 0
-611 -610 -73 0
611 -610 73 0
611 610 -73 0
-612 611 74 0
-612 -611 -74 0
612 -611 74 0
612 611 -74 0
-613 612 75 0
-613 -612 -75 0
613 -612 75 0
613 612 -75 0
-614 613 76 0
-614 -613 -76 0
614 -613 76 0
614 613 -76 0
-615 614 80 0
-615 -614 -80 0
615 -614 80 0
615 614 -80 0
-616 615 82 0
-616 -615 -82 0
616 -615 82 0
616 615 -82 0
-617 3 5 0
-617 -3 -5 0
617 -3 5 0
617 3 -5 0
-618 617 8 0
-618 -617 -8 0
618 -617 8 0
618 617 -8 0
-619 618 9 0
-619 -618 -9 0
619 -618 9 0
619 618 -9 0
-620 619 10 0
-620 -619 -10 0
620 -619 10 0
620 619 -10 0
-621 620 11 0
-621 -620 -11 0
621 -620 11 0
621 620 -11 0
-622 621 13 0
-622 -621 -13 0
622 -621 13 0
622 621 -13 0
-623 622 17 0
-623 -622 -17 0
623 -622 17 0
623 622 -17 0
-624 623 73 0
-624 -623 -73 0
624 -623 73 0
624 623 -73 0
-625 624 74 0
-625 -624 -74 0
625 -624 74 0
625 624 -74 0
-626 625 75 0
-626 -625 -75 0
626 -625 75 0
626 625 -75 0
-627 626 76 0
-627 -626 -76 0
627 -626 76 0
627 626 -76 0
-628 627 79 0
-628 -627 -79 0
628 -627 79 0
628 627 -79 0
-629 628 83 0
-629 -628 -83 0
629 -628 83 0
629 628 -83 0
-630 1 2 0
-630 -1 -2 0
630 -1 2 0
630 1 -2 0
-631 630 5 0
-631 -630 -5 0
631 -630 5 0
631 630 -5 0
-632 631 6 0
-632 -631 -6 0
632 -631 6 0
632 631 -6 0
-633 632 7 0
-633 -632 -7 0
633 -632 7 0
633 632 -7 0
-634 633 8 0
-634 -633 -8 0
634 -633 8 0
634 633 -8 0
-635 634 9 0
-635 -634 -9 0
635 -634 9 0
635 634 -9 0
-636 635 12 0
-636 -635 -12 0
636 -635 12 0
636 635 -12 0
-637 636 14 0
-637 -636 -14 0
637 -636 14 0
637 636 -14 0
-638 637 18 0
-638 -637 -18 0
638 -637 18 0
638 637 -18 0
-639 638 73 0
-639 -638 -73 0
639 -638 73 0
639 638 -73 0
-640 639 75 0
-640 -639 -75 0
640 -639 75 0
640 639 -75 0
-641 640 80 0
-641 -640 -80 0
641 -640 80 0
641 640 -80 0
-642 641 84 0
-642 -641 -84 0
642 -641 84 0
642 641 -84 0
515 526 537 548 559 570 581 592 605 616 629 642 0
-1 643 0
-644 0
-645 0
-646 0
-647 0
-648 0
-649 0
-650 0
-651 0
-652 0
-653 0
-654 0
-2 655 0
-643 655 0
-2 -643 656 0
-644 656 0
-2 -644 657 0
-645 657 0
-2 -645 658 0
-646 658 0
-2 -646 659 0
-647 659 0
-2 -647 660 0
-648 660 0
-2 -648 661 0
-649 661 0
-2 -649 662 0
-650 662 0
-2 -650 663 0
-651 663 0
-2 -651 664 0
-652 664 0
-2 -652 665 0
-653 665 0
-2 -653 666 0
-654 666 0
-2 -654 0
-3 667 0
-655 667 0
-3 -655 668 0
-656 668 0
-3 -656 669 0
-657 669 0
-3 -657 670 0
-658 670 0
-3 -658 671 0
-659 671 0
-3 -659 672 0
-660 672 0
-3 -660 673 0
-661 673 0
-3 -661 674 0
-662 674 0
-3 -662 675 0
-663 675 0
-3 -663 676 0
-664 676 0
-3 -664 677 0
-665 677 0
-3 -665 678 0
-666 678 0
-3 -666 0
-4 679 0
-667 679 0
-4 -667 680 0
-668 680 0
-4 -668 681 0
-669 681 0
-4 -669 682 0
-670 682 0
-4 -670 683 0
-671 683 0
-4 -671 684 0
-672 684 0
-4 -672 685 0
-673 685 0
-4 -673 686 0
-674 686 0
-4 -674 687 0
-675 687 0
-4 -675 688 0
-676 688 0
-4 -676 689 0
-677 689 0
-4 -677 690 0
-678 690 0
-4 -678 0
-5 691 0
-679 691 0
-5 -679 692 0
-680 692 0
-5 -680 693 0
-681 693 0
-5 -681 694 0
-682 694 0
-5 -682 695 0
-683 695 0
-5 -683 696 0
-684 696 0
-5 -684 697 0
-685 697 0
-5 -685 698 0
-686 698 0
-5 -686 699 0
-687 699 0
-5 -687 700 0
-688 700 0
-5 -688 701 0
-689 701 0
-5 -689 702 0
-690 702 0
-5 -690 0
-6 703 0
-691 703 0
-6 -691 704 0
-692 704 0
-6 -692 705 0
-693 705 0
-6 -693 706 0
-694 706 0
-6 -694 707 0
-695 707 0
-6 -695 708 0
-696 708 0
-6 -696 709 0
-697 709 0
-6 -697 710 0
-698 710 0
-6 -698 711 0
-699 711 0
-6 -699 712 0
-700 712 0
-6 -700 713 0
-701 713 0
-6 -701 714 0
-702 714 0
-6 -702 0
-7 715 0
-703 715 0
-7 -703 716 0
-704 716 0
-7 -704 717 0
-705 717 0
-7 -705 718 0
-706 718 0
-7 -706 719 0
-707 719 0
-7 -707 720 0
-708 720 0
-7 -708 721 0
-709 721 0
-7 -709 722 0
-710 722 0
-7 -710 723 0
-711 723 0
-7 -711 724 0
-712 724 0
-7 -712 725 0
-713 725 0
-7 -713 726 0
-714 726 0
-7 -714 0
-8 727 0
-715 727 0
-8 -715 728 0
-716 728 0
-8 -716 729 0
-717 729 0
-8 -717 730 0
-718 730 0
-8 -718 731 0
-719 731 0
-8 -719 732 0
-720 732 0
-8 -720 733 0
-721 733 0
-8 -721 734 0
-722 734 0
-8 -722 735 0
-723 735 0
-8 -723 736 0
-724 736 0
-8 -724 737 0
-725 737 0
-8 -725 738 0
-726 738 0
-8 -726 0
-9 739 0
-727 739 0
-9 -727 740 0
-728 740 0
-9 -728 741 0
-729 741 0
-9 -729 742 0
-730 742 0
-9 -730 743 0
-731 743 0
-9 -731 744 0
-732 744 0
-9 -732 745 0
-733 745 0
-9 -733 746 0
-734 746 0
-9 -734 747 0
-735 747 0
-9 -735 748 0
-736 748 0
-9 -736 749 0
-737 749 0
-9 -737 750 0
-738 750 0
-9 -738 0
-10 751 0
-739 751 0
-10 -739 752 0
-740 752 0
-10 -740 753 0
-741 753 0
-10 -741 754 0
-742 754 0
-10 -742 755 0
-743 755 0
-10 -743 756 0
-744 756 0
-10 -744 757 0
-745 757 0
-10 -745 758 0
-746 758 0
-10 -746 759 0
-747 759 0
-10 -747 760 0
-748 760 0
-10 -748 761 0
-749 761 0
-10 -749 762 0
-750 762 0
-10 -750 0
-11 763 0
-751 763 0
-11 -751 764 0
-752 764 0
-11 -752 765 0
-753 765 0
-11 -753 766 0
-754 766 0
-11 -754 767 0
-755 767 0
-11 -755 768 0
-756 768 0
-11 -756 769 0
-757 769 0
-11 -757 770 0
-758 770 0
-11 -758 771 0
-759 771 0
-11 -759 772 0
-760 772 0
-11 -760 773 0
-761 773 0
-11 -761 774 0
-762 774 0
-11 -762 0
-12 775 0
-763 775 0
-12 -763 776 0
-764 776 0
-12 -764 777 0
-765 777 0
-12 -765 778 0
-766 778 0
-12 -766 779 0
-767 779 0
-12 -767 780 0
-768 780 0
-12 -768 781 0
-769 781 0
-12 -769 782 0
-770 782 0
-12 -770 783 0
-771 783 0
-12 -771 784 0
-772 784 0
-12 -772 785 0
-773 785 0
-12 -773 786 0
-774 786 0
-12 -774 0
-13 787 0
-775 787 0
-13 -775 788 0
-776 788 0
-13 -776 789 0
-777 789 0
-13 -777 790 0
-778 790 0
-13 -778 791 0
-779 791 0
-13 -779 792 0
-780 792 0
-13 -780 793 0
-781 793 0
-13 -781 794 0
-782 794 0
-13 -782 795 0
-783 795 0
-13 -783 796 0
-784 796 0
-13 -784 797 0
-785 797 0
-13 -785 798 0
-786 798 0
-13 -786 0
-14 799 0
-787 799 0
-14 -787 800 0
-788 800 0
-14 -788 801 0
-789 801 0
-14 -789 802 0
-790 802 0
-14 -790 803 0
-791 803 0
-14 -791 804 0
-792 804 0
-14 -792 805 0
-793 805 0
-14 -793 806 0
-794 806 0
-14 -794 807 0
-795 807 0
-14 -795 808 0
-796 808 0
-14 -796 809 0
-797 809 0
-14 -797 810 0
-798 810 0
-14 -798 0
-15 811 0
-799 811 0
-15 -799 812 0
-800 812 0
-15 -800 813 0
-801 813 0
-15 -801 814 0
-802 814 0
-15 -802 815 0
-803 815 0
-15 -803 816 0
-804 816 0
-15 -804 817 0
-805 817 0
-15 -805 818 0
-806 818 0
-15 -806 819 0
-807 819 0
-15 -807 820 0
-808 820 0
-15 -808 821 0
-809 821 0
-15 -809 822 0
-810 822 0
-15 -810 0
-16 823 0
-811 823 0
-16 -811 824 0
-812 824 0
-16 -812 825 0
-813 825 0
-16 -813 826 0
-814 826 0
-16 -814 827 0
-815 827 0
-16 -815 828 0
-816 828 0
-16 -816 829 0
-817 829 0
-16 -817 830 0
-818 830 0
-16 -818 831 0
-819 831 0
-16 -819 832 0
-820 832 0
-16 -820 833 0
-821 833 0
-16 -821 834 0
-822 834 0
-16 -822 0
-17 835 0
-823 835 0
-17 -823 836 0
-824 836 0
-17 -824 837 0
-825 837 0
-17 -825 838 0
-826 838 0
-17 -826 839 0
-827 839 0
-17 -827 840 0
-828 840 0
-17 -828 841 0
-829 841 0
-17 -829 842 0
-830 842 0
-17 -830 843 0
-831 843 0
-17 -831 844 0
-832 844 0
-17 -832 845 0
-833 845 0
-17 -833 846 0
-834 846 0
-17 -834 0
-18 847 0
-835 847 0
-18 -835 848 0
-836 848 0
-18 -836 849 0
-837 849 0
-18 -837 850 0
-838 850 0
-18 -838 851 0
-839 851 0
-18 -839 852 0
-840 852 0
-18 -840 853 0
-841 853 0
-18 -841 854 0
-842 854 0
-18 -842 855 0
-843 855 0
-18 -843 856 0
-844 856 0
-18 -844 857 0
-845 857 0
-18 -845 858 0
-846 858 0
-18 -846 0
-19 859 0
-847 859 0
-19 -847 860 0
-848 860 0
-19 -848 861 0
-849 861 0
-19 -849 862 0
-850 862 0
-19 -850 863 0
-851 863 0
-19 -851 864 0
-852 864 0
-19 -852 865 0
-853 865 0
-19 -853 866 0
-854 866 0
-19 -854 867 0
-855 867 0
-19 -855 868 0
-856 868 0
-19 -856 869 0
-857 869 0
-19 -857 870 0
-858 870 0
-19 -858 0
-20 871 0
-859 871 0
-20 -859 872 0
-860 872 0
-20 -860 873 0
-861 873 0
-20 -861 874 0
-862 874 0
-20 -862 875 0
-863 875 0
-20 -863 876 0
-864 876 0
-20 -864 877 0
-865 877 0
-20 -865 878 0
-866 878 0
-20 -866 879 0
-867 879 0
-20 -867 880 0
-868 880 0
-20 -868 881 0
-869 881 0
-20 -869 882 0
-870 882 0
-20 -870 0
-21 883 0
-871 883 0
-21 -871 884 0
-872 884 0
-21 -872 885 0
-873 885 0
-21 -873 886 0
-874 886 0
-21 -874 887 0
-875 887 0
-21 -875 888 0
-876 888 0
-21 -876 889 0
-877 889 0
-21 -877 890 0
-878 890 0
-21 -878 891 0
-879 891 0
-21 -879 892 0
-880 892 0
-21 -880 893 0
-881 893 0
-21 -881 894 0
-882 894 0
-21 -882 0
-22 895 0
-883 895 0
-22 -883 896 0
-884 896 0
-22 -884 897 0
-885 897 0
-22 -885 898 0
-886 898 0
-22 -886 899 0
-887 899 0
-22 -887 900 0
-888 900 0
-22 -888 901 0
-889 901 0
-22 -889 902 0
-890 902 0
-22 -890 903 0
-891 903 0
-22 -891 904 0
-892 904 0
-22 -892 905 0
-893 905 0
-22 -893 906 0
-894 906 0
-22 -894 0
-23 907 0
-895 907 0
-23 -895 908 0
-896 908 0
-23 -896 909 0
-897 909 0
-23 -897 910 0
-898 910 0
-23 -898 911 0
-899 911 0
-23 -899 912 0
-900 912 0
-23 -900 913 0
-901 913 0
-23 -901 914 0
-902 914 0
-23 -902 915 0
-903 915 0
-23 -903 916 0
-904 916 0
-23 -904 917 0
-905 917 0
-23 -905 918 0
-906 918 0
-23 -906 0
-24 919 0
-907 919 0
-24 -907 920 0
-908 920 0
-24 -908 921 0
-909 921 0
-24 -909 922 0
-910 922 0
-24 -910 923 0
-911 923 0
-24 -911 924 0
-912 924 0
-24 -912 925 0
-913 925 0
-24 -913 926 0
-914 926 0
-24 -914 927 0
-915 927 0
-24 -915 928 0
-916 928 0
-24 -916 929 0
-917 929 0
-24 -917 930 0
-918 930 0
-24 -918 0
-25 931 0
-919 931 0
-25 -919 932 0
-920 932 0
-25 -920 933 0
-921 933 0
-25 -921 934 0
-922 934 0
-25 -922 935 0
-923 935 0
-25 -923 936 0
-924 936 0
-25 -924 937 0
-925 937 0
-25 -925 938 0
-926 938 0
-25 -926 939 0
-927 939 0
-25 -927 940 0
-928 940 0
-25 -928 941 0
-929 941 0
-25 -929 942 0
-930 942 0
-25 -930 0
-26 943 0
-931 943 0
-26 -931 944 0
-932 944 0
-26 -932 945 0
-933 945 0
-26 -933 946 0
-934 946 0
-26 -934 947 0
-935 947 0
-26 -935 948 0
-936 948 0
-26 -936 949 0
-937 949 0
-26 -937 950 0
-938 950 0
-26 -938 951 0
-939 951 0
-26 -939 952 0
-940 952 0
-26 -940 953 0
-941 953 0
-26 -941 954 0
-942 954 0
-26 -942 0
-27 955 0
-943 955 0
-27 -943 956 0
-944 956 0
-27 -944 957 0
-945 957 0
-27 -945 958 0
-946 958 0
-27 -946 959 0
-947 959 0
-27 -947 960 0
-948 960 0
-27 -948 961 0
-949 961 0
-27 -949 962 0
-950 962 0
-27 -950 963 0
-951 963 0
-27 -951 964 0
-952 964 0
-27 -952 965 0
-953 965 0
-27 -953 966 0
-954 966 0
-27 -954 0
-28 967 0
-955 967 0
-28 -955 968 0
-956 968 0
-28 -956 969 0
-957 969 0
-28 -957 970 0
-958 970 0
-28 -958 971 0
-959 971 0
-28 -959 972 0
-960 972 0
-28 -960 973 0
-961 973 0
-28 -961 974 0
-962 974 0
-28 -962 975 0
-963 975 0
-28 -963 976 0
-964 976 0
-28 -964 977 0
-965 977 0
-28 -965 978 0
-966 978 0
-28 -966 0
-29 979 0
-967 979 0
-29 -967 980 0
-968 980 0
-29 -968 981 0
-969 981 0
-29 -969 982 0
-970 982 0
-29 -970 983 0
-971 983 0
-29 -971 984 0
-972 984 0
-29 -972 985 0
-973 985 0
-29 -973 986 0
-974 986 0
-29 -974 987 0
-975 987 0
-29 -975 988 0
-976 988 0
-29 -976 989 0
-977 989 0
-29 -977 990 0
-978 990 0
-29 -978 0
-30 991 0
-979 991 0
-30 -979 992 0
-980 992 0
-30 -980 993 0
-981 993 0
-30 -981 994 0
-982 994 0
-30 -982 995 0
-983 995 0
-30 -983 996 0
-984 996 0
-30 -984 997 0
-985 997 0
-30 -985 998 0
-986 998 0
-30 -986 999 0
-987 999 0
-30 -987 1000 0
-988 1000 0
-30 -988 1001 0
-989 1001 0
-30 -989 1002 0
-990 1002 0
-30 -990 0
-31 1003 0
-991 1003 0
-31 -991 1004 0
-992 1004 0
-31 -992 1005 0
-993 1005 0
-31 -993 1006 0
-994 1006 0
-31 -994 1007 0
-995 1007 0
-31 -995 1008 0
-996 1008 0
-31 -996 1009 0
-997 1009 0
-31 -997 1010 0
-998 1010 0
-31 -998 1011 0
-999 1011 0
-31 -999 1012 0
-1000 1012 0
-31 -1000 1013 0
-1001 1013 0
-31 -1001 1014 0
-1002 1014 0
-31 -1002 0
-32 1015 0
-1003 1015 0
-32 -1003 1016 0
-1004 1016 0
-32 -1004 1017 0
-1005 1017 0
-32 -1005 1018 0
-1006 1018 0
-32 -1006 1019 0
-1007 1019 0
-32 -1007 1020 0
-1008 1020 0
-32 -1008 1021 0
-1009 1021 0
-32 -1009 1022 0
-1010 1022 0
-32 -1010 1023 0
-1011 1023 0
-32 -1011 1024 0
-1012 1024 0
-32 -1012 1025 0
-1013 1025 0
-32 -1013 1026 0
-1014 1026 0
-32 -1014 0
-33 1027 0
-1015 1027 0
-33 -1015 1028 0
-1016 1028 0
-33 -1016 1029 0
-1017 1029 0
-33 -1017 1030 0
-1018 1030 0
-33 -1018 1031 0
-1019 1031 0
-33 -1019 1032 0
-1020 1032 0
-33 -1020 1033 0
-1021 1033 0
-33 -1021 1034 0
-1022 1034 0
-33 -1022 1035 0
-1023 1035 0
-33 -1023 1036 0
-1024 1036 0
-33 -1024 1037 0
-1025 1037 0
-33 -1025 1038 0
-1026 1038 0
-33 -1026 0
-34 1039 0
-1027 1039 0
-34 -1027 1040 0
-1028 1040 0
-34 -1028 1041 0
-1029 1041 0
-34 -1029 1042 0
-1030 1042 0
-34 -1030 1043 0
-1031 1043 0
-34 -1031 1044 0
-1032 1044 0
-34 -1032 1045 0
-1033 1045 0
-34 -1033 1046 0
-1034 1046 0
-34 -1034 1047 0
-1035 1047 0
-34 -1035 1048 0
-1036 1048 0
-34 -1036 1049 0
-1037 1049 0
-34 -1037 1050 0
-1038 1050 0
-34 -1038 0
-35 1051 0
-1039 1051 0
-35 -1039 1052 0
-1040 1052 0
-35 -1040 1053 0
-1041 1053 0
-35 -1041 1054 0
-1042 1054 0
-35 -1042 1055 0
-1043 1055 0
-35 -1043 1056 0
-1044 1056 0
-35 -1044 1057 0
-1045 1057 0
-35 -1045 1058 0
-1046 1058 0
-35 -1046 1059 0
-1047 1059 0
-35 -1047 1060 0
-1048 1060 0
-35 -1048 1061 0
-1049 1061 0
-35 -1049 1062 0
-1050 1062 0
-35 -1050 0
-36 1063 0
-1051 1063 0
-36 -1051 1064 0
-1052 1064 0
-36 -1052 1065 0
-1053 1065 0
-36 -1053 1066 0
-1054 1066 0
-36 -1054 1067 0
-1055 1067 0
-36 -1055 1068 0
-1056 1068 0
-36 -1056 1069 0
-1057 1069 0
-36 -1057 1070 0
-1058 1070 0
-36 -1058 1071 0
-1059 1071 0
-36 -1059 1072 0
-1060 1072 0
-36 -1060 1073 0
-1061 1073 0
-36 -1061 1074 0
-1062 1074 0
-36 -1062 0
-37 1075 0
-1063 1075 0
-37 -1063 1076 0
-1064 1076 0
-37 -1064 1077 0
-1065 1077 0
-37 -1065 1078 0
-1066 1078 0
-37 -1066 1079 0
-1067 1079 0
-37 -1067 1080 0
-1068 1080 0
-37 -1068 1081 0
-1069 1081 0
-37 -1069 1082 0
-1070 1082 0
-37 -1070 1083 0
-1071 1083 0
-37 -1071 1084 0
-1072 1084 0
-37 -1072 1085 0
-1073 1085 0
-37 -1073 1086 0
-1074 1086 0
-37 -1074 0
-38 1087 0
-1075 1087 0
-38 -1075 1088 0
-1076 1088 0
-38 -1076 1089 0
-1077 1089 0
-38 -1077 1090 0
-1078 1090 0
-38 -1078 1091 0
-1079 1091 0
-38 -1079 1092 0
-1080 1092 0
-38 -1080 1093 0
-1081 1093 0
-38 -1081 1094 0
-1082 1094 0
-38 -1082 1095 0
-1083 1095 0
-38 -1083 1096 0
-1084 1096 0
-38 -1084 1097 0
-1085 1097 0
-38 -1085 1098 0
-1086 1098 0
-38 -1086 0
-39 1099 0
-1087 1099 0
-39 -1087 1100 0
-1088 1100 0
-39 -1088 1101 0
-1089 1101 0
-39 -1089 1102 0
-1090 1102 0
-39 -1090 1103 0
-1091 1103 0
-39 -1091 1104 0
-1092 1104 0
-39 -1092 1105 0
-1093 1105 0
-39 -1093 1106 0
-1094 1106 0
-39 -1094 1107 0
-1095 1107 0
-39 -1095 1108 0
-1096 1108 0
-39 -1096 1109 0
-1097 1109 0
-39 -1097 1110 0
-1098 1110 0
-39 -1098 0
-40 1111 0
-1099 1111 0
-40 -1099 1112 0
-1100 1112 0
-40 -1100 1113 0
-1101 1113 0
-40 -1101 1114 0
-1102 1114 0
-40 -1102 1115 0
-1103 1115 0
-40 -1103 1116 0
-1104 1116 0
-40 -1104 1117 0
-1105 1117 0
-40 -1105 1118 0
-1106 1118 0
-40 -1106 1119 0
-1107 1119 0
-40 -1107 1120 0
-1108 1120 0
-40 -1108 1121 0
-1109 1121 0
-40 -1109 1122 0
-1110 1122 0
-40 -1110 0
-41 1123 0
-1111 1123 0
-41 -1111 1124 0
-1112 1124 0
-41 -1112 1125 0
-1113 1125 0
-41 -1113 1126 0
-1114 1126 0
-41 -1114 1127 0
-1115 1127 0
-41 -1115 1128 0
-1116 1128 0
-41 -1116 1129 0
-1117 1129 0
-41 -1117 1130 0
-1118 1130 0
-41 -1118 1131 0
-1119 1131 0
-41 -1119 1132 0
-1120 1132 0
-41 -1120 1133 0
-1121 1133 0
-41 -1121 1134 0
-1122 1134 0
-41 -1122 0
-42 1135 0
-1123 1135 0
-42 -1123 1136 0
-1124 1136 0
-42 -1124 1137 0
-1125 1137 0
-42 -1125 1138 0
-1126 1138 0
-42 -1126 1139 0
-1127 1139 0
-42 -1127 1140 0
-1128 1140 0
-42 -1128 1141 0
-1129 1141 0
-42 -1129 1142 0
-1130 1142 0
-42 -1130 1143 0
-1131 1143 0
-42 -1131 1144 0
-1132 1144 0
-42 -1132 1145 0
-1133 1145 0
-42 -1133 1146 0
-1134 1146 0
-42 -1134 0
-43 1147 0
-1135 1147 0
-43 -1135 1148 0
-1136 1148 0
-43 -1136 1149 0
-1137 1149 0
-43 -1137 1150 0
-1138 1150 0
-43 -1138 1151 0
-1139 1151 0
-43 -1139 1152 0
-1140 1152 0
-43 -1140 1153 0
-1141 1153 0
-43 -1141 1154 0
-1142 1154 0
-43 -1142 1155 0
-1143 1155 0
-43 -1143 1156 0
-1144 1156 0
-43 -1144 1157 0
-1145 1157 0
-43 -1145 1158 0
-1146 1158 0
-43 -1146 0
-44 1159 0
-1147 1159 0
-44 -1147 1160 0
-1148 1160 0
-44 -1148 1161 0
-1149 1161 0
-44 -1149 1162 0
-1150 1162 0
-44 -1150 1163 0
-1151 1163 0
-44 -1151 1164 0
-1152 1164 0
-44 -1152 1165 0
-1153 1165 0
-44 -1153 1166 0
-1154 1166 0
-44 -1154 1167 0
-1155 1167 0
-44 -1155 1168 0
-1156 1168 0
-44 -1156 1169 0
-1157 1169 0
-44 -1157 1170 0
-1158 1170 0
-44 -1158 0
-45 1171 0
-1159 1171 0
-45 -1159 1172 0
-1160 1172 0
-45 -1160 1173 0
-1161 1173 0
-45 -1161 1174 0
-1162 1174 0
-45 -1162 1175 0
-1163 1175 0
-45 -1163 1176 0
-1164 1176 0
-45 -1164 1177 0
-1165 1177 0
-45 -1165 1178 0
-1166 1178 0
-45 -1166 1179 0
-1167 1179 0
-45 -1167 1180 0
-1168 1180 0
-45 -1168 1181 0
-1169 1181 0
-45 -1169 1182 0
-1170 1182 0
-45 -1170 0
-46 1183 0
-1171 1183 0
-46 -1171 1184 0
-1172 1184 0
-46 -1172 1185 0
-1173 1185 0
-46 -1173 1186 0
-1174 1186 0
-46 -1174 1187 0
-1175 1187 0
-46 -1175 1188 0
-1176 1188 0
-46 -1176 1189 0
-1177 1189 0
-46 -1177 1190 0
-1178 1190 0
-46 -1178 1191 0
-1179 1191 0
-46 -1179 1192 0
-1180 1192 0
-46 -1180 1193 0
-1181 1193 0
-46 -1181 1194 0
-1182 1194 0
-46 -1182 0
-47 1195 0
-1183 1195 0
-47 -1183 1196 0
-1184 1196 0
-47 -1184 1197 0
-1185 1197 0
-47 -1185 1198 0
-1186 1198 0
-47 -1186 1199 0
-1187 1199 0
-47 -1187 1200 0
-1188 1200 0
-47 -1188 1201 0
-1189 1201 0
-47 -1189 1202 0
-1190 1202 0
-47 -1190 1203 0
-1191 1203 0
-47 -1191 1204 0
-1192 1204 0
-47 -1192 1205 0
-1193 1205 0
-47 -1193 1206 0
-1194 1206 0
-47 -1194 0
-48 1207 0
-1195 1207 0
-48 -1195 1208 0
-1196 1208 0
-48 -1196 1209 0
-1197 1209 0
-48 -1197 1210 0
-1198 1210 0
-48 -1198 1211 0
-1199 1211 0
-48 -1199 1212 0
-1200 1212 0
-48 -1200 1213 0
-1201 1213 0
-48 -1201 1214 0
-1202 1214 0
-48 -1202 1215 0
-1203 1215 0
-48 -1203 1216 0
-1204 1216 0
-48 -1204 1217 0
-1205 1217 0
-48 -1205 1218 0
-1206 1218 0
-48 -1206 0
-49 1219 0
-1207 1219 0
-49 -1207 1220 0
-1208 1220 0
-49 -1208 1221 0
-1209 1221 0
-49 -1209 1222 0
-1210 1222 0
-49 -1210 1223 0
-1211 1223 0
-49 -1211 1224 0
-1212 1224 0
-49 -1212 1225 0
-1213 1225 0
-49 -1213 1226 0
-1214 1226 0
-49 -1214 1227 0
-1215 1227 0
-49 -1215 1228 0
-1216 1228 0
-49 -1216 1229 0
-1217 1229 0
-49 -1217 1230 0
-1218 1230 0
-49 -1218 0
-50 1231 0
-1219 1231 0
-50 -1219 1232 0
-1220 1232 0
-50 -1220 1233 0
-1221 1233 0
-50 -1221 1234 0
-1222 1234 0
-50 -1222 1235 0
-1223 1235 0
-50 -1223 1236 0
-1224 1236 0
-50 -1224 1237 0
-1225 1237 0
-50 -1225 1238 0
-1226 1238 0
-50 -1226 1239 0
-1227 1239 0
-50 -1227 1240 0
-1228 1240 0
-50 -1228 1241 0
-1229 1241 0
-50 -1229 1242 0
-1230 1242 0
-50 -1230 0
-51 1243 0
-1231 1243 0
-51 -1231 1244 0
-1232 1244 0
-51 -1232 1245 0
-1233 1245 0
-51 -1233 1246 0
-1234 1246 0
-51 -1234 1247 0
-1235 1247 0
-51 -1235 1248 0
-1236 1248 0
-51 -1236 1249 0
-1237 1249 0
-51 -1237 1250 0
-1238 1250 0
-51 -1238 1251 0
-1239 1251 0
-51 -1239 1252 0
-1240 1252 0
-51 -1240 1253 0
-1241 1253 0
-51 -1241 1254 0
-1242 1254 0
-51 -1242 0
-52 1255 0
-1243 1255 0
-52 -1243 1256 0
-1244 1256 0
-52 -1244 1257 0
-1245 1257 0
-52 -1245 1258 0
-1246 1258 0
-52 -1246 1259 0
-1247 1259 0
-52 -1247 1260 0
-1248 1260 0
-52 -1248 1261 0
-1249 1261 0
-52 -1249 1262 0
-1250 1262 0
-52 -1250 1263 0
-1251 1263 0
-52 -1251 1264 0
-1252 1264 0
-52 -1252 1265 0
-1253 1265 0
-52 -1253 1266 0
-1254 1266 0
-52 -1254 0
-53 1267 0
-1255 1267 0
-53 -1255 1268 0
-1256 1268 0
-53 -1256 1269 0
-1257 1269 0
-53 -1257 1270 0
-1258 1270 0
-53 -1258 1271 0
-1259 1271 0
-53 -1259 1272 0
-1260 1272 0
-53 -1260 1273 0
-1261 1273 0
-53 -1261 1274 0
-1262 1274 0
-53 -1262 1275 0
-1263 1275 0
-53 -1263 1276 0
-1264 1276 0
-53 -1264 1277 0
-1265 1277 0
-53 -1265 1278 0
-1266 1278 0
-53 -1266 0
-54 1279 0
-1267 1279 0
-54 -1267 1280 0
-1268 1280 0
-54 -1268 1281 0
-1269 1281 0
-54 -1269 1282 0
-1270 1282 0
-54 -1270 1283 0
-1271 1283 0
-54 -1271 1284 0
-1272 1284 0
-54 -1272 1285 0
-1273 1285 0
-54 -1273 1286 0
-1274 1286 0
-54 -1274 1287 0
-1275 1287 0
-54 -1275 1288 0
-1276 1288 0
-54 -1276 1289 0
-1277 1289 0
-54 -1277 1290 0
-1278 1290 0
-54 -1278 0
-55 1291 0
-1279 1291 0
-55 -1279 1292 0
-1280 1292 0
-55 -1280 1293 0
-1281 1293 0
-55 -1281 1294 0
-1282 1294 0
-55 -1282 1295 0
-1283 1295 0
-55 -1283 1296 0
-1284 1296 0
-55 -1284 1297 0
-1285 1297 0
-55 -1285 1298 0
-1286 1298 0
-55 -1286 1299 0
-1287 1299 0
-55 -1287 1300 0
-1288 1300 0
-55 -1288 1301 0
-1289 1301 0
-55 -1289 1302 0
-1290 1302 0
-55 -1290 0
-56 1303 0
-1291 1303 0
-56 -1291 1304 0
-1292 1304 0
-56 -1292 1305 0
-1293 1305 0
-56 -1293 1306 0
-1294 1306 0
-56 -1294 1307 0
-1295 1307 0
-56 -1295 1308 0
-1296 1308 0
-56 -1296 1309 0
-1297 1309 0
-56 -1297 1310 0
-1298 1310 0
-56 -1298 1311 0
-1299 1311 0
-56 -1299 1312 0
-1300 1312 0
-56 -1300 1313 0
-1301 1313 0
-56 -1301 1314 0
-1302 1314 0
-56 -1302 0
-57 1315 0
-1303 1315 0
-57 -1303 1316 0
-1304 1316 0
-57 -1304 1317 0
-1305 1317 0
-57 -1305 1318 0
-1306 1318 0
-57 -1306 1319 0
-1307 1319 0
-57 -1307 1320 0
-1308 1320 0
-57 -1308 1321 0
-1309 1321 0
-57 -1309 1322 0
-1310 1322 0
-57 -1310 1323 0
-1311 1323 0
-57 -1311 1324 0
-1312 1324 0
-57 -1312 1325 0
-1313 1325 0
-57 -1313 1326 0
-1314 1326 0
-57 -1314 0
-58 1327 0
-1315 1327 0
-58 -1315 1328 0
-1316 1328 0
-58 -1316 1329 0
-1317 1329 0
-58 -1317 1330 0
-1318 1330 0
-58 -1318 1331 0
-1319 1331 0
-58 -1319 1332 0
-1320 1332 0
-58 -1320 1333 0
-1321 1333 0
-58 -1321 1334 0
-1322 1334 0
-58 -1322 1335 0
-1323 1335 0
-58 -1323 1336 0
-1324 1336 0
-58 -1324 1337 0
-1325 1337 0
-58 -1325 1338 0
-1326 1338 0
-58 -1326 0
-59 1339 0
-1327 1339 0
-59 -1327 1340 0
-1328 1340 0
-59 -1328 1341 0
-1329 1341 0
-59 -1329 1342 0
-1330 1342 0
-59 -1330 1343 0
-1331 1343 0
-59 -1331 1344 0
-1332 1344 0
-59 -1332 1345 0
-1333 1345 0
-59 -1333 1346 0
-1334 1346 0
-59 -1334 1347 0
-1335 1347 0
-59 -1335 1348 0
-1336 1348 0
-59 -1336 1349 0
-1337 1349 0
-59 -1337 1350 0
-1338 1350 0
-59 -1338 0
-60 1351 0
-1339 1351 0
-60 -1339 1352 0
-1340 1352 0
-60 -1340 1353 0
-1341 1353 0
-60 -1341 1354 0
-1342 1354 0
-60 -1342 1355 0
-1343 1355 0
-60 -1343 1356 0
-1344 1356 0
-60 -1344 1357 0
-1345 1357 0
-60 -1345 1358 0
-1346 1358 0
-60 -1346 1359 0
-1347 1359 0
-60 -1347 1360 0
-1348 1360 0
-60 -1348 1361 0
-1349 1361 0
-60 -1349 1362 0
-1350 1362 0
-60 -1350 0
-61 1363 0
-1351 1363 0
-61 -1351 1364 0
-1352 1364 0
-61 -1352 1365 0
-1353 1365 0
-61 -1353 1366 0
-1354 1366 0
-61 -1354 1367 0
-1355 1367 0
-61 -1355 1368 0
-1356 1368 0
-61 -1356 1369 0
-1357 1369 0
-61 -1357 1370 0
-1358 1370 0
-61 -1358 1371 0
-1359 1371 0
-61 -1359 1372 0
-1360 1372 0
-61 -1360 1373 0
-1361 1373 0
-61 -1361 1374 0
-1362 1374 0
-61 -1362 0
-62 1375 0
-1363 1375 0
-62 -1363 1376 0
-1364 1376 0
-62 -1364 1377 0
-1365 1377 0
-62 -1365 1378 0
-1366 1378 0
-62 -1366 1379 0
-1367 1379 0
-62 -1367 1380 0
-1368 1380 0
-62 -1368 1381 0
-1369 1381 0
-62 -1369 1382 0
-1370 1382 0
-62 -1370 1383 0
-1371 1383 0
-62 -1371 1384 0
-1372 1384 0
-62 -1372 1385 0
-1373 1385 0
-62 -1373 1386 0
-1374 1386 0
-62 -1374 0
-63 1387 0
-1375 1387 0
-63 -1375 1388 0
-1376 1388 0
-63 -1376 1389 0
-1377 1389 0
-63 -1377 1390 0
-1378 1390 0
-63 -1378 1391 0
-1379 1391 0
-63 -1379 1392 0
-1380 1392 0
-63 -1380 1393 0
-1381 1393 0
-63 -1381 1394 0
-1382 1394 0
-63 -1382 1395 0
-1383 1395 0
-63 -1383 1396 0
-1384 1396 0
-63 -1384 1397 0
-1385 1397 0
-63 -1385 1398 0
-1386 1398 0
-63 -1386 0
-64 1399 0
-1387 1399 0
-64 -1387 1400 0
-1388 1400 0
-64 -1388 1401 0
-1389 1401 0
-64 -1389 1402 0
-1390 1402 0
-64 -1390 1403 0
-1391 1403 0
-64 -1391 1404 0
-1392 1404 0
-64 -1392 1405 0
-1393 1405 0
-64 -1393 1406 0
-1394 1406 0
-64 -1394 1407 0
-1395 1407 0
-64 -1395 1408 0
-1396 1408 0
-64 -1396 1409 0
-1397 1409 0
-64 -1397 1410 0
-1398 1410 0
-64 -1398 0
-65 1411 0
-1399 1411 0
-65 -1399 1412 0
-1400 1412 0
-65 -1400 1413 0
-1401 1413 0
-65 -1401 1414 0
-1402 1414 0
-65 -1402 1415 0
-1403 1415 0
-65 -1403 1416 0
-1404 1416 0
-65 -1404 1417 0
-1405 1417 0
-65 -1405 1418 0
-1406 1418 0
-65 -1406 1419 0
-1407 1419 0
-65 -1407 1420 0
-1408 1420 0
-65 -1408 1421 0
-1409 1421 0
-65 -1409 1422 0
-1410 1422 0
-65 -1410 0
-66 1423 0
-1411 1423 0
-66 -1411 1424 0
-1412 1424 0
-66 -1412 1425 0
-1413 1425 0
-66 -1413 1426 0
-1414 1426 0
-66 -1414 1427 0
-1415 1427 0
-66 -1415 1428 0
-1416 1428 0
-66 -1416 1429 0
-1417 1429 0
-66 -1417 1430 0
-1418 1430 0
-66 -1418 1431 0
-1419 1431 0
-66 -1419 1432 0
-1420 1432 0
-66 -1420 1433 0
-1421 1433 0
-66 -1421 1434 0
-1422 1434 0
-66 -1422 0
-67 1435 0
-1423 1435 0
-67 -1423 1436 0
-1424 1436 0
-67 -1424 1437 0
-1425 1437 0
-67 -1425 1438 0
-1426 1438 0
-67 -1426 1439 0
-1427 1439 0
-67 -1427 1440 0
-1428 1440 0
-67 -1428 1441 0
-1429 1441 0
-67 -1429 1442 0
-1430 1442 0
-67 -1430 1443 0
-1431 1443 0
-67 -1431 1444 0
-1432 1444 0
-67 -1432 1445 0
-1433 1445 0
-67 -1433 1446 0
-1434 1446 0
-67 -1434 0
-68 1447 0
-1435 1447 0
-68 -1435 1448 0
-1436 1448 0
-68 -1436 1449 0
-1437 1449 0
-68 -1437 1450 0
-1438 1450 0
-68 -1438 1451 0
-1439 1451 0
-68 -1439 1452 0
-1440 1452 0
-68 -1440 1453 0
-1441 1453 0
-68 -1441 1454 0
-1442 1454 0
-68 -1442 1455 0
-1443 1455 0
-68 -1443 1456 0
-1444 1456 0
-68 -1444 1457 0
-1445 1457 0
-68 -1445 1458 0
-1446 1458 0
-68 -1446 0
-69 1459 0
-1447 1459 0
-69 -1447 1460 0
-1448 1460 0
-69 -1448 1461 0
-1449 1461 0
-69 -1449 1462 0
-1450 1462 0
-69 -1450 1463 0
-1451 1463 0
-69 -1451 1464 0
-1452 1464 0
-69 -1452 1465 0
-1453 1465 0
-69 -1453 1466 0
-1454 1466 0
-69 -1454 1467 0
-1455 1467 0
-69 -1455 1468 0
-1456 1468 0
-69 -1456 1469 0
-1457 1469 0
-69 -1457 1470 0
-1458 1470 0
-69 -1458 0
-70 1471 0
-1459 1471 0
-70 -1459 1472 0
-1460 1472 0
-70 -1460 1473 0
-1461 1473 0
-70 -1461 1474 0
-1462 1474 0
-70 -1462 1475 0
-1463 1475 0
-70 -1463 1476 0
-1464 1476 0
-70 -1464 1477 0
-1465 1477 0
-70 -1465 1478 0
-1466 1478 0
-70 -1466 1479 0
-1467 1479 0
-70 -1467 1480 0
-1468 1480 0
-70 -1468 1481 0
-1469 1481 0
-70 -1469 1482 0
-1470 1482 0
-70 -1470 0
-71 1483 0
-1471 1483 0
-71 -1471 1484 0
-1472 1484 0
-71 -1472 1485 0
-1473 1485 0
-71 -1473 1486 0
-1474 1486 0
-71 -1474 1487 0
-1475 1487 0
-71 -1475 1488 0
-1476 1488 0
-71 -1476 1489 0
-1477 1489 0
-71 -1477 1490 0
-1478 1490 0
-71 -1478 1491 0
-1479 1491 0
-71 -1479 1492 0
-1480 1492 0
-71 -1480 1493 0
-1481 1493 0
-71 -1481 1494 0
-1482 1494 0
-71 -1482 0
-72 1495 0
-1483 1495 0
-72 -1483 1496 0
-1484 1496 0
-72 -1484 1497 0
-1485 1497 0
-72 -1485 1498 0
-1486 1498 0
-72 -1486 1499 0
-1487 1499 0
-72 -1487 1500 0
-1488 1500 0
-72 -1488 1501 0
-1489 1501 0
-72 -1489 1502 0
-1490 1502 0
-72 -1490 1503 0
-1491 1503 0
-72 -1491 1504 0
-1492 1504 0
-72 -1492 1505 0
-1493 1505 0
-72 -1493 1506 0
-1494 1506 0
-72 -1494 0
-73 1507 0
-1495 1507 0
-73 -1495 1508 0
-1496 1508 0
-73 -1496 1509 0
-1497 1509 0
-73 -1497 1510 0
-1498 1510 0
-73 -1498 1511 0
-1499 1511 0
-73 -1499 1512 0
-1500 1512 0
-73 -1500 1513 0
-1501 1513 0
-73 -1501 1514 0
-1502 1514 0
-73 -1502 1515 0
-1503 1515 0
-73 -1503 1516 0
-1504 1516 0
-73 -1504 1517 0
-1505 1517 0
-73 -1505 1518 0
-1506 1518 0
-73 -1506 0
-74 1519 0
-1507 1519 0
-74 -1507 1520 0
-1508 1520 0
-74 -1508 1521 0
-1509 1521 0
-74 -1509 1522 0
-1510 1522 0
-74 -1510 1523 0
-1511 1523 0
-74 -1511 1524 0
-1512 1524 0
-74 -1512 1525 0
-1513 1525 0
-74 -1513 1526 0
-1514 1526 0
-74 -1514 1527 0
-1515 1527 0
-74 -1515 1528 0
-1516 1528 0
-74 -1516 1529 0
-1517 1529 0
-74 -1517 1530 0
-1518 1530 0
-74 -1518 0
-75 1531 0
-1519 1531 0
-75 -1519 1532 0
-1520 1532 0
-75 -1520 1533 0
-1521 1533 0
-75 -1521 1534 0
-1522 1534 0
-75 -1522 1535 0
-1523 1535 0
-75 -1523 1536 0
-1524 1536 0
-75 -1524 1537 0
-1525 1537 0
-75 -1525 1538 0
-1526 1538 0
-75 -1526 1539 0
-1527 1539 0
-75 -1527 1540 0
-1528 1540 0
-75 -1528 1541 0
-1529 1541 0
-75 -1529 1542 0
-1530 1542 0
-75 -1530 0
-76 1543 0
-1531 1543 0
-76 -1531 1544 0
-1532 1544 0
-76 -1532 1545 0
-1533 1545 0
-76 -1533 1546 0
-1534 1546 0
-76 -1534 1547 0
-1535 1547 0
-76 -1535 1548 0
-1536 1548 0
-76 -1536 1549 0
-1537 1549 0
-76 -1537 1550 0
-1538 1550 0
-76 -1538 1551 0
-1539 1551 0
-76 -1539 1552 0
-1540 1552 0
-76 -1540 1553 0
-1541 1553 0
-76 -1541 1554 0
-1542 1554 0
-76 -1542 0
-77 1555 0
-1543 1555 0
-77 -1543 1556 0
-1544 1556 0
-77 -1544 1557 0
-1545 1557 0
-77 -1545 1558 0
-1546 1558 0
-77 -1546 1559 0
-1547 1559 0
-77 -1547 1560 0
-1548 1560 0
-77 -1548 1561 0
-1549 1561 0
-77 -1549 1562 0
-1550 1562 0
-77 -1550 1563 0
-1551 1563 0
-77 -1551 1564 0
-1552 1564 0
-77 -1552 1565 0
-1553 1565 0
-77 -1553 1566 0
-1554 1566 0
-77 -1554 0
-78 1567 0
-1555 1567 0
-78 -1555 1568 0
-1556 1568 0
-78 -1556 1569 0
-1557 1569 0
-78 -1557 1570 0
-1558 1570 0
-78 -1558 1571 0
-1559 1571 0
-78 -1559 1572 0
-1560 1572 0
-78 -1560 1573 0
-1561 1573 0
-78 -1561 1574 0
-1562 1574 0
-78 -1562 1575 0
-1563 1575 0
-78 -1563 1576 0
-1564 1576 0
-78 -1564 1577 0
-1565 1577 0
-78 -1565 1578 0
-1566 1578 0
-78 -1566 0
-79 1579 0
-1567 1579 0
-79 -1567 1580 0
-1568 1580 0
-79 -1568 1581 0
-1569 1581 0
-79 -1569 1582 0
-1570 1582 0
-79 -1570 1583 0
-1571 1583 0
-79 -1571 1584 0
-1572 1584 0
-79 -1572 1585 0
-1573 1585 0
-79 -1573 1586 0
-1574 1586 0
-79 -1574 1587 0
-1575 1587 0
-79 -1575 1588 0
-1576 1588 0
-79 -1576 1589 0
-1577 1589 0
-79 -1577 1590 0
-1578 1590 0
-79 -1578 0
-80 1591 0
-1579 1591 0
-80 -1579 1592 0
-1580 1592 0
-80 -1580 1593 0
-1581 1593 0
-80 -1581 1594 0
-1582 1594 0
-80 -1582 1595 0
-1583 1595 0
-80 -1583 1596 0
-1584 1596 0
-80 -1584 1597 0
-1585 1597 0
-80 -1585 1598 0
-1586 1598 0
-80 -1586 1599 0
-1587 1599 0
-80 -1587 1600 0
-1588 1600 0
-80 -1588 1601 0
-1589 1601 0
-80 -1589 1602 0
-1590 1602 0
-80 -1590 0
-81 1603 0
-1591 1603 0
-81 -1591 1604 0
-1592 1604 0
-81 -1592 1605 0
-1593 1605 0
-81 -1593 1606 0
-1594 1606 0
-81 -1594 1607 0
-1595 1607 0
-81 -1595 1608 0
-1596 1608 0
-81 -1596 1609 0
-1597 1609 0
-81 -1597 1610 0
-1598 1610 0
-81 -1598 1611 0
-1599 1611 0
-81 -1599 1612 0
-1600 1612 0
-81 -1600 1613 0
-1601 1613 0
-81 -1601 1614 0
-1602 1614 0
-81 -1602 0
-82 1615 0
-1603 1615 0
-82 -1603 1616 0
-1604 1616 0
-82 -1604 1617 0
-1605 1617 0
-82 -1605 1618 0
-1606 1618 0
-82 -1606 1619 0
-1607 1619 0
-82 -1607 1620 0
-1608 1620 0
-82 -1608 1621 0
-1609 1621 0
-82 -1609 1622 0
-1610 1622 0
-82 -1610 1623 0
-1611 1623 0
-82 -1611 1624 0
-1612 1624 0
-82 -1612 1625 0
-1613 1625 0
-82 -1613 1626 0
-1614 1626 0
-82 -1614 0
-83 1627 0
-1615 1627 0
-83 -1615 1628 0
-1616 1628 0
-83 -1616 1629 0
-1617 1629 0
-83 -1617 1630 0
-1618 1630 0
-83 -1618 1631 0
-1619 1631 0
-83 -1619 1632 0
-1620 1632 0
-83 -1620 1633 0
-1621 1633 0
-83 -1621 1634 0
-1622 1634 0
-83 -1622 1635 0
-1623 1635 0
-83 -1623 1636 0
-1624 1636 0
-83 -1624 1637 0
-1625 1637 0
-83 -1625 1638 0
-1626 1638 0
-83 -1626 0
-84 1639 0
-1627 1639 0
-84 -1627 1640 0
-1628 1640 0
-84 -1628 1641 0
-1629 1641 0
-84 -1629 1642 0
-1630 1642 0
-84 -1630 1643 0
-1631 1643 0
-84 -1631 1644 0
-1632 1644 0
-84 -1632 1645 0
-1633 1645 0
-84 -1633 1646 0
-1634 1646 0
-84 -1634 1647 0
-1635 1647 0
-84 -1635 1648 0
-1636 1648 0
-84 -1636 1649 0
-1637 1649 0
-84 -1637 1650 0
-1638 1650 0
-84 -1638 0
-85 1651 0
-1639 1651 0
-85 -1639 1652 0
-1640 1652 0
-85 -1640 1653 0
-1641 1653 0
-85 -1641 1654 0
-1642 1654 0
-85 -1642 1655 0
-1643 1655 0
-85 -1643 1656 0
-1644 1656 0
-85 -1644 1657 0
-1645 1657 0
-85 -1645 1658 0
-1646 1658 0
-85 -1646 1659 0
-1647 1659 0
-85 -1647 1660 0
-1648 1660 0
-85 -1648 1661 0
-1649 1661 0
-85 -1649 1662 0
-1650 1662 0
-85 -1650 0
-86 1663 0
-1651 1663 0
-86 -1651 1664 0
-1652 1664 0
-86 -1652 1665 0
-1653 1665 0
-86 -1653 1666 0
-1654 1666 0
-86 -1654 1667 0
-1655 1667 0
-86 -1655 1668 0
-1656 1668 0
-86 -1656 1669 0
-1657 1669 0
-86 -1657 1670 0
-1658 1670 0
-86 -1658 1671 0
-1659 1671 0
-86 -1659 1672 0
-1660 1672 0
-86 -1660 1673 0
-1661 1673 0
-86 -1661 1674 0
-1662 1674 0
-86 -1662 0
-87 1675 0
-1663 1675 0
-87 -1663 1676 0
-1664 1676 0
-87 -1664 1677 0
-1665 1677 0
-87 -1665 1678 0
-1666 1678 0
-87 -1666 1679 0
-1667 1679 0
-87 -1667 1680 0
-1668 1680 0
-87 -1668 1681 0
-1669 1681 0
-87 -1669 1682 0
-1670 1682 0
-87 -1670 1683 0
-1671 1683 0
-87 -1671 1684 0
-1672 1684 0
-87 -1672 1685 0
-1673 1685 0
-87 -1673 1686 0
-1674 1686 0
-87 -1674 0
-88 1687 0
-1675 1687 0
-88 -1675 1688 0
-1676 1688 0
-88 -1676 1689 0
-1677 1689 0
-88 -1677 1690 0
-1678 1690 0
-88 -1678 1691 0
-1679 1691 0
-88 -1679 1692 0
-1680 1692 0
-88 -1680 1693 0
-1681 1693 0
-88 -1681 1694 0
-1682 1694 0
-88 -1682 1695 0
-1683 1695 0
-88 -1683 1696 0
-1684 1696 0
-88 -1684 1697 0
-1685 1697 0
-88 -1685 1698 0
-1686 1698 0
-88 -1686 0
-89 1699 0
-1687 1699 0
-89 -1687 1700 0
-1688 1700 0
-89 -1688 1701 0
-1689 1701 0
-89 -1689 1702 0
-1690 1702 0
-89 -1690 1703 0
-1691 1703 0
-89 -1691 1704 0
-1692 1704 0
-89 -1692 1705 0
-1693 1705 0
-89 -1693 1706 0
-1694 1706 0
-89 -1694 1707 0
-1695 1707 0
-89 -1695 1708 0
-1696 1708 0
-89 -1696 1709 0
-1697 1709 0
-89 -1697 1710 0
-1698 1710 0
-89 -1698 0
-90 1711 0
-1699 1711 0
-90 -1699 1712 0
-1700 1712 0
-90 -1700 1713 0
-1701 1713 0
-90 -1701 1714 0
-1702 1714 0
-90 -1702 1715 0
-1703 1715 0
-90 -1703 1716 0
-1704 1716 0
-90 -1704 1717 0
-1705 1717 0
-90 -1705 1718 0
-1706 1718 0
-90 -1706 1719 0
-1707 1719 0
-90 -1707 1720 0
-1708 1720 0
-90 -1708 1721 0
-1709 1721 0
-90 -1709 1722 0
-1710 1722 0
-90 -1710 0
-91 1723 0
-1711 1723 0
-91 -1711 1724 0
-1712 1724 0
-91 -1712 1725 0
-1713 1725 0
-91 -1713 1726 0
-1714 1726 0
-91 -1714 1727 0
-1715 1727 0
-91 -1715 1728 0
-1716 1728 0
-91 -1716 1729 0
-1717 1729 0
-91 -1717 1730 0
-1718 1730 0
-91 -1718 1731 0
-1719 1731 0
-91 -1719 1732 0
-1720 1732 0
-91 -1720 1733 0
-1721 1733 0
-91 -1721 1734 0
-1722 1734 0
-91 -1722 0
-92 1735 0
-1723 1735 0
-92 -1723 1736 0
-1724 1736 0
-92 -1724 1737 0
-1725 1737 0
-92 -1725 1738 0
-1726 1738 0
-92 -1726 1739 0
-1727 1739 0
-92 -1727 1740 0
-1728 1740 0
-92 -1728 1741 0
-1729 1741 0
-92 -1729 1742 0
-1730 1742 0
-92 -1730 1743 0
-1731 1743 0
-92 -1731 1744 0
-1732 1744 0
-92 -1732 1745 0
-1733 1745 0
-92 -1733 1746 0
-1734 1746 0
-92 -1734 0
-93 1747 0
-1735 1747 0
-93 -1735 1748 0
-1736 1748 0
-93 -1736 1749 0
-1737 1749 0
-93 -1737 1750 0
-1738 1750 0
-93 -1738 1751 0
-1739 1751 0
-93 -1739 1752 0
-1740 1752 0
-93 -1740 1753 0
-1741 1753 0
-93 -1741 1754 0
-1742 1754 0
-93 -1742 1755 0
-1743 1755 0
-93 -1743 1756 0
-1744 1756 0
-93 -1744 1757 0
-1745 1757 0
-93 -1745 1758 0
-1746 1758 0
-93 -1746 0
-94 1759 0
-1747 1759 0
-94 -1747 1760 0
-1748 1760 0
-94 -1748 1761 0
-1749 1761 0
-94 -1749 1762 0
-1750 1762 0
-94 -1750 1763 0
-1751 1763 0
-94 -1751 1764 0
-1752 1764 0
-94 -1752 1765 0
-1753 1765 0
-94 -1753 1766 0
-1754 1766 0
-94 -1754 1767 0
-1755 1767 0
-94 -1755 1768 0
-1756 1768 0
-94 -1756 1769 0
-1757 1769 0
-94 -1757 1770 0
-1758 1770 0
-94 -1758 0
-95 1771 0
-1759 1771 0
-95 -1759 1772 0
-1760 1772 0
-95 -1760 1773 0
-1761 1773 0
-95 -1761 1774 0
-1762 1774 0
-95 -1762 1775 0
-1763 1775 0
-95 -1763 1776 0
-1764 1776 0
-95 -1764 1777 0
-1765 1777 0
-95 -1765 1778 0
-1766 1778 0
-95 -1766 1779 0
-1767 1779 0
-95 -1767 1780 0
-1768 1780 0
-95 -1768 1781 0
-1769 1781 0
-95 -1769 1782 0
-1770 1782 0
-95 -1770 0
-96 1783 0
-1771 1783 0
-96 -1771 1784 0
-1772 1784 0
-96 -1772 1785 0
-1773 1785 0
-96 -1773 1786 0
-1774 1786 0
-96 -1774 1787 0
-1775 1787 0
-96 -1775 1788 0
-1776 1788 0
-96 -1776 1789 0
-1777 1789 0
-96 -1777 1790 0
-1778 1790 0
-96 -1778 1791 0
-1779 1791 0
-96 -1779 1792 0
-1780 1792 0
-96 -1780 1793 0
-1781 1793 0
-96 -1781 1794 0
-1782 1794 0
-96 -1782 0
-97 1795 0
-1783 1795 0
-97 -1783 1796 0
-1784 1796 0
-97 -1784 1797 0
-1785 1797 0
-97 -1785 1798 0
-1786 1798 0
-97 -1786 1799 0
-1787 1799 0
-97 -1787 1800 0
-1788 1800 0
-97 -1788 1801 0
-1789 1801 0
-97 -1789 1802 0
-1790 1802 0
-97 -1790 1803 0
-1791 1803 0
-97 -1791 1804 0
-1792 1804 0
-97 -1792 1805 0
-1793 1805 0
-97 -1793 1806 0
-1794 1806 0
-97 -1794 0
-98 1807 0
-1795 1807 0
-98 -1795 1808 0
-1796 1808 0
-98 -1796 1809 0
-1797 1809 0
-98 -1797 1810 0
-1798 1810 0
-98 -1798 1811 0
-1799 1811 0
-98 -1799 1812 0
-1800 1812 0
-98 -1800 1813 0
-1801 1813 0
-98 -1801 1814 0
-1802 1814 0
-98 -1802 1815 0
-1803 1815 0
-98 -1803 1816 0
-1804 1816 0
-98 -1804 1817 0
-1805 1817 0
-98 -1805 1818 0
-1806 1818 0
-98 -1806 0
-99 1819 0
-1807 1819 0
-99 -1807 1820 0
-1808 1820 0
-99 -1808 1821 0
-1809 1821 0
-99 -1809 1822 0
-1810 1822 0
-99 -1810 1823 0
-1811 1823 0
-99 -1811 1824 0
-1812 1824 0
-99 -1812 1825 0
-1813 1825 0
-99 -1813 1826 0
-1814 1826 0
-99 -1814 1827 0
-1815 1827 0
-99 -1815 1828 0
-1816 1828 0
-99 -1816 1829 0
-1817 1829 0
-99 -1817 1830 0
-1818 1830 0
-99 -1818 0
-100 1831 0
-1819 1831 0
-100 -1819 1832 0
-1820 1832 0
-100 -1820 1833 0
-1821 1833 0
-100 -1821 1834 0
-1822 1834 0
-100 -1822 1835 0
-1823 1835 0
-100 -1823 1836 0
-1824 1836 0
-100 -1824 1837 0
-1825 1837 0
-100 -1825 1838 0
-1826 1838 0
-100 -1826 1839 0
-1827 1839 0
-100 -1827 1840 0
-1828 1840 0
-100 -1828 1841 0
-1829 1841 0
-100 -1829 1842 0
-1830 1842 0
-100 -1830 0
-101 1843 0
-1831 1843 0
-101 -1831 1844 0
-1832 1844 0
-101 -1832 1845 0
-1833 1845 0
-101 -1833 1846 0
-1834 1846 0
-101 -1834 1847 0
-1835 1847 0
-101 -1835 1848 0
-1836 1848 0
-101 -1836 1849 0
-1837 1849 0
-101 -1837 1850 0
-1838 1850 0
-101 -1838 1851 0
-1839 1851 0
-101 -1839 1852 0
-1840 1852 0
-101 -1840 1853 0
-1841 1853 0
-101 -1841 1854 0
-1842 1854 0
-101 -1842 0
-102 1855 0
-1843 1855 0
-102 -1843 1856 0
-1844 1856 0
-102 -1844 1857 0
-1845 1857 0
-102 -1845 1858 0
-1846 1858 0
-102 -1846 1859 0
-1847 1859 0
-102 -1847 1860 0
-1848 1860 0
-102 -1848 1861 0
-1849 1861 0
-102 -1849 1862 0
-1850 1862 0
-102 -1850 1863 0
-1851 1863 0
-102 -1851 1864 0
-1852 1864 0
-102 -1852 1865 0
-1853 1865 0
-102 -1853 1866 0
-1854 1866 0
-102 -1854 0
-103 1867 0
-1855 1867 0
-103 -1855 1868 0
-1856 1868 0
-103 -1856 1869 0
-1857 1869 0
-103 -1857 1870 0
-1858 1870 0
-103 -1858 1871 0
-1859 1871 0
-103 -1859 1872 0
-1860 1872 0
-103 -1860 1873 0
-1861 1873 0
-103 -1861 1874 0
-1862 1874 0
-103 -1862 1875 0
-1863 1875 0
-103 -1863 1876 0
-1864 1876 0
-103 -1864 1877 0
-1865 1877 0
-103 -1865 1878 0
-1866 1878 0
-103 -1866 0
-104 1879 0
-1867 1879 0
-104 -1867 1880 0
-1868 1880 0
-104 -1868 1881 0
-1869 1881 0
-104 -1869 1882 0
-1870 1882 0
-104 -1870 1883 0
-1871 1883 0
-104 -1871 1884 0
-1872 1884 0
-104 -1872 1885 0
-1873 1885 0
-104 -1873 1886 0
-1874 1886 0
-104 -1874 1887 0
-1875 1887 0
-104 -1875 1888 0
-1876 1888 0
-104 -1876 1889 0
-1877 1889 0
-104 -1877 1890 0
-1878 1890 0
-104 -1878 0
-105 1891 0
-1879 1891 0
-105 -1879 1892 0
-1880 1892 0
-105 -1880 1893 0
-1881 1893 0
-105 -1881 1894 0
-1882 1894 0
-105 -1882 1895 0
-1883 1895 0
-105 -1883 1896 0
-1884 1896 0
-105 -1884 1897 0
-1885 1897 0
-105 -1885 1898 0
-1886 1898 0
-105 -1886 1899 0
-1887 1899 0
-105 -1887 1900 0
-1888 1900 0
-105 -1888 1901 0
-1889 1901 0
-105 -1889 1902 0
-1890 1902 0
-105 -1890 0
-106 1903 0
-1891 1903 0
-106 -1891 1904 0
-1892 1904 0
-106 -1892 1905 0
-1893 1905 0
-106 -1893 1906 0
-1894 1906 0
-106 -1894 1907 0
-1895 1907 0
-106 -1895 1908 0
-1896 1908 0
-106 -1896 1909 0
-1897 1909 0
-106 -1897 1910 0
-1898 1910 0
-106 -1898 1911 0
-1899 1911 0
-106 -1899 1912 0
-1900 1912 0
-106 -1900 1913 0
-1901 1913 0
-106 -1901 1914 0
-1902 1914 0
-106 -1902 0
-107 1915 0
-1903 1915 0
-107 -1903 1916 0
-1904 1916 0
-107 -1904 1917 0
-1905 1917 0
-107 -1905 1918 0
-1906 1918 0
-107 -1906 1919 0
-1907 1919 0
-107 -1907 1920 0
-1908 1920 0
-107 -1908 1921 0
-1909 1921 0
-107 -1909 1922 0
-1910 1922 0
-107 -1910 1923 0
-1911 1923 0
-107 -1911 1924 0
-1912 1924 0
-107 -1912 1925 0
-1913 1925 0
-107 -1913 1926 0
-1914 1926 0
-107 -1914 0
-108 1927 0
-1915 1927 0
-108 -1915 1928 0
-1916 1928 0
-108 -1916 1929 0
-1917 1929 0
-108 -1917 1930 0
-1918 1930 0
-108 -1918 1931 0
-1919 1931 0
-108 -1919 1932 0
-1920 1932 0
-108 -1920 1933 0
-1921 1933 0
-108 -1921 1934 0
-1922 1934 0
-108 -1922 1935 0
-1923 1935 0
-108 -1923 1936 0
-1924 1936 0
-108 -1924 1937 0
-1925 1937 0
-108 -1925 1938 0
-1926 1938 0
-108 -1926 0
-109 1939 0
-1927 1939 0
-109 -1927 1940 0
-1928 1940 0
-109 -1928 1941 0
-1929 1941 0
-109 -1929 1942 0
-1930 1942 0
-109 -1930 1943 0
-1931 1943 0
-109 -1931 1944 0
-1932 1944 0
-109 -1932 1945 0
-1933 1945 0
-109 -1933 1946 0
-1934 1946 0
-109 -1934 1947 0
-1935 1947 0
-109 -1935 1948 0
-1936 1948 0
-109 -1936 1949 0
-1937 1949 0
-109 -1937 1950 0
-1938 1950 0
-109 -1938 0
-110 1951 0
-1939 1951 0
-110 -1939 1952 0
-1940 1952 0
-110 -1940 1953 0
-1941 1953 0
-110 -1941 1954 0
-1942 1954 0
-110 -1942 1955 0
-1943 1955 0
-110 -1943 1956 0
-1944 1956 0
-110 -1944 1957 0
-1945 1957 0
-110 -1945 1958 0
-1946 1958 0
-110 -1946 1959 0
-1947 1959 0
-110 -1947 1960 0
-1948 1960 0
-110 -1948 1961 0
-1949 1961 0
-110 -1949 1962 0
-1950 1962 0
-110 -1950 0
-111 1963 0
-1951 1963 0
-111 -1951 1964 0
-1952 1964 0
-111 -1952 1965 0
-1953 1965 0
-111 -1953 1966 0
-1954 1966 0
-111 -1954 1967 0
-1955 1967 0
-111 -1955 1968 0
-1956 1968 0
-111 -1956 1969 0
-1957 1969 0
-111 -1957 1970 0
-1958 1970 0
-111 -1958 1971 0
-1959 1971 0
-111 -1959 1972 0
-1960 1972 0
-111 -1960 1973 0
-1961 1973 0
-111 -1961 1974 0
-1962 1974 0
-111 -1962 0
-112 1975 0
-1963 1975 0
-112 -1963 1976 0
-1964 1976 0
-112 -1964 1977 0
-1965 1977 0
-112 -1965 1978 0
-1966 1978 0
-112 -1966 1979 0
-1967 1979 0
-112 -1967 1980 0
-1968 1980 0
-112 -1968 1981 0
-1969 1981 0
-112 -1969 1982 0
-1970 1982 0
-112 -1970 1983 0
-1971 1983 0
-112 -1971 1984 0
-1972 1984 0
-112 -1972 1985 0
-1973 1985 0
-112 -1973 1986 0
-1974 1986 0
-112 -1974 0
-113 1987 0
-1975 1987 0
-113 -1975 1988 0
-1976 1988 0
-113 -1976 1989 0
-1977 1989 0
-113 -1977 1990 0
-1978 1990 0
-113 -1978 1991 0
-1979 1991 0
-113 -1979 1992 0
-1980 1992 0
-113 -1980 1993 0
-1981 1993 0
-113 -1981 1994 0
-1982 1994 0
-113 -1982 1995 0
-1983 1995 0
-113 -1983 1996 0
-1984 1996 0
-113 -1984 1997 0
-1985 1997 0
-113 -1985 1998 0
-1986 1998 0
-113 -1986 0
-114 1999 0
-1987 1999 0
-114 -1987 2000 0
-1988 2000 0
-114 -1988 2001 0
-1989 2001 0
-114 -1989 2002 0
-1990 2002 0
-114 -1990 2003 0
-1991 2003 0
-114 -1991 2004 0
-1992 2004 0
-114 -1992 2005 0
-1993 2005 0
-114 -1993 2006 0
-1994 2006 0
-114 -1994 2007 0
-1995 2007 0
-114 -1995 2008 0
-1996 2008 0
-114 -1996 2009 0
-1997 2009 0
-114 -1997 2010 0
-1998 2010 0
-114 -1998 0
-115 2011 0
-1999 2011 0
-115 -1999 2012 0
-2000 2012 0
-115 -2000 2013 0
-2001 2013 0
-115 -2001 2014 0
-2002 2014 0
-115 -2002 2015 0
-2003 2015 0
-115 -2003 2016 0
-2004 2016 0
-115 -2004 2017 0
-2005 2017 0
-115 -2005 2018 0
-2006 2018 0
-115 -2006 2019 0
-2007 2019 0
-115 -2007 2020 0
-2008 2020 0
-115 -2008 2021 0
-2009 2021 0
-115 -2009 2022 0
-2010 2022 0
-115 -2010 0
-116 2023 0
-2011 2023 0
-116 -2011 2024 0
-2012 2024 0
-116 -2012 2025 0
-2013 2025 0
-116 -2013 2026 0
-2014 2026 0
-116 -2014 2027 0
-2015 2027 0
-116 -2015 2028 0
-2016 2028 0
-116 -2016 2029 0
-2017 2029 0
-116 -2017 2030 0
-2018 2030 0
-116 -2018 2031 0
-2019 2031 0
-116 -2019 2032 0
-2020 2032 0
-116 -2020 2033 0
-2021 2033 0
-116 -2021 2034 0
-2022 2034 0
-116 -2022 0
-117 2035 0
-2023 2035 0
-117 -2023 2036 0
-2024 2036 0
-117 -2024 2037 0
-2025 2037 0
-117 -2025 2038 0
-2026 2038 0
-117 -2026 2039 0
-2027 2039 0
-117 -2027 2040 0
-2028 2040 0
-117 -2028 2041 0
-2029 2041 0
-117 -2029 2042 0
-2030 2042 0
-117 -2030 2043 0
-2031 2043 0
-117 -2031 2044 0
-2032 2044 0
-117 -2032 2045 0
-2033 2045 0
-117 -2033 2046 0
-2034 2046 0
-117 -2034 0
-118 2047 0
-2035 2047 0
-118 -2035 2048 0
-2036 2048 0
-118 -2036 2049 0
-2037 2049 0
-118 -2037 2050 0
-2038 2050 0
-118 -2038 2051 0
-2039 2051 0
-118 -2039 2052 0
-2040 2052 0
-118 -2040 2053 0
-2041 2053 0
-118 -2041 2054 0
-2042 2054 0
-118 -2042 2055 0
-2043 2055 0
-118 -2043 2056 0
-2044 2056 0
-118 -2044 2057 0
-2045 2057 0
-118 -2045 2058 0
-2046 2058 0
-118 -2046 0
-119 2059 0
-2047 2059 0
-119 -2047 2060 0
-2048 2060 0
-119 -2048 2061 0
-2049 2061 0
-119 -2049 2062 0
-2050 2062 0
-119 -2050 2063 0
-2051 2063 0
-119 -2051 2064 0
-2052 2064 0
-119 -2052 2065 0
-2053 2065 0
-119 -2053 2066 0
-2054 2066 0
-119 -2054 2067 0
-2055 2067 0
-119 -2055 2068 0
-2056 2068 0
-119 -2056 2069 0
-2057 2069 0
-119 -2057 2070 0
-2058 2070 0
-119 -2058 0
-120 2071 0
-2059 2071 0
-120 -2059 2072 0
-2060 2072 0
-120 -2060 2073 0
-2061 2073 0
-120 -2061 2074 0
-2062 2074 0
-120 -2062 2075 0
-2063 2075 0
-120 -2063 2076 0
-2064 2076 0
-120 -2064 2077 0
-2065 2077 0
-120 -2065 2078 0
-2066 2078 0
-120 -2066 2079 0
-2067 2079 0
-120 -2067 2080 0
-2068 2080 0
-120 -2068 2081 0
-2069 2081 0
-120 -2069 2082 0
-2070 2082 0
-120 -2070 0
-121 2083 0
-2071 2083 0
-121 -2071 2084 0
-2072 2084 0
-121 -2072 2085 0
-2073 2085 0
-121 -2073 2086 0
-2074 2086 0
-121 -2074 2087 0
-2075 2087 0
-121 -2075 2088 0
-2076 2088 0
-121 -2076 2089 0
-2077 2089 0
-121 -2077 2090 0
-2078 2090 0
-121 -2078 2091 0
-2079 2091 0
-121 -2079 2092 0
-2080 2092 0
-121 -2080 2093 0
-2081 2093 0
-121 -2081 2094 0
-2082 2094 0
-121 -2082 0
-122 2095 0
-2083 2095 0
-122 -2083 2096 0
-2084 2096 0
-122 -2084 2097 0
-2085 2097 0
-122 -2085 2098 0
-2086 2098 0
-122 -2086 2099 0
-2087 2099 0
-122 -2087 2100 0
-2088 2100 0
-122 -2088 2101 0
-2089 2101 0
-122 -2089 2102 0
-2090 2102 0
-122 -2090 2103 0
-2091 2103 0
-122 -2091 2104 0
-2092 2104 0
-122 -2092 2105 0
-2093 2105 0
-122 -2093 2106 0
-2094 2106 0
-122 -2094 0
-123 2107 0
-2095 2107 0
-123 -2095 2108 0
-2096 2108 0
-123 -2096 2109 0
-2097 2109 0
-123 -2097 2110 0
-2098 2110 0
-123 -2098 2111 0
-2099 2111 0
-123 -2099 2112 0
-2100 2112 0
-123 -2100 2113 0
-2101 2113 0
-123 -2101 2114 0
-2102 2114 0
-123 -2102 2115 0
-2103 2115 0
-123 -2103 2116 0
-2104 2116 0
-123 -2104 2117 0
-2105 2117 0
-123 -2105 2118 0
-2106 2118 0
-123 -2106 0
-124 2119 0
-2107 2119 0
-124 -2107 2120 0
-2108 2120 0
-124 -2108 2121 0
-2109 2121 0
-124 -2109 2122 0
-2110 2122 0
-124 -2110 2123 0
-2111 2123 0
-124 -2111 2124 0
-2112 2124 0
-124 -2112 2125 0
-2113 2125 0
-124 -2113 2126 0
-2114 2126 0
-124 -2114 2127 0
-2115 2127 0
-124 -2115 2128 0
-2116 2128 0
-124 -2116 2129 0
-2117 2129 0
-124 -2117 2130 0
-2118 2130 0
-124 -2118 0
-125 2131 0
-2119 2131 0
-125 -2119 2132 0
-2120 2132 0
-125 -2120 2133 0
-2121 2133 0
-125 -2121 2134 0
-2122 2134 0
-125 -2122 2135 0
-2123 2135 0
-125 -2123 2136 0
-2124 2136 0
-125 -2124 2137 0
-2125 2137 0
-125 -2125 2138 0
-2126 2138 0
-125 -2126 2139 0
-2127 2139 0
-125 -2127 2140 0
-2128 2140 0
-125 -2128 2141 0
-2129 2141 0
-125 -2129 2142 0
-2130 2142 0
-125 -2130 0
-126 2143 0
-2131 2143 0
-126 -2131 2144 0
-2132 2144 0
-126 -2132 2145 0
-2133 2145 0
-126 -2133 2146 0
-2134 2146 0
-126 -2134 2147 0
-2135 2147 0
-126 -2135 2148 0
-2136 2148 0
-126 -2136 2149 0
-2137 2149 0
-126 -2137 2150 0
-2138 2150 0
-126 -2138 2151 0
-2139 2151 0
-126 -2139 2152 0
-2140 2152 0
-126 -2140 2153 0
-2141 2153 0
-126 -2141 2154 0
-2142 2154 0
-126 -2142 0
-127 2155 0
-2143 2155 0
-127 -2143 2156 0
-2144 2156 0
-127 -2144 2157 0
-2145 2157 0
-127 -2145 2158 0
-2146 2158 0
-127 -2146 2159 0
-2147 2159 0
-127 -2147 2160 0
-2148 2160 0
-127 -2148 2161 0
-2149 2161 0
-127 -2149 2162 0
-2150 2162 0
-127 -2150 2163 0
-2151 2163 0
-127 -2151 2164 0
-2152 2164 0
-127 -2152 2165 0
-2153 2165 0
-127 -2153 2166 0
-2154 2166 0
-127 -2154 0
-128 2167 0
-2155 2167 0
-128 -2155 2168 0
-2156 2168 0
-128 -2156 2169 0
-2157 2169 0
-128 -2157 2170 0
-2158 2170 0
-128 -2158 2171 0
-2159 2171 0
-128 -2159 2172 0
-2160 2172 0
-128 -2160 2173 0
-2161 2173 0
-128 -2161 2174 0
-2162 2174 0
-128 -2162 2175 0
-2163 2175 0
-128 -2163 2176 0
-2164 2176 0
-128 -2164 2177 0
-2165 2177 0
-128 -2165 2178 0
-2166 2178 0
-128 -2166 0
-129 2179 0
-2167 2179 0
-129 -2167 2180 0
-2168 2180 0
-129 -2168 2181 0
-2169 2181 0
-129 -2169 2182 0
-2170 2182 0
-129 -2170 2183 0
-2171 2183 0
-129 -2171 2184 0
-2172 2184 0
-129 -2172 2185 0
-2173 2185 0
-129 -2173 2186 0
-2174 2186 0
-129 -2174 2187 0
-2175 2187 0
-129 -2175 2188 0
-2176 2188 0
-129 -2176 2189 0
-2177 2189 0
-129 -2177 2190 0
-2178 2190 0
-129 -2178 0
-130 2191 0
-2179 2191 0
-130 -2179 2192 0
-2180 2192 0
-130 -2180 2193 0
-2181 2193 0
-130 -2181 2194 0
-2182 2194 0
-130 -2182 2195 0
-2183 2195 0
-130 -2183 2196 0
-2184 2196 0
-130 -2184 2197 0
-2185 2197 0
-130 -2185 2198 0
-2186 2198 0
-130 -2186 2199 0
-2187 2199 0
-130 -2187 2200 0
-2188 2200 0
-130 -2188 2201 0
-2189 2201 0
-130 -2189 2202 0
-2190 2202 0
-130 -2190 0
-131 2203 0
-2191 2203 0
-131 -2191 2204 0
-2192 2204 0
-131 -2192 2205 0
-2193 2205 0
-131 -2193 2206 0
-2194 2206 0
-131 -2194 2207 0
-2195 2207 0
-131 -2195 2208 0
-2196 2208 0
-131 -2196 2209 0
-2197 2209 0
-131 -2197 2210 0
-2198 2210 0
-131 -2198 2211 0
-2199 2211 0
-131 -2199 2212 0
-2200 2212 0
-131 -2200 2213 0
-2201 2213 0
-131 -2201 2214 0
-2202 2214 0
-131 -2202 0
-132 2215 0
-2203 2215 0
-132 -2203 2216 0
-2204 2216 0
-132 -2204 2217 0
-2205 2217 0
-132 -2205 2218 0
-2206 2218 0
-132 -2206 2219 0
-2207 2219 0
-132 -2207 2220 0
-2208 2220 0
-132 -2208 2221 0
-2209 2221 0
-132 -2209 2222 0
-2210 2222 0
-132 -2210 2223 0
-2211 2223 0
-132 -2211 2224 0
-2212 2224 0
-132 -2212 2225 0
-2213 2225 0
-132 -2213 2226 0
-2214 2226 0
-132 -2214 0
-133 2227 0
-2215 2227 0
-133 -2215 2228 0
-2216 2228 0
-133 -2216 2229 0
-2217 2229 0
-133 -2217 2230 0
-2218 2230 0
-133 -2218 2231 0
-2219 2231 0
-133 -2219 2232 0
-2220 2232 0
-133 -2220 2233 0
-2221 2233 0
-133 -2221 2234 0
-2222 2234 0
-133 -2222 2235 0
-2223 2235 0
-133 -2223 2236 0
-2224 2236 0
-133 -2224 2237 0
-2225 2237 0
-133 -2225 2238 0
-2226 2238 0
-133 -2226 0
-134 2239 0
-2227 2239 0
-134 -2227 2240 0
-2228 2240 0
-134 -2228 2241 0
-2229 2241 0
-134 -2229 2242 0
-2230 2242 0
-134 -2230 2243 0
-2231 2243 0
-134 -2231 2244 0
-2232 2244 0
-134 -2232 2245 0
-2233 2245 0
-134 -2233 2246 0
-2234 2246 0
-134 -2234 2247 0
-2235 2247 0
-134 -2235 2248 0
-2236 2248 0
-134 -2236 2249 0
-2237 2249 0
-134 -2237 2250 0
-2238 2250 0
-134 -2238 0
-135 2251 0
-2239 2251 0
-135 -2239 2252 0
-2240 2252 0
-135 -2240 2253 0
-2241 2253 0
-135 -2241 2254 0
-2242 2254 0
-135 -2242 2255 0
-2243 2255 0
-135 -2243 2256 0
-2244 2256 0
-135 -2244 2257 0
-2245 2257 0
-135 -2245 2258 0
-2246 2258 0
-135 -2246 2259 0
-2247 2259 0
-135 -2247 2260 0
-2248 2260 0
-135 -2248 2261 0
-2249 2261 0
-135 -2249 2262 0
-2250 2262 0
-135 -2250 0
-136 2263 0
-2251 2263 0
-136 -2251 2264 0
-2252 2264 0
-136 -2252 2265 0
-2253 2265 0
-136 -2253 2266 0
-2254 2266 0
-136 -2254 2267 0
-2255 2267 0
-136 -2255 2268 0
-2256 2268 0
-136 -2256 2269 0
-2257 2269 0
-136 -2257 2270 0
-2258 2270 0
-136 -2258 2271 0
-2259 2271 0
-136 -2259 2272 0
-2260 2272 0
-136 -2260 2273 0
-2261 2273 0
-136 -2261 2274 0
-2262 2274 0
-136 -2262 0
-137 2275 0
-2263 2275 0
-137 -2263 2276 0
-2264 2276 0
-137 -2264 2277 0
-2265 2277 0
-137 -2265 2278 0
-2266 2278 0
-137 -2266 2279 0
-2267 2279 0
-137 -2267 2280 0
-2268 2280 0
-137 -2268 2281 0
-2269 2281 0
-137 -2269 2282 0
-2270 2282 0
-137 -2270 2283 0
-2271 2283 0
-137 -2271 2284 0
-2272 2284 0
-137 -2272 2285 0
-2273 2285 0
-137 -2273 2286 0
-2274 2286 0
-137 -2274 0
-138 2287 0
-2275 2287 0
-138 -2275 2288 0
-2276 2288 0
-138 -2276 2289 0
-2277 2289 0
-138 -2277 2290 0
-2278 2290 0
-138 -2278 2291 0
-2279 2291 0
-138 -2279 2292 0
-2280 2292 0
-138 -2280 2293 0
-2281 2293 0
-138 -2281 2294 0
-2282 2294 0
-138 -2282 2295 0
-2283 2295 0
-138 -2283 2296 0
-2284 2296 0
-138 -2284 2297 0
-2285 2297 0
-138 -2285 2298 0
-2286 2298 0
-138 -2286 0
-139 2299 0
-2287 2299 0
-139 -2287 2300 0
-2288 2300 0
-139 -2288 2301 0
-2289 2301 0
-139 -2289 2302 0
-2290 2302 0
-139 -2290 2303 0
-2291 2303 0
-139 -2291 2304 0
-2292 2304 0
-139 -2292 2305 0
-2293 2305 0
-139 -2293 2306 0
-2294 2306 0
-139 -2294 2307 0
-2295 2307 0
-139 -2295 2308 0
-2296 2308 0
-139 -2296 2309 0
-2297 2309 0
-139 -2297 2310 0
-2298 2310 0
-139 -2298 0
-140 2311 0
-2299 2311 0
-140 -2299 2312 0
-2300 2312 0
-140 -2300 2313 0
-2301 2313 0
-140 -2301 2314 0
-2302 2314 0
-140 -2302 2315 0
-2303 2315 0
-140 -2303 2316 0
-2304 2316 0
-140 -2304 2317 0
-2305 2317 0
-140 -2305 2318 0
-2306 2318 0
-140 -2306 2319 0
-2307 2319 0
-140 -2307 2320 0
-2308 2320 0
-140 -2308 2321 0
-2309 2321 0
-140 -2309 2322 0
-2310 2322 0
-140 -2310 0
-141 2323 0
-2311 2323 0
-141 -2311 2324 0
-2312 2324 0
-141 -2312 2325 0
-2313 2325 0
-141 -2313 2326 0
-2314 2326 0
-141 -2314 2327 0
-2315 2327 0
-141 -2315 2328 0
-2316 2328 0
-141 -2316 2329 0
-2317 2329 0
-141 -2317 2330 0
-2318 2330 0
-141 -2318 2331 0
-2319 2331 0
-141 -2319 2332 0
-2320 2332 0
-141 -2320 2333 0
-2321 2333 0
-141 -2321 2334 0
-2322 2334 0
-141 -2322 0
-142 2335 0
-2323 2335 0
-142 -2323 2336 0
-2324 2336 0
-142 -2324 2337 0
-2325 2337 0
-142 -2325 2338 0
-2326 2338 0
-142 -2326 2339 0
-2327 2339 0
-142 -2327 2340 0
-2328 2340 0
-142 -2328 2341 0
-2329 2341 0
-142 -2329 2342 0
-2330 2342 0
-142 -2330 2343 0
-2331 2343 0
-142 -2331 2344 0
-2332 2344 0
-142 -2332 2345 0
-2333 2345 0
-142 -2333 2346 0
-2334 2346 0
-142 -2334 0
-143 2347 0
-2335 2347 0
-143 -2335 2348 0
-2336 2348 0
-143 -2336 2349 0
-2337 2349 0
-143 -2337 2350 0
-2338 2350 0
-143 -2338 2351 0
-2339 2351 0
-143 -2339 2352 0
-2340 2352 0
-143 -2340 2353 0
-2341 2353 0
-143 -2341 2354 0
-2342 2354 0
-143 -2342 2355 0
-2343 2355 0
-143 -2343 2356 0
-2344 2356 0
-143 -2344 2357 0
-2345 2357 0
-143 -2345 2358 0
-2346 2358 0
-143 -2346 0
-144 -2358 0
