p cnf 2452 6004
-145 4 61 0
-145 -4 -61 0
145 -4 61 0
145 4 -61 0
-146 145 67 0
-146 -145 -67 0
146 -145 67 0
146 145 -67 0
-147 146 77 0
-147 -146 -77 0
147 -146 77 0
147 146 -77 0
-148 147 78 0
-148 -147 -78 0
148 -147 78 0
148 147 -78 0
-149 148 127 0
-149 -148 -127 0
149 -148 127 0
149 148 -127 0
-149 0
-150 5 62 0
-150 -5 -62 0
150 -5 62 0
150 5 -62 0
-151 150 68 0
-151 -150 -68 0
151 -150 68 0
151 150 -68 0
-152 151 73 0
-152 -151 -73 0
152 -151 73 0
152 151 -73 0
-153 152 78 0
-153 -152 -78 0
153 -152 78 0
153 152 -78 0
-154 153 128 0
-154 -153 -128 0
154 -153 128 0
154 153 -128 0
-154 0
-155 6 63 0
-155 -6 -63 0
155 -6 63 0
155 6 -63 0
-156 155 69 0
-156 -155 -69 0
156 -155 69 0
156 155 -69 0
-157 156 73 0
-157 -156 -73 0
157 -156 73 0
157 156 -73 0
-158 157 74 0
-158 -157 -74 0
158 -157 74 0
158 157 -74 0
-159 158 129 0
-159 -158 -129 0
159 -158 129 0
159 158 -129 0
-159 0
-160 1 64 0
-160 -1 -64 0
160 -1 64 0
160 1 -64 0
-161 160 70 0
-161 -160 -70 0
161 -160 70 0
161 160 -70 0
-162 161 74 0
-162 -161 -74 0
162 -161 74 0
162 161 -74 0
-163 162 75 0
-163 -162 -75 0
163 -162 75 0
163 162 -75 0
-164 163 130 0
-164 -163 -130 0
164 -163 130 0
164 163 -130 0
-164 0
-165 2 65 0
-165 -2 -65 0
165 -2 65 0
165 2 -65 0
-166 165 71 0
-166 -165 -71 0
166 -165 71 0
166 165 -71 0
-167 166 75 0
-167 -166 -75 0
167 -166 75 0
167 166 -75 0
-168 167 76 0
-168 -167 -76 0
168 -167 76 0
168 167 -76 0
-169 168 131 0
-169 -168 -131 0
169 -168 131 0
169 168 -131 0
-169 0
-170 3 66 0
-170 -3 -66 0
170 -3 66 0
170 3 -66 0
-171 170 72 0
-171 -170 -72 0
171 -170 72 0
171 170 -72 0
-172 171 76 0
-172 -171 -76 0
172 -171 76 0
172 171 -76 0
-173 172 77 0
-173 -172 -77 0
173 -172 77 0
173 172 -77 0
-174 173 132 0
-174 -173 -132 0
174 -173 132 0
174 173 -132 0
-174 0
-175 1 10 0
-175 -1 -10 0
175 -1 10 0
175 1 -10 0
-176 175 67 0
-176 -175 -67 0
176 -175 67 0
176 175 -67 0
-177 176 83 0
-177 -176 -83 0
177 -176 83 0
177 176 -83 0
-178 177 84 0
-178 -177 -84 0
178 -177 84 0
178 177 -84 0
-179 178 133 0
-179 -178 -133 0
179 -178 133 0
179 178 -133 0
-179 0
-180 2 11 0
-180 -2 -11 0
180 -2 11 0
180 2 -11 0
-181 180 68 0
-181 -180 -68 0
181 -180 68 0
181 180 -68 0
-182 181 79 0
-182 -181 -79 0
182 -181 79 0
182 181 -79 0
-183 182 84 0
-183 -182 -84 0
183 -182 84 0
183 182 -84 0
-184 183 134 0
-184 -183 -134 0
184 -183 134 0
184 183 -134 0
-184 0
-185 3 12 0
-185 -3 -12 0
185 -3 12 0
185 3 -12 0
-186 185 69 0
-186 -185 -69 0
186 -185 69 0
186 185 -69 0
-187 186 79 0
-187 -186 -79 0
187 -186 79 0
187 186 -79 0
-188 187 80 0
-188 -187 -80 0
188 -187 80 0
188 187 -80 0
-189 188 135 0
-189 -188 -135 0
189 -188 135 0
189 188 -135 0
-189 0
-190 4 7 0
-190 -4 -7 0
190 -4 7 0
190 4 -7 0
-191 190 70 0
-191 -190 -70 0
191 -190 70 0
191 190 -70 0
-192 191 80 0
-192 -191 -80 0
192 -191 80 0
192 191 -80 0
-193 192 81 0
-193 -192 -81 0
193 -192 81 0
193 192 -81 0
-194 193 136 0
-194 -193 -136 0
194 -193 136 0
194 193 -136 0
-194 0
-195 5 8 0
-195 -5 -8 0
195 -5 8 0
195 5 -8 0
-196 195 71 0
-196 -195 -71 0
196 -195 71 0
196 195 -71 0
-197 196 81 0
-197 -196 -81 0
197 -196 81 0
197 196 -81 0
-198 197 82 0
-198 -197 -82 0
198 -197 82 0
198 197 -82 0
-199 198 137 0
-199 -198 -137 0
199 -198 137 0
199 198 -137 0
-199 0
-200 6 9 0
-200 -6 -9 0
200 -6 9 0
200 6 -9 0
-201 200 72 0
-201 -200 -72 0
201 -200 72 0
201 200 -72 0
-202 201 82 0
-202 -201 -82 0
202 -201 82 0
202 201 -82 0
-203 202 83 0
-203 -202 -83 0
203 -202 83 0
203 202 -83 0
-204 203 138 0
-204 -203 -138 0
204 -203 138 0
204 203 -138 0
-204 0
-205 1 7 0
-205 -1 -7 0
205 -1 7 0
205 1 -7 0
-206 205 16 0
-206 -205 -16 0
206 -205 16 0
206 205 -16 0
-207 206 89 0
-207 -206 -89 0
207 -206 89 0
207 206 -89 0
-208 207 90 0
-208 -207 -90 0
208 -207 90 0
208 207 -90 0
-209 208 139 0
-209 -208 -139 0
209 -208 139 0
209 208 -139 0
-209 0
-210 2 8 0
-210 -2 -8 0
210 -2 8 0
210 2 -8 0
-211 210 17 0
-211 -210 -17 0
211 -210 17 0
211 210 -17 0
-212 211 85 0
-212 -211 -85 0
212 -211 85 0
212 211 -85 0
-213 212 90 0
-213 -212 -90 0
213 -212 90 0
213 212 -90 0
-214 213 140 0
-214 -213 -140 0
214 -213 140 0
214 213 -140 0
-214 0
-215 3 9 0
-215 -3 -9 0
215 -3 9 0
215 3 -9 0
-216 215 18 0
-216 -215 -18 0
216 -215 18 0
216 215 -18 0
-217 216 85 0
-217 -216 -85 0
217 -216 85 0
217 216 -85 0
-218 217 86 0
-218 -217 -86 0
218 -217 86 0
218 217 -86 0
-219 218 141 0
-219 -218 -141 0
219 -218 141 0
219 218 -141 0
-219 0
-220 4 10 0
-220 -4 -10 0
220 -4 10 0
220 4 -10 0
-221 220 13 0
-221 -220 -13 0
221 -220 13 0
221 220 -13 0
-222 221 86 0
-222 -221 -86 0
222 -221 86 0
222 221 -86 0
-223 222 87 0
-223 -222 -87 0
223 -222 87 0
223 222 -87 0
-224 223 142 0
-224 -223 -142 0
224 -223 142 0
224 223 -142 0
-224 0
-225 5 11 0
-225 -5 -11 0
225 -5 11 0
225 5 -11 0
-226 225 14 0
-226 -225 -14 0
226 -225 14 0
226 225 -14 0
-227 226 87 0
-227 -226 -87 0
227 -226 87 0
227 226 -87 0
-228 227 88 0
-228 -227 -88 0
228 -227 88 0
228 227 -88 0
-229 228 143 0
-229 -228 -143 0
229 -228 143 0
229 228 -143 0
-229 0
-230 6 12 0
-230 -6 -12 0
230 -6 12 0
230 6 -12 0
-231 230 15 0
-231 -230 -15 0
231 -230 15 0
231 230 -15 0
-232 231 88 0
-232 -231 -88 0
232 -231 88 0
232 231 -88 0
-233 232 89 0
-233 -232 -89 0
233 -232 89 0
233 232 -89 0
-234 233 144 0
-234 -233 -144 0
234 -233 144 0
234 233 -144 0
-234 0
-235 7 13 0
-235 -7 -13 0
235 -7 13 0
235 7 -13 0
-236 235 22 0
-236 -235 -22 0
236 -235 22 0
236 235 -22 0
-237 236 73 0
-237 -236 -73 0
237 -236 73 0
237 236 -73 0
-238 237 95 0
-238 -237 -95 0
238 -237 95 0
238 237 -95 0
-239 238 96 0
-239 -238 -96 0
239 -238 96 0
239 238 -96 0
-239 0
-240 8 14 0
-240 -8 -14 0
240 -8 14 0
240 8 -14 0
-241 240 23 0
-241 -240 -23 0
241 -240 23 0
241 240 -23 0
-242 241 74 0
-242 -241 -74 0
242 -241 74 0
242 241 -74 0
-243 242 91 0
-243 -242 -91 0
243 -242 91 0
243 242 -91 0
-244 243 96 0
-244 -243 -96 0
244 -243 96 0
244 243 -96 0
-244 0
-245 9 15 0
-245 -9 -15 0
245 -9 15 0
245 9 -15 0
-246 245 24 0
-246 -245 -24 0
246 -245 24 0
246 245 -24 0
-247 246 75 0
-247 -246 -75 0
247 -246 75 0
247 246 -75 0
-248 247 91 0
-248 -247 -91 0
248 -247 91 0
248 247 -91 0
-249 248 92 0
-249 -248 -92 0
249 -248 92 0
249 248 -92 0
-249 0
-250 10 16 0
-250 -10 -16 0
250 -10 16 0
250 10 -16 0
-251 250 19 0
-251 -250 -19 0
251 -250 19 0
251 250 -19 0
-252 251 76 0
-252 -251 -76 0
252 -251 76 0
252 251 -76 0
-253 252 92 0
-253 -252 -92 0
253 -252 92 0
253 252 -92 0
-254 253 93 0
-254 -253 -93 0
254 -253 93 0
254 253 -93 0
-254 0
-255 11 17 0
-255 -11 -17 0
255 -11 17 0
255 11 -17 0
-256 255 20 0
-256 -255 -20 0
256 -255 20 0
256 255 -20 0
-257 256 77 0
-257 -256 -77 0
257 -256 77 0
257 256 -77 0
-258 257 93 0
-258 -257 -93 0
258 -257 93 0
258 257 -93 0
-259 258 94 0
-259 -258 -94 0
259 -258 94 0
259 258 -94 0
-259 0
-260 12 18 0
-260 -12 -18 0
260 -12 18 0
260 12 -18 0
-261 260 21 0
-261 -260 -21 0
261 -260 21 0
261 260 -21 0
-262 261 78 0
-262 -261 -78 0
262 -261 78 0
262 261 -78 0
-263 262 94 0
-263 -262 -94 0
263 -262 94 0
263 262 -94 0
-264 263 95 0
-264 -263 -95 0
264 -263 95 0
264 263 -95 0
-264 0
-265 13 19 0
-265 -13 -19 0
265 -13 19 0
265 13 -19 0
-266 265 28 0
-266 -265 -28 0
266 -265 28 0
266 265 -28 0
-267 266 79 0
-267 -266 -79 0
267 -266 79 0
267 266 -79 0
-268 267 101 0
-268 -267 -101 0
268 -267 101 0
268 267 -101 0
-269 268 102 0
-269 -268 -102 0
269 -268 102 0
269 268 -102 0
-269 0
-270 14 20 0
-270 -14 -20 0
270 -14 20 0
270 14 -20 0
-271 270 29 0
-271 -270 -29 0
271 -270 29 0
271 270 -29 0
-272 271 80 0
-272 -271 -80 0
272 -271 80 0
272 271 -80 0
-273 272 97 0
-273 -272 -97 0
273 -272 97 0
273 272 -97 0
-274 273 102 0
-274 -273 -102 0
274 -273 102 0
274 273 -102 0
-274 0
-275 15 21 0
-275 -15 -21 0
275 -15 21 0
275 15 -21 0
-276 275 30 0
-276 -275 -30 0
276 -275 30 0
276 275 -30 0
-277 276 81 0
-277 -276 -81 0
277 -276 81 0
277 276 -81 0
-278 277 97 0
-278 -277 -97 0
278 -277 97 0
278 277 -97 0
-279 278 98 0
-279 -278 -98 0
279 -278 98 0
279 278 -98 0
-279 0
-280 16 22 0
-280 -16 -22 0
280 -16 22 0
280 16 -22 0
-281 280 25 0
-281 -280 -25 0
281 -280 25 0
281 280 -25 0
-282 281 82 0
-282 -281 -82 0
282 -281 82 0
282 281 -82 0
-283 282 98 0
-283 -282 -98 0
283 -282 98 0
283 282 -98 0
-284 283 99 0
-284 -283 -99 0
284 -283 99 0
284 283 -99 0
-284 0
-285 17 23 0
-285 -17 -23 0
285 -17 23 0
285 17 -23 0
-286 285 26 0
-286 -285 -26 0
286 -285 26 0
286 285 -26 0
-287 286 83 0
-287 -286 -83 0
287 -286 83 0
287 286 -83 0
-288 287 99 0
-288 -287 -99 0
288 -287 99 0
288 287 -99 0
-289 288 100 0
-289 -288 -100 0
289 -288 100 0
289 288 -100 0
-289 0
-290 18 24 0
-290 -18 -24 0
290 -18 24 0
290 18 -24 0
-291 290 27 0
-291 -290 -27 0
291 -290 27 0
291 290 -27 0
-292 291 84 0
-292 -291 -84 0
292 -291 84 0
292 291 -84 0
-293 292 100 0
-293 -292 -100 0
293 -292 100 0
293 292 -100 0
-294 293 101 0
-294 -293 -101 0
294 -293 101 0
294 293 -101 0
-294 0
-295 19 25 0
-295 -19 -25 0
295 -19 25 0
295 19 -25 0
-296 295 34 0
-296 -295 -34 0
296 -295 34 0
296 295 -34 0
-297 296 85 0
-297 -296 -85 0
297 -296 85 0
297 296 -85 0
-298 297 107 0
-298 -297 -107 0
298 -297 107 0
298 297 -107 0
-299 298 108 0
-299 -298 -108 0
299 -298 108 0
299 298 -108 0
-299 0
-300 20 26 0
-300 -20 -26 0
300 -20 26 0
300 20 -26 0
-301 300 35 0
-301 -300 -35 0
301 -300 35 0
301 300 -35 0
-302 301 86 0
-302 -301 -86 0
302 -301 86 0
302 301 -86 0
-303 302 103 0
-303 -302 -103 0
303 -302 103 0
303 302 -103 0
-304 303 108 0
-304 -303 -108 0
304 -303 108 0
304 303 -108 0
-304 0
-305 21 27 0
-305 -21 -27 0
305 -21 27 0
305 21 -27 0
-306 305 36 0
-306 -305 -36 0
306 -305 36 0
306 305 -36 0
-307 306 87 0
-307 -306 -87 0
307 -306 87 0
307 306 -87 0
-308 307 103 0
-308 -307 -103 0
308 -307 103 0
308 307 -103 0
-309 308 104 0
-309 -308 -104 0
309 -308 104 0
309 308 -104 0
-309 0
-310 22 28 0
-310 -22 -28 0
310 -22 28 0
310 22 -28 0
-311 310 31 0
-311 -310 -31 0
311 -310 31 0
311 310 -31 0
-312 311 88 0
-312 -311 -88 0
312 -311 88 0
312 311 -88 0
-313 312 104 0
-313 -312 -104 0
313 -312 104 0
313 312 -104 0
-314 313 105 0
-314 -313 -105 0
314 -313 105 0
314 313 -105 0
-314 0
-315 23 29 0
-315 -23 -29 0
315 -23 29 0
315 23 -29 0
-316 315 32 0
-316 -315 -32 0
316 -315 32 0
316 315 -32 0
-317 316 89 0
-317 -316 -89 0
317 -316 89 0
317 316 -89 0
-318 317 105 0
-318 -317 -105 0
318 -317 105 0
318 317 -105 0
-319 318 106 0
-319 -318 -106 0
319 -318 106 0
319 318 -106 0
-319 0
-320 24 30 0
-320 -24 -30 0
320 -24 30 0
320 24 -30 0
-321 320 33 0
-321 -320 -33 0
321 -320 33 0
321 320 -33 0
-322 321 90 0
-322 -321 -90 0
322 -321 90 0
322 321 -90 0
-323 322 106 0
-323 -322 -106 0
323 -322 106 0
323 322 -106 0
-324 323 107 0
-324 -323 -107 0
324 -323 107 0
324 323 -107 0
-324 0
-325 25 31 0
-325 -25 -31 0
325 -25 31 0
325 25 -31 0
-326 325 40 0
-326 -325 -40 0
326 -325 40 0
326 325 -40 0
-327 326 91 0
-327 -326 -91 0
327 -326 91 0
327 326 -91 0
-328 327 113 0
-328 -327 -113 0
328 -327 113 0
328 327 -113 0
-329 328 114 0
-329 -328 -114 0
329 -328 114 0
329 328 -114 0
-329 0
-330 26 32 0
-330 -26 -32 0
330 -26 32 0
330 26 -32 0
-331 330 41 0
-331 -330 -41 0
331 -330 41 0
331 330 -41 0
-332 331 92 0
-332 -331 -92 0
332 -331 92 0
332 331 -92 0
-333 332 109 0
-333 -332 -109 0
333 -332 109 0
333 332 -109 0
-334 333 114 0
-334 -333 -114 0
334 -333 114 0
334 333 -114 0
-334 0
-335 27 33 0
-335 -27 -33 0
335 -27 33 0
335 27 -33 0
-336 335 42 0
-336 -335 -42 0
336 -335 42 0
336 335 -42 0
-337 336 93 0
-337 -336 -93 0
337 -336 93 0
337 336 -93 0
-338 337 109 0
-338 -337 -109 0
338 -337 109 0
338 337 -109 0
-339 338 110 0
-339 -338 -110 0
339 -338 110 0
339 338 -110 0
-339 0
-340 28 34 0
-340 -28 -34 0
340 -28 34 0
340 28 -34 0
-341 340 37 0
-341 -340 -37 0
341 -340 37 0
341 340 -37 0
-342 341 94 0
-342 -341 -94 0
342 -341 94 0
342 341 -94 0
-343 342 110 0
-343 -342 -110 0
343 -342 110 0
343 342 -110 0
-344 343 111 0
-344 -343 -111 0
344 -343 111 0
344 343 -111 0
-344 0
-345 29 35 0
-345 -29 -35 0
345 -29 35 0
345 29 -35 0
-346 345 38 0
-346 -345 -38 0
346 -345 38 0
346 345 -38 0
-347 346 95 0
-347 -346 -95 0
347 -346 95 0
347 346 -95 0
-348 347 111 0
-348 -347 -111 0
348 -347 111 0
348 347 -111 0
-349 348 112 0
-349 -348 -112 0
349 -348 112 0
349 348 -112 0
-349 0
-350 30 36 0
-350 -30 -36 0
350 -30 36 0
350 30 -36 0
-351 350 39 0
-351 -350 -39 0
351 -350 39 0
351 350 -39 0
-352 351 96 0
-352 -351 -96 0
352 -351 96 0
352 351 -96 0
-353 352 112 0
-353 -352 -112 0
353 -352 112 0
353 352 -112 0
-354 353 113 0
-354 -353 -113 0
354 -353 113 0
354 353 -113 0
-354 0
-355 31 37 0
-355 -31 -37 0
355 -31 37 0
355 31 -37 0
-356 355 46 0
-356 -355 -46 0
356 -355 46 0
356 355 -46 0
-357 356 97 0
-357 -356 -97 0
357 -356 97 0
357 356 -97 0
-358 357 119 0
-358 -357 -119 0
358 -357 119 0
358 357 -119 0
-359 358 120 0
-359 -358 -120 0
359 -358 120 0
359 358 -120 0
-359 0
-360 32 38 0
-360 -32 -38 0
360 -32 38 0
360 32 -38 0
-361 360 47 0
-361 -360 -47 0
361 -360 47 0
361 360 -47 0
-362 361 98 0
-362 -361 -98 0
362 -361 98 0
362 361 -98 0
-363 362 115 0
-363 -362 -115 0
363 -362 115 0
363 362 -115 0
-364 363 120 0
-364 -363 -120 0
364 -363 120 0
364 363 -120 0
-364 0
-365 33 39 0
-365 -33 -39 0
365 -33 39 0
365 33 -39 0
-366 365 48 0
-366 -365 -48 0
366 -365 48 0
366 365 -48 0
-367 366 99 0
-367 -366 -99 0
367 -366 99 0
367 366 -99 0
-368 367 115 0
-368 -367 -115 0
368 -367 115 0
368 367 -115 0
-369 368 116 0
-369 -368 -116 0
369 -368 116 0
369 368 -116 0
-369 0
-370 34 40 0
-370 -34 -40 0
370 -34 40 0
370 34 -40 0
-371 370 43 0
-371 -370 -43 0
371 -370 43 0
371 370 -43 0
-372 371 100 0
-372 -371 -100 0
372 -371 100 0
372 371 -100 0
-373 372 116 0
-373 -372 -116 0
373 -372 116 0
373 372 -116 0
-374 373 117 0
-374 -373 -117 0
374 -373 117 0
374 373 -117 0
-374 0
-375 35 41 0
-375 -35 -41 0
375 -35 41 0
375 35 -41 0
-376 375 44 0
-376 -375 -44 0
376 -375 44 0
376 375 -44 0
-377 376 101 0
-377 -376 -101 0
377 -376 101 0
377 376 -101 0
-378 377 117 0
-378 -377 -117 0
378 -377 117 0
378 377 -117 0
-379 378 118 0
-379 -378 -118 0
379 -378 118 0
379 378 -118 0
-379 0
-380 36 42 0
-380 -36 -42 0
380 -36 42 0
380 36 -42 0
-381 380 45 0
-381 -380 -45 0
381 -380 45 0
381 380 -45 0
-382 381 102 0
-382 -381 -102 0
382 -381 102 0
382 381 -102 0
-383 382 118 0
-383 -382 -118 0
383 -382 118 0
383 382 -118 0
-384 383 119 0
-384 -383 -119 0
384 -383 119 0
384 383 -119 0
-384 0
-385 37 43 0
-385 -37 -43 0
385 -37 43 0
385 37 -43 0
-386 385 52 0
-386 -385 -52 0
386 -385 52 0
386 385 -52 0
-387 386 103 0
-387 -386 -103 0
387 -386 103 0
387 386 -103 0
-388 387 125 0
-388 -387 -125 0
388 -387 125 0
388 387 -125 0
-389 388 126 0
-389 -388 -126 0
389 -388 126 0
389 388 -126 0
-389 0
-390 38 44 0
-390 -38 -44 0
390 -38 44 0
390 38 -44 0
-391 390 53 0
-391 -390 -53 0
391 -390 53 0
391 390 -53 0
-392 391 104 0
-392 -391 -104 0
392 -391 104 0
392 391 -104 0
-393 392 121 0
-393 -392 -121 0
393 -392 121 0
393 392 -121 0
-394 393 126 0
-394 -393 -126 0
394 -393 126 0
394 393 -126 0
-394 0
-395 39 45 0
-395 -39 -45 0
395 -39 45 0
395 39 -45 0
-396 395 54 0
-396 -395 -54 0
396 -395 54 0
396 395 -54 0
-397 396 105 0
-397 -396 -105 0
397 -396 105 0
397 396 -105 0
-398 397 121 0
-398 -397 -121 0
398 -397 121 0
398 397 -121 0
-399 398 122 0
-399 -398 -122 0
399 -398 122 0
399 398 -122 0
-399 0
-400 40 46 0
-400 -40 -46 0
400 -40 46 0
400 40 -46 0
-401 400 49 0
-401 -400 -49 0
401 -400 49 0
401 400 -49 0
-402 401 106 0
-402 -401 -106 0
402 -401 106 0
402 401 -106 0
-403 402 122 0
-403 -402 -122 0
403 -402 122 0
403 402 -122 0
-404 403 123 0
-404 -403 -123 0
404 -403 123 0
404 403 -123 0
-404 0
-405 41 47 0
-405 -41 -47 0
405 -41 47 0
405 41 -47 0
-406 405 50 0
-406 -405 -50 0
406 -405 50 0
406 405 -50 0
-407 406 107 0
-407 -406 -107 0
407 -406 107 0
407 406 -107 0
-408 407 123 0
-408 -407 -123 0
408 -407 123 0
408 407 -123 0
-409 408 124 0
-409 -408 -124 0
409 -408 124 0
409 408 -124 0
-409 0
-410 42 48 0
-410 -42 -48 0
410 -42 48 0
410 42 -48 0
-411 410 51 0
-411 -410 -51 0
411 -410 51 0
411 410 -51 0
-412 411 108 0
-412 -411 -108 0
412 -411 108 0
412 411 -108 0
-413 412 124 0
-413 -412 -124 0
413 -412 124 0
413 412 -124 0
-414 413 125 0
-414 -413 -125 0
414 -413 125 0
414 413 -125 0
-414 0
-415 43 49 0
-415 -43 -49 0
415 -43 49 0
415 43 -49 0
-416 415 58 0
-416 -415 -58 0
416 -415 58 0
416 415 -58 0
-417 416 109 0
-417 -416 -109 0
417 -416 109 0
417 416 -109 0
-418 417 131 0
-418 -417 -131 0
418 -417 131 0
418 417 -131 0
-419 418 132 0
-419 -418 -132 0
419 -418 132 0
419 418 -132 0
-419 0
-420 44 50 0
-420 -44 -50 0
420 -44 50 0
420 44 -50 0
-421 420 59 0
-421 -420 -59 0
421 -420 59 0
421 420 -59 0
-422 421 110 0
-422 -421 -110 0
422 -421 110 0
422 421 -110 0
-423 422 127 0
-423 -422 -127 0
423 -422 127 0
423 422 -127 0
-424 423 132 0
-424 -423 -132 0
424 -423 132 0
424 423 -132 0
-424 0
-425 45 51 0
-425 -45 -51 0
425 -45 51 0
425 45 -51 0
-426 425 60 0
-426 -425 -60 0
426 -425 60 0
426 425 -60 0
-427 426 111 0
-427 -426 -111 0
427 -426 111 0
427 426 -111 0
-428 427 127 0
-428 -427 -127 0
428 -427 127 0
428 427 -127 0
-429 428 128 0
-429 -428 -128 0
429 -428 128 0
429 428 -128 0
-429 0
-430 46 52 0
-430 -46 -52 0
430 -46 52 0
430 46 -52 0
-431 430 55 0
-431 -430 -55 0
431 -430 55 0
431 430 -55 0
-432 431 112 0
-432 -431 -112 0
432 -431 112 0
432 431 -112 0
-433 432 128 0
-433 -432 -128 0
433 -432 128 0
433 432 -128 0
-434 433 129 0
-434 -433 -129 0
434 -433 129 0
434 433 -129 0
-434 0
-435 47 53 0
-435 -47 -53 0
435 -47 53 0
435 47 -53 0
-436 435 56 0
-436 -435 -56 0
436 -435 56 0
436 435 -56 0
-437 436 113 0
-437 -436 -113 0
437 -436 113 0
437 436 -113 0
-438 437 129 0
-438 -437 -129 0
438 -437 129 0
438 437 -129 0
-439 438 130 0
-439 -438 -130 0
439 -438 130 0
439 438 -130 0
-439 0
-440 48 54 0
-440 -48 -54 0
440 -48 54 0
440 48 -54 0
-441 440 57 0
-441 -440 -57 0
441 -440 57 0
441 440 -57 0
-442 441 114 0
-442 -441 -114 0
442 -441 114 0
442 441 -114 0
-443 442 130 0
-443 -442 -130 0
443 -442 130 0
443 442 -130 0
-444 443 131 0
-444 -443 -131 0
444 -443 131 0
444 443 -131 0
-444 0
-445 49 55 0
-445 -49 -55 0
445 -49 55 0
445 49 -55 0
-446 445 64 0
-446 -445 -64 0
446 -445 64 0
446 445 -64 0
-447 446 115 0
-447 -446 -115 0
447 -446 115 0
447 446 -115 0
-448 447 137 0
-448 -447 -137 0
448 -447 137 0
448 447 -137 0
-449 448 138 0
-449 -448 -138 0
449 -448 138 0
449 448 -138 0
-449 0
-450 50 56 0
-450 -50 -56 0
450 -50 56 0
450 50 -56 0
-451 450 65 0
-451 -450 -65 0
451 -450 65 0
451 450 -65 0
-452 451 116 0
-452 -451 -116 0
452 -451 116 0
452 451 -116 0
-453 452 133 0
-453 -452 -133 0
453 -452 133 0
453 452 -133 0
-454 453 138 0
-454 -453 -138 0
454 -453 138 0
454 453 -138 0
-454 0
-455 51 57 0
-455 -51 -57 0
455 -51 57 0
455 51 -57 0
-456 455 66 0
-456 -455 -66 0
456 -455 66 0
456 455 -66 0
-457 456 117 0
-457 -456 -117 0
457 -456 117 0
457 456 -117 0
-458 457 133 0
-458 -457 -133 0
458 -457 133 0
458 457 -133 0
-459 458 134 0
-459 -458 -134 0
459 -458 134 0
459 458 -134 0
-459 0
-460 52 58 0
-460 -52 -58 0
460 -52 58 0
460 52 -58 0
-461 460 61 0
-461 -460 -61 0
461 -460 61 0
461 460 -61 0
-462 461 118 0
-462 -461 -118 0
462 -461 118 0
462 461 -118 0
-463 462 134 0
-463 -462 -134 0
463 -462 134 0
463 462 -134 0
-464 463 135 0
-464 -463 -135 0
464 -463 135 0
464 463 -135 0
-464 0
-465 53 59 0
-465 -53 -59 0
465 -53 59 0
465 53 -59 0
-466 465 62 0
-466 -465 -62 0
466 -465 62 0
466 465 -62 0
-467 466 119 0
-467 -466 -119 0
467 -466 119 0
467 466 -119 0
-468 467 135 0
-468 -467 -135 0
468 -467 135 0
468 467 -135 0
-469 468 136 0
-469 -468 -136 0
469 -468 136 0
469 468 -136 0
-469 0
-470 54 60 0
-470 -54 -60 0
470 -54 60 0
470 54 -60 0
-471 470 63 0
-471 -470 -63 0
471 -470 63 0
471 470 -63 0
-472 471 120 0
-472 -471 -120 0
472 -471 120 0
472 471 -120 0
-473 472 136 0
-473 -472 -136 0
473 -472 136 0
473 472 -136 0
-474 473 137 0
-474 -473 -137 0
474 -473 137 0
474 473 -137 0
-474 0
-475 55 61 0
-475 -55 -61 0
475 -55 61 0
475 55 -61 0
-476 475 70 0
-476 -475 -70 0
476 -475 70 0
476 475 -70 0
-477 476 121 0
-477 -476 -121 0
477 -476 121 0
477 476 -121 0
-478 477 143 0
-478 -477 -143 0
478 -477 143 0
478 477 -143 0
-479 478 144 0
-479 -478 -144 0
479 -478 144 0
479 478 -144 0
-479 0
-480 56 62 0
-480 -56 -62 0
480 -56 62 0
480 56 -62 0
-481 480 71 0
-481 -480 -71 0
481 -480 71 0
481 480 -71 0
-482 481 122 0
-482 -481 -122 0
482 -481 122 0
482 481 -122 0
-483 482 139 0
-483 -482 -139 0
483 -482 139 0
483 482 -139 0
-484 483 144 0
-484 -483 -144 0
484 -483 144 0
484 483 -144 0
-484 0
-485 57 63 0
-485 -57 -63 0
485 -57 63 0
485 57 -63 0
-486 485 72 0
-486 -485 -72 0
486 -485 72 0
486 485 -72 0
-487 486 123 0
-487 -486 -123 0
487 -486 123 0
487 486 -123 0
-488 487 139 0
-488 -487 -139 0
488 -487 139 0
488 487 -139 0
-489 488 140 0
-489 -488 -140 0
489 -488 140 0
489 488 -140 0
-489 0
-490 58 64 0
-490 -58 -64 0
490 -58 64 0
490 58 -64 0
-491 490 67 0
-491 -490 -67 0
491 -490 67 0
491 490 -67 0
-492 491 124 0
-492 -491 -124 0
492 -491 124 0
492 491 -124 0
-493 492 140 0
-493 -492 -140 0
493 -492 140 0
493 492 -140 0
-494 493 141 0
-494 -493 -141 0
494 -493 141 0
494 493 -141 0
-494 0
-495 59 65 0
-495 -59 -65 0
495 -59 65 0
495 59 -65 0
-496 495 68 0
-496 -495 -68 0
496 -495 68 0
496 495 -68 0
-497 496 125 0
-497 -496 -125 0
497 -496 125 0
497 496 -125 0
-498 497 141 0
-498 -497 -141 0
498 -497 141 0
498 497 -141 0
-499 498 142 0
-499 -498 -142 0
499 -498 142 0
499 498 -142 0
-499 0
-500 60 66 0
-500 -60 -66 0
500 -60 66 0
500 60 -66 0
-501 500 69 0
-501 -500 -69 0
501 -500 69 0
501 500 -69 0
-502 501 126 0
-502 -501 -126 0
502 -501 126 0
502 501 -126 0
-503 502 142 0
-503 -502 -142 0
503 -502 142 0
503 502 -142 0
-504 503 143 0
-504 -503 -143 0
504 -503 143 0
504 503 -143 0
-504 0
-505 1 2 0
-505 -1 -2 0
505 -1 2 0
505 1 -2 0
-506 505 5 0
-506 -505 -5 0
506 -505 5 0
506 505 -5 0
-507 506 6 0
-507 -506 -6 0
507 -506 6 0
507 506 -6 0
-508 507 19 0
-508 -507 -19 0
508 -507 19 0
508 507 -19 0
-509 508 21 0
-509 -508 -21 0
509 -508 21 0
509 508 -21 0
-510 509 37 0
-510 -509 -37 0
510 -509 37 0
510 509 -37 0
-511 510 38 0
-511 -510 -38 0
511 -510 38 0
511 510 -38 0
-512 511 41 0
-512 -511 -41 0
512 -511 41 0
512 511 -41 0
-513 512 42 0
-513 -512 -42 0
513 -512 42 0
513 512 -42 0
-514 513 55 0
-514 -513 -55 0
514 -513 55 0
514 513 -55 0
-515 514 57 0
-515 -514 -57 0
515 -514 57 0
515 514 -57 0
-516 1 2 0
-516 -1 -2 0
516 -1 2 0
516 1 -2 0
-517 516 3 0
-517 -516 -3 0
517 -516 3 0
517 516 -3 0
-518 517 6 0
-518 -517 -6 0
518 -517 6 0
518 517 -6 0
-519 518 20 0
-519 -518 -20 0
519 -518 20 0
519 518 -20 0
-520 519 22 0
-520 -519 -22 0
520 -519 22 0
520 519 -22 0
-521 520 37 0
-521 -520 -37 0
521 -520 37 0
521 520 -37 0
-522 521 38 0
-522 -521 -38 0
522 -521 38 0
522 521 -38 0
-523 522 39 0
-523 -522 -39 0
523 -522 39 0
523 522 -39 0
-524 523 42 0
-524 -523 -42 0
524 -523 42 0
524 523 -42 0
-525 524 56 0
-525 -524 -56 0
525 -524 56 0
525 524 -56 0
-526 525 58 0
-526 -525 -58 0
526 -525 58 0
526 525 -58 0
-527 3 4 0
-527 -3 -4 0
527 -3 4 0
527 3 -4 0
-528 527 5 0
-528 -527 -5 0
528 -527 5 0
528 527 -5 0
-529 528 6 0
-529 -528 -6 0
529 -528 6 0
529 528 -6 0
-530 529 19 0
-530 -529 -19 0
530 -529 19 0
530 529 -19 0
-531 530 23 0
-531 -530 -23 0
531 -530 23 0
531 530 -23 0
-532 531 39 0
-532 -531 -39 0
532 -531 39 0
532 531 -39 0
-533 532 40 0
-533 -532 -40 0
533 -532 40 0
533 532 -40 0
-534 533 41 0
-534 -533 -41 0
534 -533 41 0
534 533 -41 0
-535 534 42 0
-535 -534 -42 0
535 -534 42 0
535 534 -42 0
-536 535 55 0
-536 -535 -55 0
536 -535 55 0
536 535 -55 0
-537 536 59 0
-537 -536 -59 0
537 -536 59 0
537 536 -59 0
-538 1 4 0
-538 -1 -4 0
538 -1 4 0
538 1 -4 0
-539 538 5 0
-539 -538 -5 0
539 -538 5 0
539 538 -5 0
-540 539 6 0
-540 -539 -6 0
540 -539 6 0
540 539 -6 0
-541 540 20 0
-541 -540 -20 0
541 -540 20 0
541 540 -20 0
-542 541 24 0
-542 -541 -24 0
542 -541 24 0
542 541 -24 0
-543 542 37 0
-543 -542 -37 0
543 -542 37 0
543 542 -37 0
-544 543 40 0
-544 -543 -40 0
544 -543 40 0
544 543 -40 0
-545 544 41 0
-545 -544 -41 0
545 -544 41 0
545 544 -41 0
-546 545 42 0
-546 -545 -42 0
546 -545 42 0
546 545 -42 0
-547 546 56 0
-547 -546 -56 0
547 -546 56 0
547 546 -56 0
-548 547 60 0
-548 -547 -60 0
548 -547 60 0
548 547 -60 0
-549 7 8 0
-549 -7 -8 0
549 -7 8 0
549 7 -8 0
-550 549 11 0
-550 -549 -11 0
550 -549 11 0
550 549 -11 0
-551 550 12 0
-551 -550 -12 0
551 -550 12 0
551 550 -12 0
-552 551 25 0
-552 -551 -25 0
552 -551 25 0
552 551 -25 0
-553 552 27 0
-553 -552 -27 0
553 -552 27 0
553 552 -27 0
-554 553 43 0
-554 -553 -43 0
554 -553 43 0
554 553 -43 0
-555 554 44 0
-555 -554 -44 0
555 -554 44 0
555 554 -44 0
-556 555 47 0
-556 -555 -47 0
556 -555 47 0
556 555 -47 0
-557 556 48 0
-557 -556 -48 0
557 -556 48 0
557 556 -48 0
-558 557 61 0
-558 -557 -61 0
558 -557 61 0
558 557 -61 0
-559 558 63 0
-559 -558 -63 0
559 -558 63 0
559 558 -63 0
-560 7 8 0
-560 -7 -8 0
560 -7 8 0
560 7 -8 0
-561 560 9 0
-561 -560 -9 0
561 -560 9 0
561 560 -9 0
-562 561 12 0
-562 -561 -12 0
562 -561 12 0
562 561 -12 0
-563 562 26 0
-563 -562 -26 0
563 -562 26 0
563 562 -26 0
-564 563 28 0
-564 -563 -28 0
564 -563 28 0
564 563 -28 0
-565 564 43 0
-565 -564 -43 0
565 -564 43 0
565 564 -43 0
-566 565 44 0
-566 -565 -44 0
566 -565 44 0
566 565 -44 0
-567 566 45 0
-567 -566 -45 0
567 -566 45 0
567 566 -45 0
-568 567 48 0
-568 -567 -48 0
568 -567 48 0
568 567 -48 0
-569 568 62 0
-569 -568 -62 0
569 -568 62 0
569 568 -62 0
-570 569 64 0
-570 -569 -64 0
570 -569 64 0
570 569 -64 0
-571 7 8 0
-571 -7 -8 0
571 -7 8 0
571 7 -8 0
-572 571 9 0
-572 -571 -9 0
572 -571 9 0
572 571 -9 0
-573 572 19 0
-573 -572 -19 0
573 -572 19 0
573 572 -19 0
-574 573 20 0
-574 -573 -20 0
574 -573 20 0
574 573 -20 0
-575 574 21 0
-575 -574 -21 0
575 -574 21 0
575 574 -21 0
-576 575 22 0
-576 -575 -22 0
576 -575 22 0
576 575 -22 0
-577 576 23 0
-577 -576 -23 0
577 -576 23 0
577 576 -23 0
-578 577 24 0
-578 -577 -24 0
578 -577 24 0
578 577 -24 0
-579 578 26 0
-579 -578 -26 0
579 -578 26 0
579 578 -26 0
-580 579 28 0
-580 -579 -28 0
580 -579 28 0
580 579 -28 0
-581 580 30 0
-581 -580 -30 0
581 -580 30 0
581 580 -30 0
-582 581 43 0
-582 -581 -43 0
582 -581 43 0
582 581 -43 0
-583 582 44 0
-583 -582 -44 0
583 -582 44 0
583 582 -44 0
-584 583 45 0
-584 -583 -45 0
584 -583 45 0
584 583 -45 0
-585 584 46 0
-585 -584 -46 0
585 -584 46 0
585 584 -46 0
-586 585 47 0
-586 -585 -47 0
586 -585 47 0
586 585 -47 0
-587 586 48 0
-587 -586 -48 0
587 -586 48 0
587 586 -48 0
-588 587 73 0
-588 -587 -73 0
588 -587 73 0
588 587 -73 0
-589 588 74 0
-589 -588 -74 0
589 -588 74 0
589 588 -74 0
-590 589 75 0
-590 -589 -75 0
590 -589 75 0
590 589 -75 0
-591 590 79 0
-591 -590 -79 0
591 -590 79 0
591 590 -79 0
-592 591 80 0
-592 -591 -80 0
592 -591 80 0
592 591 -80 0
-593 592 81 0
-593 -592 -81 0
593 -592 81 0
593 592 -81 0
-594 7 10 0
-594 -7 -10 0
594 -7 10 0
594 7 -10 0
-595 594 25 0
-595 -594 -25 0
595 -594 25 0
595 594 -25 0
-596 595 26 0
-596 -595 -26 0
596 -595 26 0
596 595 -26 0
-597 596 27 0
-597 -596 -27 0
597 -596 27 0
597 596 -27 0
-598 597 28 0
-598 -597 -28 0
598 -597 28 0
598 597 -28 0
-599 598 29 0
-599 -598 -29 0
599 -598 29 0
599 598 -29 0
-600 599 30 0
-600 -599 -30 0
600 -599 30 0
600 599 -30 0
-601 600 73 0
-601 -600 -73 0
601 -600 73 0
601 600 -73 0
-602 601 76 0
-602 -601 -76 0
602 -601 76 0
602 601 -76 0
-603 602 79 0
-603 -602 -79 0
603 -602 79 0
603 602 -79 0
-604 603 82 0
-604 -603 -82 0
604 -603 82 0
604 603 -82 0
-605 7 9 0
-605 -7 -9 0
605 -7 9 0
605 7 -9 0
-606 605 14 0
-606 -605 -14 0
606 -605 14 0
606 605 -14 0
-607 606 15 0
-607 -606 -15 0
607 -606 15 0
607 606 -15 0
-608 607 20 0
-608 -607 -20 0
608 -607 20 0
608 607 -20 0
-609 608 22 0
-609 -608 -22 0
609 -608 22 0
609 608 -22 0
-610 609 24 0
-610 -609 -24 0
610 -609 24 0
610 609 -24 0
-611 610 26 0
-611 -610 -26 0
611 -610 26 0
611 610 -26 0
-612 611 28 0
-612 -611 -28 0
612 -611 28 0
612 611 -28 0
-613 612 30 0
-613 -612 -30 0
613 -612 30 0
613 612 -30 0
-614 613 32 0
-614 -613 -32 0
614 -613 32 0
614 613 -32 0
-615 614 34 0
-615 -614 -34 0
615 -614 34 0
615 614 -34 0
-616 615 36 0
-616 -615 -36 0
616 -615 36 0
616 615 -36 0
-617 616 37 0
-617 -616 -37 0
617 -616 37 0
617 616 -37 0
-618 617 38 0
-618 -617 -38 0
618 -617 38 0
618 617 -38 0
-619 618 39 0
-619 -618 -39 0
619 -618 39 0
619 618 -39 0
-620 619 40 0
-620 -619 -40 0
620 -619 40 0
620 619 -40 0
-621 620 41 0
-621 -620 -41 0
621 -620 41 0
621 620 -41 0
-622 621 42 0
-622 -621 -42 0
622 -621 42 0
622 621 -42 0
-623 622 43 0
-623 -622 -43 0
623 -622 43 0
623 622 -43 0
-624 623 44 0
-624 -623 -44 0
624 -623 44 0
624 623 -44 0
-625 624 45 0
-625 -624 -45 0
625 -624 45 0
625 624 -45 0
-626 625 46 0
-626 -625 -46 0
626 -625 46 0
626 625 -46 0
-627 626 47 0
-627 -626 -47 0
627 -626 47 0
627 626 -47 0
-628 627 48 0
-628 -627 -48 0
628 -627 48 0
628 627 -48 0
-629 628 49 0
-629 -628 -49 0
629 -628 49 0
629 628 -49 0
-630 629 50 0
-630 -629 -50 0
630 -629 50 0
630 629 -50 0
-631 630 51 0
-631 -630 -51 0
631 -630 51 0
631 630 -51 0
-632 631 52 0
-632 -631 -52 0
632 -631 52 0
632 631 -52 0
-633 632 53 0
-633 -632 -53 0
633 -632 53 0
633 632 -53 0
-634 633 54 0
-634 -633 -54 0
634 -633 54 0
634 633 -54 0
-635 634 73 0
-635 -634 -73 0
635 -634 73 0
635 634 -73 0
-636 635 75 0
-636 -635 -75 0
636 -635 75 0
636 635 -75 0
-637 636 79 0
-637 -636 -79 0
637 -636 79 0
637 636 -79 0
-638 637 80 0
-638 -637 -80 0
638 -637 80 0
638 637 -80 0
-639 638 85 0
-639 -638 -85 0
639 -638 85 0
639 638 -85 0
-640 7 9 0
-640 -7 -9 0
640 -7 9 0
640 7 -9 0
-641 640 10 0
-641 -640 -10 0
641 -640 10 0
641 640 -10 0
-642 641 15 0
-642 -641 -15 0
642 -641 15 0
642 641 -15 0
-643 642 16 0
-643 -642 -16 0
643 -642 16 0
643 642 -16 0
-644 643 20 0
-644 -643 -20 0
644 -643 20 0
644 643 -20 0
-645 644 22 0
-645 -644 -22 0
645 -644 22 0
645 644 -22 0
-646 645 24 0
-646 -645 -24 0
646 -645 24 0
646 645 -24 0
-647 646 25 0
-647 -646 -25 0
647 -646 25 0
647 646 -25 0
-648 647 26 0
-648 -647 -26 0
648 -647 26 0
648 647 -26 0
-649 648 27 0
-649 -648 -27 0
649 -648 27 0
649 648 -27 0
-650 649 28 0
-650 -649 -28 0
650 -649 28 0
650 649 -28 0
-651 650 29 0
-651 -650 -29 0
651 -650 29 0
651 650 -29 0
-652 651 30 0
-652 -651 -30 0
652 -651 30 0
652 651 -30 0
-653 652 31 0
-653 -652 -31 0
653 -652 31 0
653 652 -31 0
-654 653 33 0
-654 -653 -33 0
654 -653 33 0
654 653 -33 0
-655 654 35 0
-655 -654 -35 0
655 -654 35 0
655 654 -35 0
-656 655 37 0
-656 -655 -37 0
656 -655 37 0
656 655 -37 0
-657 656 38 0
-657 -656 -38 0
657 -656 38 0
657 656 -38 0
-658 657 39 0
-658 -657 -39 0
658 -657 39 0
658 657 -39 0
-659 658 40 0
-659 -658 -40 0
659 -658 40 0
659 658 -40 0
-660 659 41 0
-660 -659 -41 0
660 -659 41 0
660 659 -41 0
-661 660 42 0
-661 -660 -42 0
661 -660 42 0
661 660 -42 0
-662 661 49 0
-662 -661 -49 0
662 -661 49 0
662 661 -49 0
-663 662 50 0
-663 -662 -50 0
663 -662 50 0
663 662 -50 0
-664 663 51 0
-664 -663 -51 0
664 -663 51 0
664 663 -51 0
-665 664 52 0
-665 -664 -52 0
665 -664 52 0
665 664 -52 0
-666 665 53 0
-666 -665 -53 0
666 -665 53 0
666 665 -53 0
-667 666 54 0
-667 -666 -54 0
667 -666 54 0
667 666 -54 0
-668 667 73 0
-668 -667 -73 0
668 -667 73 0
668 667 -73 0
-669 668 75 0
-669 -668 -75 0
669 -668 75 0
669 668 -75 0
-670 669 76 0
-670 -669 -76 0
670 -669 76 0
670 669 -76 0
-671 670 79 0
-671 -670 -79 0
671 -670 79 0
671 670 -79 0
-672 671 86 0
-672 -671 -86 0
672 -671 86 0
672 671 -86 0
-673 7 8 0
-673 -7 -8 0
673 -7 8 0
673 7 -8 0
-674 673 9 0
-674 -673 -9 0
674 -673 9 0
674 673 -9 0
-675 674 10 0
-675 -674 -10 0
675 -674 10 0
675 674 -10 0
-676 675 13 0
-676 -675 -13 0
676 -675 13 0
676 675 -13 0
-677 676 15 0
-677 -676 -15 0
677 -676 15 0
677 676 -15 0
-678 677 16 0
-678 -677 -16 0
678 -677 16 0
678 677 -16 0
-679 678 19 0
-679 -678 -19 0
679 -678 19 0
679 678 -19 0
-680 679 20 0
-680 -679 -20 0
680 -679 20 0
680 679 -20 0
-681 680 21 0
-681 -680 -21 0
681 -680 21 0
681 680 -21 0
-682 681 22 0
-682 -681 -22 0
682 -681 22 0
682 681 -22 0
-683 682 23 0
-683 -682 -23 0
683 -682 23 0
683 682 -23 0
-684 683 24 0
-684 -683 -24 0
684 -683 24 0
684 683 -24 0
-685 684 31 0
-685 -684 -31 0
685 -684 31 0
685 684 -31 0
-686 685 33 0
-686 -685 -33 0
686 -685 33 0
686 685 -33 0
-687 686 35 0
-687 -686 -35 0
687 -686 35 0
687 686 -35 0
-688 687 49 0
-688 -687 -49 0
688 -687 49 0
688 687 -49 0
-689 688 50 0
-689 -688 -50 0
689 -688 50 0
689 688 -50 0
-690 689 51 0
-690 -689 -51 0
690 -689 51 0
690 689 -51 0
-691 690 52 0
-691 -690 -52 0
691 -690 52 0
691 690 -52 0
-692 691 53 0
-692 -691 -53 0
692 -691 53 0
692 691 -53 0
-693 692 54 0
-693 -692 -54 0
693 -692 54 0
693 692 -54 0
-694 693 73 0
-694 -693 -73 0
694 -693 73 0
694 693 -73 0
-695 694 74 0
-695 -694 -74 0
695 -694 74 0
695 694 -74 0
-696 695 75 0
-696 -695 -75 0
696 -695 75 0
696 695 -75 0
-697 696 76 0
-697 -696 -76 0
697 -696 76 0
697 696 -76 0
-698 697 80 0
-698 -697 -80 0
698 -697 80 0
698 697 -80 0
-699 698 87 0
-699 -698 -87 0
699 -698 87 0
699 698 -87 0
-700 9 10 0
-700 -9 -10 0
700 -9 10 0
700 9 -10 0
-701 700 13 0
-701 -700 -13 0
701 -700 13 0
701 700 -13 0
-702 701 14 0
-702 -701 -14 0
702 -701 14 0
702 701 -14 0
-703 702 15 0
-703 -702 -15 0
703 -702 15 0
703 702 -15 0
-704 703 16 0
-704 -703 -16 0
704 -703 16 0
704 703 -16 0
-705 704 20 0
-705 -704 -20 0
705 -704 20 0
705 704 -20 0
-706 705 22 0
-706 -705 -22 0
706 -705 22 0
706 705 -22 0
-707 706 24 0
-707 -706 -24 0
707 -706 24 0
707 706 -24 0
-708 707 25 0
-708 -707 -25 0
708 -707 25 0
708 707 -25 0
-709 708 27 0
-709 -708 -27 0
709 -708 27 0
709 708 -27 0
-710 709 29 0
-710 -709 -29 0
710 -709 29 0
710 709 -29 0
-711 710 31 0
-711 -710 -31 0
711 -710 31 0
711 710 -31 0
-712 711 33 0
-712 -711 -33 0
712 -711 33 0
712 711 -33 0
-713 712 35 0
-713 -712 -35 0
713 -712 35 0
713 712 -35 0
-714 713 37 0
-714 -713 -37 0
714 -713 37 0
714 713 -37 0
-715 714 38 0
-715 -714 -38 0
715 -714 38 0
715 714 -38 0
-716 715 39 0
-716 -715 -39 0
716 -715 39 0
716 715 -39 0
-717 716 40 0
-717 -716 -40 0
717 -716 40 0
717 716 -40 0
-718 717 41 0
-718 -717 -41 0
718 -717 41 0
718 717 -41 0
-719 718 42 0
-719 -718 -42 0
719 -718 42 0
719 718 -42 0
-720 719 43 0
-720 -719 -43 0
720 -719 43 0
720 719 -43 0
-721 720 44 0
-721 -720 -44 0
721 -720 44 0
721 720 -44 0
-722 721 45 0
-722 -721 -45 0
722 -721 45 0
722 721 -45 0
-723 722 46 0
-723 -722 -46 0
723 -722 46 0
723 722 -46 0
-724 723 47 0
-724 -723 -47 0
724 -723 47 0
724 723 -47 0
-725 724 48 0
-725 -724 -48 0
725 -724 48 0
725 724 -48 0
-726 725 49 0
-726 -725 -49 0
726 -725 49 0
726 725 -49 0
-727 726 50 0
-727 -726 -50 0
727 -726 50 0
727 726 -50 0
-728 727 51 0
-728 -727 -51 0
728 -727 51 0
728 727 -51 0
-729 728 52 0
-729 -728 -52 0
729 -728 52 0
729 728 -52 0
-730 729 53 0
-730 -729 -53 0
730 -729 53 0
730 729 -53 0
-731 730 54 0
-731 -730 -54 0
731 -730 54 0
731 730 -54 0
-732 731 75 0
-732 -731 -75 0
732 -731 75 0
732 731 -75 0
-733 732 76 0
-733 -732 -76 0
733 -732 76 0
733 732 -76 0
-734 733 79 0
-734 -733 -79 0
734 -733 79 0
734 733 -79 0
-735 734 80 0
-735 -734 -80 0
735 -734 80 0
735 734 -80 0
-736 735 88 0
-736 -735 -88 0
736 -735 88 0
736 735 -88 0
515 526 537 548 559 570 593 604 639 672 699 736 0
-1 737 0
-738 0
-739 0
-740 0
-741 0
-742 0
-743 0
-744 0
-745 0
-746 0
-747 0
-748 0
-2 749 0
-737 749 0
-2 -737 750 0
-738 750 0
-2 -738 751 0
-739 751 0
-2 -739 752 0
-740 752 0
-2 -740 753 0
-741 753 0
-2 -741 754 0
-742 754 0
-2 -742 755 0
-743 755 0
-2 -743 756 0
-744 756 0
-2 -744 757 0
-745 757 0
-2 -745 758 0
-746 758 0
-2 -746 759 0
-747 759 0
-2 -747 760 0
-748 760 0
-2 -748 0
-3 761 0
-749 761 0
-3 -749 762 0
-750 762 0
-3 -750 763 0
-751 763 0
-3 -751 764 0
-752 764 0
-3 -752 765 0
-753 765 0
-3 -753 766 0
-754 766 0
-3 -754 767 0
-755 767 0
-3 -755 768 0
-756 768 0
-3 -756 769 0
-757 769 0
-3 -757 770 0
-758 770 0
-3 -758 771 0
-759 771 0
-3 -759 772 0
-760 772 0
-3 -760 0
-4 773 0
-761 773 0
-4 -761 774 0
-762 774 0
-4 -762 775 0
-763 775 0
-4 -763 776 0
-764 776 0
-4 -764 777 0
-765 777 0
-4 -765 778 0
-766 778 0
-4 -766 779 0
-767 779 0
-4 -767 780 0
-768 780 0
-4 -768 781 0
-769 781 0
-4 -769 782 0
-770 782 0
-4 -770 783 0
-771 783 0
-4 -771 784 0
-772 784 0
-4 -772 0
-5 785 0
-773 785 0
-5 -773 786 0
-774 786 0
-5 -774 787 0
-775 787 0
-5 -775 788 0
-776 788 0
-5 -776 789 0
-777 789 0
-5 -777 790 0
-778 790 0
-5 -778 791 0
-779 791 0
-5 -779 792 0
-780 792 0
-5 -780 793 0
-781 793 0
-5 -781 794 0
-782 794 0
-5 -782 795 0
-783 795 0
-5 -783 796 0
-784 796 0
-5 -784 0
-6 797 0
-785 797 0
-6 -785 798 0
-786 798 0
-6 -786 799 0
-787 799 0
-6 -787 800 0
-788 800 0
-6 -788 801 0
-789 801 0
-6 -789 802 0
-790 802 0
-6 -790 803 0
-791 803 0
-6 -791 804 0
-792 804 0
-6 -792 805 0
-793 805 0
-6 -793 806 0
-794 806 0
-6 -794 807 0
-795 807 0
-6 -795 808 0
-796 808 0
-6 -796 0
-7 809 0
-797 809 0
-7 -797 810 0
-798 810 0
-7 -798 811 0
-799 811 0
-7 -799 812 0
-800 812 0
-7 -800 813 0
-801 813 0
-7 -801 814 0
-802 814 0
-7 -802 815 0
-803 815 0
-7 -803 816 0
-804 816 0
-7 -804 817 0
-805 817 0
-7 -805 818 0
-806 818 0
-7 -806 819 0
-807 819 0
-7 -807 820 0
-808 820 0
-7 -808 0
-8 821 0
-809 821 0
-8 -809 822 0
-810 822 0
-8 -810 823 0
-811 823 0
-8 -811 824 0
-812 824 0
-8 -812 825 0
-813 825 0
-8 -813 826 0
-814 826 0
-8 -814 827 0
-815 827 0
-8 -815 828 0
-816 828 0
-8 -816 829 0
-817 829 0
-8 -817 830 0
-818 830 0
-8 -818 831 0
-819 831 0
-8 -819 832 0
-820 832 0
-8 -820 0
-9 833 0
-821 833 0
-9 -821 834 0
-822 834 0
-9 -822 835 0
-823 835 0
-9 -823 836 0
-824 836 0
-9 -824 837 0
-825 837 0
-9 -825 838 0
-826 838 0
-9 -826 839 0
-827 839 0
-9 -827 840 0
-828 840 0
-9 -828 841 0
-829 841 0
-9 -829 842 0
-830 842 0
-9 -830 843 0
-831 843 0
-9 -831 844 0
-832 844 0
-9 -832 0
-10 845 0
-833 845 0
-10 -833 846 0
-834 846 0
-10 -834 847 0
-835 847 0
-10 -835 848 0
-836 848 0
-10 -836 849 0
-837 849 0
-10 -837 850 0
-838 850 0
-10 -838 851 0
-839 851 0
-10 -839 852 0
-840 852 0
-10 -840 853 0
-841 853 0
-10 -841 854 0
-842 854 0
-10 -842 855 0
-843 855 0
-10 -843 856 0
-844 856 0
-10 -844 0
-11 857 0
-845 857 0
-11 -845 858 0
-846 858 0
-11 -846 859 0
-847 859 0
-11 -847 860 0
-848 860 0
-11 -848 861 0
-849 861 0
-11 -849 862 0
-850 862 0
-11 -850 863 0
-851 863 0
-11 -851 864 0
-852 864 0
-11 -852 865 0
-853 865 0
-11 -853 866 0
-854 866 0
-11 -854 867 0
-855 867 0
-11 -855 868 0
-856 868 0
-11 -856 0
-12 869 0
-857 869 0
-12 -857 870 0
-858 870 0
-12 -858 871 0
-859 871 0
-12 -859 872 0
-860 872 0
-12 -860 873 0
-861 873 0
-12 -861 874 0
-862 874 0
-12 -862 875 0
-863 875 0
-12 -863 876 0
-864 876 0
-12 -864 877 0
-865 877 0
-12 -865 878 0
-866 878 0
-12 -866 879 0
-867 879 0
-12 -867 880 0
-868 880 0
-12 -868 0
-13 881 0
-869 881 0
-13 -869 882 0
-870 882 0
-13 -870 883 0
-871 883 0
-13 -871 884 0
-872 884 0
-13 -872 885 0
-873 885 0
-13 -873 886 0
-874 886 0
-13 -874 887 0
-875 887 0
-13 -875 888 0
-876 888 0
-13 -876 889 0
-877 889 0
-13 -877 890 0
-878 890 0
-13 -878 891 0
-879 891 0
-13 -879 892 0
-880 892 0
-13 -880 0
-14 893 0
-881 893 0
-14 -881 894 0
-882 894 0
-14 -882 895 0
-883 895 0
-14 -883 896 0
-884 896 0
-14 -884 897 0
-885 897 0
-14 -885 898 0
-886 898 0
-14 -886 899 0
-887 899 0
-14 -887 900 0
-888 900 0
-14 -888 901 0
-889 901 0
-14 -889 902 0
-890 902 0
-14 -890 903 0
-891 903 0
-14 -891 904 0
-892 904 0
-14 -892 0
-15 905 0
-893 905 0
-15 -893 906 0
-894 906 0
-15 -894 907 0
-895 907 0
-15 -895 908 0
-896 908 0
-15 -896 909 0
-897 909 0
-15 -897 910 0
-898 910 0
-15 -898 911 0
-899 911 0
-15 -899 912 0
-900 912 0
-15 -900 913 0
-901 913 0
-15 -901 914 0
-902 914 0
-15 -902 915 0
-903 915 0
-15 -903 916 0
-904 916 0
-15 -904 0
-16 917 0
-905 917 0
-16 -905 918 0
-906 918 0
-16 -906 919 0
-907 919 0
-16 -907 920 0
-908 920 0
-16 -908 921 0
-909 921 0
-16 -909 922 0
-910 922 0
-16 -910 923 0
-911 923 0
-16 -911 924 0
-912 924 0
-16 -912 925 0
-913 925 0
-16 -913 926 0
-914 926 0
-16 -914 927 0
-915 927 0
-16 -915 928 0
-916 928 0
-16 -916 0
-17 929 0
-917 929 0
-17 -917 930 0
-918 930 0
-17 -918 931 0
-919 931 0
-17 -919 932 0
-920 932 0
-17 -920 933 0
-921 933 0
-17 -921 934 0
-922 934 0
-17 -922 935 0
-923 935 0
-17 -923 936 0
-924 936 0
-17 -924 937 0
-925 937 0
-17 -925 938 0
-926 938 0
-17 -926 939 0
-927 939 0
-17 -927 940 0
-928 940 0
-17 -928 0
-18 941 0
-929 941 0
-18 -929 942 0
-930 942 0
-18 -930 943 0
-931 943 0
-18 -931 944 0
-932 944 0
-18 -932 945 0
-933 945 0
-18 -933 946 0
-934 946 0
-18 -934 947 0
-935 947 0
-18 -935 948 0
-936 948 0
-18 -936 949 0
-937 949 0
-18 -937 950 0
-938 950 0
-18 -938 951 0
-939 951 0
-18 -939 952 0
-940 952 0
-18 -940 0
-19 953 0
-941 953 0
-19 -941 954 0
-942 954 0
-19 -942 955 0
-943 955 0
-19 -943 956 0
-944 956 0
-19 -944 957 0
-945 957 0
-19 -945 958 0
-946 958 0
-19 -946 959 0
-947 959 0
-19 -947 960 0
-948 960 0
-19 -948 961 0
-949 961 0
-19 -949 962 0
-950 962 0
-19 -950 963 0
-951 963 0
-19 -951 964 0
-952 964 0
-19 -952 0
-20 965 0
-953 965 0
-20 -953 966 0
-954 966 0
-20 -954 967 0
-955 967 0
-20 -955 968 0
-956 968 0
-20 -956 969 0
-957 969 0
-20 -957 970 0
-958 970 0
-20 -958 971 0
-959 971 0
-20 -959 972 0
-960 972 0
-20 -960 973 0
-961 973 0
-20 -961 974 0
-962 974 0
-20 -962 975 0
-963 975 0
-20 -963 976 0
-964 976 0
-20 -964 0
-21 977 0
-965 977 0
-21 -965 978 0
-966 978 0
-21 -966 979 0
-967 979 0
-21 -967 980 0
-968 980 0
-21 -968 981 0
-969 981 0
-21 -969 982 0
-970 982 0
-21 -970 983 0
-971 983 0
-21 -971 984 0
-972 984 0
-21 -972 985 0
-973 985 0
-21 -973 986 0
-974 986 0
-21 -974 987 0
-975 987 0
-21 -975 988 0
-976 988 0
-21 -976 0
-22 989 0
-977 989 0
-22 -977 990 0
-978 990 0
-22 -978 991 0
-979 991 0
-22 -979 992 0
-980 992 0
-22 -980 993 0
-981 993 0
-22 -981 994 0
-982 994 0
-22 -982 995 0
-983 995 0
-22 -983 996 0
-984 996 0
-22 -984 997 0
-985 997 0
-22 -985 998 0
-986 998 0
-22 -986 999 0
-987 999 0
-22 -987 1000 0
-988 1000 0
-22 -988 0
-23 1001 0
-989 1001 0
-23 -989 1002 0
-990 1002 0
-23 -990 1003 0
-991 1003 0
-23 -991 1004 0
-992 1004 0
-23 -992 1005 0
-993 1005 0
-23 -993 1006 0
-994 1006 0
-23 -994 1007 0
-995 1007 0
-23 -995 1008 0
-996 1008 0
-23 -996 1009 0
-997 1009 0
-23 -997 1010 0
-998 1010 0
-23 -998 1011 0
-999 1011 0
-23 -999 1012 0
-1000 1012 0
-23 -1000 0
-24 1013 0
-1001 1013 0
-24 -1001 1014 0
-1002 1014 0
-24 -1002 1015 0
-1003 1015 0
-24 -1003 1016 0
-1004 1016 0
-24 -1004 1017 0
-1005 1017 0
-24 -1005 1018 0
-1006 1018 0
-24 -1006 1019 0
-1007 1019 0
-24 -1007 1020 0
-1008 1020 0
-24 -1008 1021 0
-1009 1021 0
-24 -1009 1022 0
-1010 1022 0
-24 -1010 1023 0
-1011 1023 0
-24 -1011 1024 0
-1012 1024 0
-24 -1012 0
-25 1025 0
-1013 1025 0
-25 -1013 1026 0
-1014 1026 0
-25 -1014 1027 0
-1015 1027 0
-25 -1015 1028 0
-1016 1028 0
-25 -1016 1029 0
-1017 1029 0
-25 -1017 1030 0
-1018 1030 0
-25 -1018 1031 0
-1019 1031 0
-25 -1019 1032 0
-1020 1032 0
-25 -1020 1033 0
-1021 1033 0
-25 -1021 1034 0
-1022 1034 0
-25 -1022 1035 0
-1023 1035 0
-25 -1023 1036 0
-1024 1036 0
-25 -1024 0
-26 1037 0
-1025 1037 0
-26 -1025 1038 0
-1026 1038 0
-26 -1026 1039 0
-1027 1039 0
-26 -1027 1040 0
-1028 1040 0
-26 -1028 1041 0
-1029 1041 0
-26 -1029 1042 0
-1030 1042 0
-26 -1030 1043 0
-1031 1043 0
-26 -1031 1044 0
-1032 1044 0
-26 -1032 1045 0
-1033 1045 0
-26 -1033 1046 0
-1034 1046 0
-26 -1034 1047 0
-1035 1047 0
-26 -1035 1048 0
-1036 1048 0
-26 -1036 0
-27 1049 0
-1037 1049 0
-27 -1037 1050 0
-1038 1050 0
-27 -1038 1051 0
-1039 1051 0
-27 -1039 1052 0
-1040 1052 0
-27 -1040 1053 0
-1041 1053 0
-27 -1041 1054 0
-1042 1054 0
-27 -1042 1055 0
-1043 1055 0
-27 -1043 1056 0
-1044 1056 0
-27 -1044 1057 0
-1045 1057 0
-27 -1045 1058 0
-1046 1058 0
-27 -1046 1059 0
-1047 1059 0
-27 -1047 1060 0
-1048 1060 0
-27 -1048 0
-28 1061 0
-1049 1061 0
-28 -1049 1062 0
-1050 1062 0
-28 -1050 1063 0
-1051 1063 0
-28 -1051 1064 0
-1052 1064 0
-28 -1052 1065 0
-1053 1065 0
-28 -1053 1066 0
-1054 1066 0
-28 -1054 1067 0
-1055 1067 0
-28 -1055 1068 0
-1056 1068 0
-28 -1056 1069 0
-1057 1069 0
-28 -1057 1070 0
-1058 1070 0
-28 -1058 1071 0
-1059 1071 0
-28 -1059 1072 0
-1060 1072 0
-28 -1060 0
-29 1073 0
-1061 1073 0
-29 -1061 1074 0
-1062 1074 0
-29 -1062 1075 0
-1063 1075 0
-29 -1063 1076 0
-1064 1076 0
-29 -1064 1077 0
-1065 1077 0
-29 -1065 1078 0
-1066 1078 0
-29 -1066 1079 0
-1067 1079 0
-29 -1067 1080 0
-1068 1080 0
-29 -1068 1081 0
-1069 1081 0
-29 -1069 1082 0
-1070 1082 0
-29 -1070 1083 0
-1071 1083 0
-29 -1071 1084 0
-1072 1084 0
-29 -1072 0
-30 1085 0
-1073 1085 0
-30 -1073 1086 0
-1074 1086 0
-30 -1074 1087 0
-1075 1087 0
-30 -1075 1088 0
-1076 1088 0
-30 -1076 1089 0
-1077 1089 0
-30 -1077 1090 0
-1078 1090 0
-30 -1078 1091 0
-1079 1091 0
-30 -1079 1092 0
-1080 1092 0
-30 -1080 1093 0
-1081 1093 0
-30 -1081 1094 0
-1082 1094 0
-30 -1082 1095 0
-1083 1095 0
-30 -1083 1096 0
-1084 1096 0
-30 -1084 0
-31 1097 0
-1085 1097 0
-31 -1085 1098 0
-1086 1098 0
-31 -1086 1099 0
-1087 1099 0
-31 -1087 1100 0
-1088 1100 0
-31 -1088 1101 0
-1089 1101 0
-31 -1089 1102 0
-1090 1102 0
-31 -1090 1103 0
-1091 1103 0
-31 -1091 1104 0
-1092 1104 0
-31 -1092 1105 0
-1093 1105 0
-31 -1093 1106 0
-1094 1106 0
-31 -1094 1107 0
-1095 1107 0
-31 -1095 1108 0
-1096 1108 0
-31 -1096 0
-32 1109 0
-1097 1109 0
-32 -1097 1110 0
-1098 1110 0
-32 -1098 1111 0
-1099 1111 0
-32 -1099 1112 0
-1100 1112 0
-32 -1100 1113 0
-1101 1113 0
-32 -1101 1114 0
-1102 1114 0
-32 -1102 1115 0
-1103 1115 0
-32 -1103 1116 0
-1104 1116 0
-32 -1104 1117 0
-1105 1117 0
-32 -1105 1118 0
-1106 1118 0
-32 -1106 1119 0
-1107 1119 0
-32 -1107 1120 0
-1108 1120 0
-32 -1108 0
-33 1121 0
-1109 1121 0
-33 -1109 1122 0
-1110 1122 0
-33 -1110 1123 0
-1111 1123 0
-33 -1111 1124 0
-1112 1124 0
-33 -1112 1125 0
-1113 1125 0
-33 -1113 1126 0
-1114 1126 0
-33 -1114 1127 0
-1115 1127 0
-33 -1115 1128 0
-1116 1128 0
-33 -1116 1129 0
-1117 1129 0
-33 -1117 1130 0
-1118 1130 0
-33 -1118 1131 0
-1119 1131 0
-33 -1119 1132 0
-1120 1132 0
-33 -1120 0
-34 1133 0
-1121 1133 0
-34 -1121 1134 0
-1122 1134 0
-34 -1122 1135 0
-1123 1135 0
-34 -1123 1136 0
-1124 1136 0
-34 -1124 1137 0
-1125 1137 0
-34 -1125 1138 0
-1126 1138 0
-34 -1126 1139 0
-1127 1139 0
-34 -1127 1140 0
-1128 1140 0
-34 -1128 1141 0
-1129 1141 0
-34 -1129 1142 0
-1130 1142 0
-34 -1130 1143 0
-1131 1143 0
-34 -1131 1144 0
-1132 1144 0
-34 -1132 0
-35 1145 0
-1133 1145 0
-35 -1133 1146 0
-1134 1146 0
-35 -1134 1147 0
-1135 1147 0
-35 -1135 1148 0
-1136 1148 0
-35 -1136 1149 0
-1137 1149 0
-35 -1137 1150 0
-1138 1150 0
-35 -1138 1151 0
-1139 1151 0
-35 -1139 1152 0
-1140 1152 0
-35 -1140 1153 0
-1141 1153 0
-35 -1141 1154 0
-1142 1154 0
-35 -1142 1155 0
-1143 1155 0
-35 -1143 1156 0
-1144 1156 0
-35 -1144 0
-36 1157 0
-1145 1157 0
-36 -1145 1158 0
-1146 1158 0
-36 -1146 1159 0
-1147 1159 0
-36 -1147 1160 0
-1148 1160 0
-36 -1148 1161 0
-1149 1161 0
-36 -1149 1162 0
-1150 1162 0
-36 -1150 1163 0
-1151 1163 0
-36 -1151 1164 0
-1152 1164 0
-36 -1152 1165 0
-1153 1165 0
-36 -1153 1166 0
-1154 1166 0
-36 -1154 1167 0
-1155 1167 0
-36 -1155 1168 0
-1156 1168 0
-36 -1156 0
-37 1169 0
-1157 1169 0
-37 -1157 1170 0
-1158 1170 0
-37 -1158 1171 0
-1159 1171 0
-37 -1159 1172 0
-1160 1172 0
-37 -1160 1173 0
-1161 1173 0
-37 -1161 1174 0
-1162 1174 0
-37 -1162 1175 0
-1163 1175 0
-37 -1163 1176 0
-1164 1176 0
-37 -1164 1177 0
-1165 1177 0
-37 -1165 1178 0
-1166 1178 0
-37 -1166 1179 0
-1167 1179 0
-37 -1167 1180 0
-1168 1180 0
-37 -1168 0
-38 1181 0
-1169 1181 0
-38 -1169 1182 0
-1170 1182 0
-38 -1170 1183 0
-1171 1183 0
-38 -1171 1184 0
-1172 1184 0
-38 -1172 1185 0
-1173 1185 0
-38 -1173 1186 0
-1174 1186 0
-38 -1174 1187 0
-1175 1187 0
-38 -1175 1188 0
-1176 1188 0
-38 -1176 1189 0
-1177 1189 0
-38 -1177 1190 0
-1178 1190 0
-38 -1178 1191 0
-1179 1191 0
-38 -1179 1192 0
-1180 1192 0
-38 -1180 0
-39 1193 0
-1181 1193 0
-39 -1181 1194 0
-1182 1194 0
-39 -1182 1195 0
-1183 1195 0
-39 -1183 1196 0
-1184 1196 0
-39 -1184 1197 0
-1185 1197 0
-39 -1185 1198 0
-1186 1198 0
-39 -1186 1199 0
-1187 1199 0
-39 -1187 1200 0
-1188 1200 0
-39 -1188 1201 0
-1189 1201 0
-39 -1189 1202 0
-1190 1202 0
-39 -1190 1203 0
-1191 1203 0
-39 -1191 1204 0
-1192 1204 0
-39 -1192 0
-40 1205 0
-1193 1205 0
-40 -1193 1206 0
-1194 1206 0
-40 -1194 1207 0
-1195 1207 0
-40 -1195 1208 0
-1196 1208 0
-40 -1196 1209 0
-1197 1209 0
-40 -1197 1210 0
-1198 1210 0
-40 -1198 1211 0
-1199 1211 0
-40 -1199 1212 0
-1200 1212 0
-40 -1200 1213 0
-1201 1213 0
-40 -1201 1214 0
-1202 1214 0
-40 -1202 1215 0
-1203 1215 0
-40 -1203 1216 0
-1204 1216 0
-40 -1204 0
-41 1217 0
-1205 1217 0
-41 -1205 1218 0
-1206 1218 0
-41 -1206 1219 0
-1207 1219 0
-41 -1207 1220 0
-1208 1220 0
-41 -1208 1221 0
-1209 1221 0
-41 -1209 1222 0
-1210 1222 0
-41 -1210 1223 0
-1211 1223 0
-41 -1211 1224 0
-1212 1224 0
-41 -1212 1225 0
-1213 1225 0
-41 -1213 1226 0
-1214 1226 0
-41 -1214 1227 0
-1215 1227 0
-41 -1215 1228 0
-1216 1228 0
-41 -1216 0
-42 1229 0
-1217 1229 0
-42 -1217 1230 0
-1218 1230 0
-42 -1218 1231 0
-1219 1231 0
-42 -1219 1232 0
-1220 1232 0
-42 -1220 1233 0
-1221 1233 0
-42 -1221 1234 0
-1222 1234 0
-42 -1222 1235 0
-1223 1235 0
-42 -1223 1236 0
-1224 1236 0
-42 -1224 1237 0
-1225 1237 0
-42 -1225 1238 0
-1226 1238 0
-42 -1226 1239 0
-1227 1239 0
-42 -1227 1240 0
-1228 1240 0
-42 -1228 0
-43 1241 0
-1229 1241 0
-43 -1229 1242 0
-1230 1242 0
-43 -1230 1243 0
-1231 1243 0
-43 -1231 1244 0
-1232 1244 0
-43 -1232 1245 0
-1233 1245 0
-43 -1233 1246 0
-1234 1246 0
-43 -1234 1247 0
-1235 1247 0
-43 -1235 1248 0
-1236 1248 0
-43 -1236 1249 0
-1237 1249 0
-43 -1237 1250 0
-1238 1250 0
-43 -1238 1251 0
-1239 1251 0
-43 -1239 1252 0
-1240 1252 0
-43 -1240 0
-44 1253 0
-1241 1253 0
-44 -1241 1254 0
-1242 1254 0
-44 -1242 1255 0
-1243 1255 0
-44 -1243 1256 0
-1244 1256 0
-44 -1244 1257 0
-1245 1257 0
-44 -1245 1258 0
-1246 1258 0
-44 -1246 1259 0
-1247 1259 0
-44 -1247 1260 0
-1248 1260 0
-44 -1248 1261 0
-1249 1261 0
-44 -1249 1262 0
-1250 1262 0
-44 -1250 1263 0
-1251 1263 0
-44 -1251 1264 0
-1252 1264 0
-44 -1252 0
-45 1265 0
-1253 1265 0
-45 -1253 1266 0
-1254 1266 0
-45 -1254 1267 0
-1255 1267 0
-45 -1255 1268 0
-1256 1268 0
-45 -1256 1269 0
-1257 1269 0
-45 -1257 1270 0
-1258 1270 0
-45 -1258 1271 0
-1259 1271 0
-45 -1259 1272 0
-1260 1272 0
-45 -1260 1273 0
-1261 1273 0
-45 -1261 1274 0
-1262 1274 0
-45 -1262 1275 0
-1263 1275 0
-45 -1263 1276 0
-1264 1276 0
-45 -1264 0
-46 1277 0
-1265 1277 0
-46 -1265 1278 0
-1266 1278 0
-46 -1266 1279 0
-1267 1279 0
-46 -1267 1280 0
-1268 1280 0
-46 -1268 1281 0
-1269 1281 0
-46 -1269 1282 0
-1270 1282 0
-46 -1270 1283 0
-1271 1283 0
-46 -1271 1284 0
-1272 1284 0
-46 -1272 1285 0
-1273 1285 0
-46 -1273 1286 0
-1274 1286 0
-46 -1274 1287 0
-1275 1287 0
-46 -1275 1288 0
-1276 1288 0
-46 -1276 0
-47 1289 0
-1277 1289 0
-47 -1277 1290 0
-1278 1290 0
-47 -1278 1291 0
-1279 1291 0
-47 -1279 1292 0
-1280 1292 0
-47 -1280 1293 0
-1281 1293 0
-47 -1281 1294 0
-1282 1294 0
-47 -1282 1295 0
-1283 1295 0
-47 -1283 1296 0
-1284 1296 0
-47 -1284 1297 0
-1285 1297 0
-47 -1285 1298 0
-1286 1298 0
-47 -1286 1299 0
-1287 1299 0
-47 -1287 1300 0
-1288 1300 0
-47 -1288 0
-48 1301 0
-1289 1301 0
-48 -1289 1302 0
-1290 1302 0
-48 -1290 1303 0
-1291 1303 0
-48 -1291 1304 0
-1292 1304 0
-48 -1292 1305 0
-1293 1305 0
-48 -1293 1306 0
-1294 1306 0
-48 -1294 1307 0
-1295 1307 0
-48 -1295 1308 0
-1296 1308 0
-48 -1296 1309 0
-1297 1309 0
-48 -1297 1310 0
-1298 1310 0
-48 -1298 1311 0
-1299 1311 0
-48 -1299 1312 0
-1300 1312 0
-48 -1300 0
-49 1313 0
-1301 1313 0
-49 -1301 1314 0
-1302 1314 0
-49 -1302 1315 0
-1303 1315 0
-49 -1303 1316 0
-1304 1316 0
-49 -1304 1317 0
-1305 1317 0
-49 -1305 1318 0
-1306 1318 0
-49 -1306 1319 0
-1307 1319 0
-49 -1307 1320 0
-1308 1320 0
-49 -1308 1321 0
-1309 1321 0
-49 -1309 1322 0
-1310 1322 0
-49 -1310 1323 0
-1311 1323 0
-49 -1311 1324 0
-1312 1324 0
-49 -1312 0
-50 1325 0
-1313 1325 0
-50 -1313 1326 0
-1314 1326 0
-50 -1314 1327 0
-1315 1327 0
-50 -1315 1328 0
-1316 1328 0
-50 -1316 1329 0
-1317 1329 0
-50 -1317 1330 0
-1318 1330 0
-50 -1318 1331 0
-1319 1331 0
-50 -1319 1332 0
-1320 1332 0
-50 -1320 1333 0
-1321 1333 0
-50 -1321 1334 0
-1322 1334 0
-50 -1322 1335 0
-1323 1335 0
-50 -1323 1336 0
-1324 1336 0
-50 -1324 0
-51 1337 0
-1325 1337 0
-51 -1325 1338 0
-1326 1338 0
-51 -1326 1339 0
-1327 1339 0
-51 -1327 1340 0
-1328 1340 0
-51 -1328 1341 0
-1329 1341 0
-51 -1329 1342 0
-1330 1342 0
-51 -1330 1343 0
-1331 1343 0
-51 -1331 1344 0
-1332 1344 0
-51 -1332 1345 0
-1333 1345 0
-51 -1333 1346 0
-1334 1346 0
-51 -1334 1347 0
-1335 1347 0
-51 -1335 1348 0
-1336 1348 0
-51 -1336 0
-52 1349 0
-1337 1349 0
-52 -1337 1350 0
-1338 1350 0
-52 -1338 1351 0
-1339 1351 0
-52 -1339 1352 0
-1340 1352 0
-52 -1340 1353 0
-1341 1353 0
-52 -1341 1354 0
-1342 1354 0
-52 -1342 1355 0
-1343 1355 0
-52 -1343 1356 0
-1344 1356 0
-52 -1344 1357 0
-1345 1357 0
-52 -1345 1358 0
-1346 1358 0
-52 -1346 1359 0
-1347 1359 0
-52 -1347 1360 0
-1348 1360 0
-52 -1348 0
-53 1361 0
-1349 1361 0
-53 -1349 1362 0
-1350 1362 0
-53 -1350 1363 0
-1351 1363 0
-53 -1351 1364 0
-1352 1364 0
-53 -1352 1365 0
-1353 1365 0
-53 -1353 1366 0
-1354 1366 0
-53 -1354 1367 0
-1355 1367 0
-53 -1355 1368 0
-1356 1368 0
-53 -1356 1369 0
-1357 1369 0
-53 -1357 1370 0
-1358 1370 0
-53 -1358 1371 0
-1359 1371 0
-53 -1359 1372 0
-1360 1372 0
-53 -1360 0
-54 1373 0
-1361 1373 0
-54 -1361 1374 0
-1362 1374 0
-54 -1362 1375 0
-1363 1375 0
-54 -1363 1376 0
-1364 1376 0
-54 -1364 1377 0
-1365 1377 0
-54 -1365 1378 0
-1366 1378 0
-54 -1366 1379 0
-1367 1379 0
-54 -1367 1380 0
-1368 1380 0
-54 -1368 1381 0
-1369 1381 0
-54 -1369 1382 0
-1370 1382 0
-54 -1370 1383 0
-1371 1383 0
-54 -1371 1384 0
-1372 1384 0
-54 -1372 0
-55 1385 0
-1373 1385 0
-55 -1373 1386 0
-1374 1386 0
-55 -1374 1387 0
-1375 1387 0
-55 -1375 1388 0
-1376 1388 0
-55 -1376 1389 0
-1377 1389 0
-55 -1377 1390 0
-1378 1390 0
-55 -1378 1391 0
-1379 1391 0
-55 -1379 1392 0
-1380 1392 0
-55 -1380 1393 0
-1381 1393 0
-55 -1381 1394 0
-1382 1394 0
-55 -1382 1395 0
-1383 1395 0
-55 -1383 1396 0
-1384 1396 0
-55 -1384 0
-56 1397 0
-1385 1397 0
-56 -1385 1398 0
-1386 1398 0
-56 -1386 1399 0
-1387 1399 0
-56 -1387 1400 0
-1388 1400 0
-56 -1388 1401 0
-1389 1401 0
-56 -1389 1402 0
-1390 1402 0
-56 -1390 1403 0
-1391 1403 0
-56 -1391 1404 0
-1392 1404 0
-56 -1392 1405 0
-1393 1405 0
-56 -1393 1406 0
-1394 1406 0
-56 -1394 1407 0
-1395 1407 0
-56 -1395 1408 0
-1396 1408 0
-56 -1396 0
-57 1409 0
-1397 1409 0
-57 -1397 1410 0
-1398 1410 0
-57 -1398 1411 0
-1399 1411 0
-57 -1399 1412 0
-1400 1412 0
-57 -1400 1413 0
-1401 1413 0
-57 -1401 1414 0
-1402 1414 0
-57 -1402 1415 0
-1403 1415 0
-57 -1403 1416 0
-1404 1416 0
-57 -1404 1417 0
-1405 1417 0
-57 -1405 1418 0
-1406 1418 0
-57 -1406 1419 0
-1407 1419 0
-57 -1407 1420 0
-1408 1420 0
-57 -1408 0
-58 1421 0
-1409 1421 0
-58 -1409 1422 0
-1410 1422 0
-58 -1410 1423 0
-1411 1423 0
-58 -1411 1424 0
-1412 1424 0
-58 -1412 1425 0
-1413 1425 0
-58 -1413 1426 0
-1414 1426 0
-58 -1414 1427 0
-1415 1427 0
-58 -1415 1428 0
-1416 1428 0
-58 -1416 1429 0
-1417 1429 0
-58 -1417 1430 0
-1418 1430 0
-58 -1418 1431 0
-1419 1431 0
-58 -1419 1432 0
-1420 1432 0
-58 -1420 0
-59 1433 0
-1421 1433 0
-59 -1421 1434 0
-1422 1434 0
-59 -1422 1435 0
-1423 1435 0
-59 -1423 1436 0
-1424 1436 0
-59 -1424 1437 0
-1425 1437 0
-59 -1425 1438 0
-1426 1438 0
-59 -1426 1439 0
-1427 1439 0
-59 -1427 1440 0
-1428 1440 0
-59 -1428 1441 0
-1429 1441 0
-59 -1429 1442 0
-1430 1442 0
-59 -1430 1443 0
-1431 1443 0
-59 -1431 1444 0
-1432 1444 0
-59 -1432 0
-60 1445 0
-1433 1445 0
-60 -1433 1446 0
-1434 1446 0
-60 -1434 1447 0
-1435 1447 0
-60 -1435 1448 0
-1436 1448 0
-60 -1436 1449 0
-1437 1449 0
-60 -1437 1450 0
-1438 1450 0
-60 -1438 1451 0
-1439 1451 0
-60 -1439 1452 0
-1440 1452 0
-60 -1440 1453 0
-1441 1453 0
-60 -1441 1454 0
-1442 1454 0
-60 -1442 1455 0
-1443 1455 0
-60 -1443 1456 0
-1444 1456 0
-60 -1444 0
-61 1457 0
-1445 1457 0
-61 -1445 1458 0
-1446 1458 0
-61 -1446 1459 0
-1447 1459 0
-61 -1447 1460 0
-1448 1460 0
-61 -1448 1461 0
-1449 1461 0
-61 -1449 1462 0
-1450 1462 0
-61 -1450 1463 0
-1451 1463 0
-61 -1451 1464 0
-1452 1464 0
-61 -1452 1465 0
-1453 1465 0
-61 -1453 1466 0
-1454 1466 0
-61 -1454 1467 0
-1455 1467 0
-61 -1455 1468 0
-1456 1468 0
-61 -1456 0
-62 1469 0
-1457 1469 0
-62 -1457 1470 0
-1458 1470 0
-62 -1458 1471 0
-1459 1471 0
-62 -1459 1472 0
-1460 1472 0
-62 -1460 1473 0
-1461 1473 0
-62 -1461 1474 0
-1462 1474 0
-62 -1462 1475 0
-1463 1475 0
-62 -1463 1476 0
-1464 1476 0
-62 -1464 1477 0
-1465 1477 0
-62 -1465 1478 0
-1466 1478 0
-62 -1466 1479 0
-1467 1479 0
-62 -1467 1480 0
-1468 1480 0
-62 -1468 0
-63 1481 0
-1469 1481 0
-63 -1469 1482 0
-1470 1482 0
-63 -1470 1483 0
-1471 1483 0
-63 -1471 1484 0
-1472 1484 0
-63 -1472 1485 0
-1473 1485 0
-63 -1473 1486 0
-1474 1486 0
-63 -1474 1487 0
-1475 1487 0
-63 -1475 1488 0
-1476 1488 0
-63 -1476 1489 0
-1477 1489 0
-63 -1477 1490 0
-1478 1490 0
-63 -1478 1491 0
-1479 1491 0
-63 -1479 1492 0
-1480 1492 0
-63 -1480 0
-64 1493 0
-1481 1493 0
-64 -1481 1494 0
-1482 1494 0
-64 -1482 1495 0
-1483 1495 0
-64 -1483 1496 0
-1484 1496 0
-64 -1484 1497 0
-1485 1497 0
-64 -1485 1498 0
-1486 1498 0
-64 -1486 1499 0
-1487 1499 0
-64 -1487 1500 0
-1488 1500 0
-64 -1488 1501 0
-1489 1501 0
-64 -1489 1502 0
-1490 1502 0
-64 -1490 1503 0
-1491 1503 0
-64 -1491 1504 0
-1492 1504 0
-64 -1492 0
-65 1505 0
-1493 1505 0
-65 -1493 1506 0
-1494 1506 0
-65 -1494 1507 0
-1495 1507 0
-65 -1495 1508 0
-1496 1508 0
-65 -1496 1509 0
-1497 1509 0
-65 -1497 1510 0
-1498 1510 0
-65 -1498 1511 0
-1499 1511 0
-65 -1499 1512 0
-1500 1512 0
-65 -1500 1513 0
-1501 1513 0
-65 -1501 1514 0
-1502 1514 0
-65 -1502 1515 0
-1503 1515 0
-65 -1503 1516 0
-1504 1516 0
-65 -1504 0
-66 1517 0
-1505 1517 0
-66 -1505 1518 0
-1506 1518 0
-66 -1506 1519 0
-1507 1519 0
-66 -1507 1520 0
-1508 1520 0
-66 -1508 1521 0
-1509 1521 0
-66 -1509 1522 0
-1510 1522 0
-66 -1510 1523 0
-1511 1523 0
-66 -1511 1524 0
-1512 1524 0
-66 -1512 1525 0
-1513 1525 0
-66 -1513 1526 0
-1514 1526 0
-66 -1514 1527 0
-1515 1527 0
-66 -1515 1528 0
-1516 1528 0
-66 -1516 0
-67 1529 0
-1517 1529 0
-67 -1517 1530 0
-1518 1530 0
-67 -1518 1531 0
-1519 1531 0
-67 -1519 1532 0
-1520 1532 0
-67 -1520 1533 0
-1521 1533 0
-67 -1521 1534 0
-1522 1534 0
-67 -1522 1535 0
-1523 1535 0
-67 -1523 1536 0
-1524 1536 0
-67 -1524 1537 0
-1525 1537 0
-67 -1525 1538 0
-1526 1538 0
-67 -1526 1539 0
-1527 1539 0
-67 -1527 1540 0
-1528 1540 0
-67 -1528 0
-68 1541 0
-1529 1541 0
-68 -1529 1542 0
-1530 1542 0
-68 -1530 1543 0
-1531 1543 0
-68 -1531 1544 0
-1532 1544 0
-68 -1532 1545 0
-1533 1545 0
-68 -1533 1546 0
-1534 1546 0
-68 -1534 1547 0
-1535 1547 0
-68 -1535 1548 0
-1536 1548 0
-68 -1536 1549 0
-1537 1549 0
-68 -1537 1550 0
-1538 1550 0
-68 -1538 1551 0
-1539 1551 0
-68 -1539 1552 0
-1540 1552 0
-68 -1540 0
-69 1553 0
-1541 1553 0
-69 -1541 1554 0
-1542 1554 0
-69 -1542 1555 0
-1543 1555 0
-69 -1543 1556 0
-1544 1556 0
-69 -1544 1557 0
-1545 1557 0
-69 -1545 1558 0
-1546 1558 0
-69 -1546 1559 0
-1547 1559 0
-69 -1547 1560 0
-1548 1560 0
-69 -1548 1561 0
-1549 1561 0
-69 -1549 1562 0
-1550 1562 0
-69 -1550 1563 0
-1551 1563 0
-69 -1551 1564 0
-1552 1564 0
-69 -1552 0
-70 1565 0
-1553 1565 0
-70 -1553 1566 0
-1554 1566 0
-70 -1554 1567 0
-1555 1567 0
-70 -1555 1568 0
-1556 1568 0
-70 -1556 1569 0
-1557 1569 0
-70 -1557 1570 0
-1558 1570 0
-70 -1558 1571 0
-1559 1571 0
-70 -1559 1572 0
-1560 1572 0
-70 -1560 1573 0
-1561 1573 0
-70 -1561 1574 0
-1562 1574 0
-70 -1562 1575 0
-1563 1575 0
-70 -1563 1576 0
-1564 1576 0
-70 -1564 0
-71 1577 0
-1565 1577 0
-71 -1565 1578 0
-1566 1578 0
-71 -1566 1579 0
-1567 1579 0
-71 -1567 1580 0
-1568 1580 0
-71 -1568 1581 0
-1569 1581 0
-71 -1569 1582 0
-1570 1582 0
-71 -1570 1583 0
-1571 1583 0
-71 -1571 1584 0
-1572 1584 0
-71 -1572 1585 0
-1573 1585 0
-71 -1573 1586 0
-1574 1586 0
-71 -1574 1587 0
-1575 1587 0
-71 -1575 1588 0
-1576 1588 0
-71 -1576 0
-72 1589 0
-1577 1589 0
-72 -1577 1590 0
-1578 1590 0
-72 -1578 1591 0
-1579 1591 0
-72 -1579 1592 0
-1580 1592 0
-72 -1580 1593 0
-1581 1593 0
-72 -1581 1594 0
-1582 1594 0
-72 -1582 1595 0
-1583 1595 0
-72 -1583 1596 0
-1584 1596 0
-72 -1584 1597 0
-1585 1597 0
-72 -1585 1598 0
-1586 1598 0
-72 -1586 1599 0
-1587 1599 0
-72 -1587 1600 0
-1588 1600 0
-72 -1588 0
-73 1601 0
-1589 1601 0
-73 -1589 1602 0
-1590 1602 0
-73 -1590 1603 0
-1591 1603 0
-73 -1591 1604 0
-1592 1604 0
-73 -1592 1605 0
-1593 1605 0
-73 -1593 1606 0
-1594 1606 0
-73 -1594 1607 0
-1595 1607 0
-73 -1595 1608 0
-1596 1608 0
-73 -1596 1609 0
-1597 1609 0
-73 -1597 1610 0
-1598 1610 0
-73 -1598 1611 0
-1599 1611 0
-73 -1599 1612 0
-1600 1612 0
-73 -1600 0
-74 1613 0
-1601 1613 0
-74 -1601 1614 0
-1602 1614 0
-74 -1602 1615 0
-1603 1615 0
-74 -1603 1616 0
-1604 1616 0
-74 -1604 1617 0
-1605 1617 0
-74 -1605 1618 0
-1606 1618 0
-74 -1606 1619 0
-1607 1619 0
-74 -1607 1620 0
-1608 1620 0
-74 -1608 1621 0
-1609 1621 0
-74 -1609 1622 0
-1610 1622 0
-74 -1610 1623 0
-1611 1623 0
-74 -1611 1624 0
-1612 1624 0
-74 -1612 0
-75 1625 0
-1613 1625 0
-75 -1613 1626 0
-1614 1626 0
-75 -1614 1627 0
-1615 1627 0
-75 -1615 1628 0
-1616 1628 0
-75 -1616 1629 0
-1617 1629 0
-75 -1617 1630 0
-1618 1630 0
-75 -1618 1631 0
-1619 1631 0
-75 -1619 1632 0
-1620 1632 0
-75 -1620 1633 0
-1621 1633 0
-75 -1621 1634 0
-1622 1634 0
-75 -1622 1635 0
-1623 1635 0
-75 -1623 1636 0
-1624 1636 0
-75 -1624 0
-76 1637 0
-1625 1637 0
-76 -1625 1638 0
-1626 1638 0
-76 -1626 1639 0
-1627 1639 0
-76 -1627 1640 0
-1628 1640 0
-76 -1628 1641 0
-1629 1641 0
-76 -1629 1642 0
-1630 1642 0
-76 -1630 1643 0
-1631 1643 0
-76 -1631 1644 0
-1632 1644 0
-76 -1632 1645 0
-1633 1645 0
-76 -1633 1646 0
-1634 1646 0
-76 -1634 1647 0
-1635 1647 0
-76 -1635 1648 0
-1636 1648 0
-76 -1636 0
-77 1649 0
-1637 1649 0
-77 -1637 1650 0
-1638 1650 0
-77 -1638 1651 0
-1639 1651 0
-77 -1639 1652 0
-1640 1652 0
-77 -1640 1653 0
-1641 1653 0
-77 -1641 1654 0
-1642 1654 0
-77 -1642 1655 0
-1643 1655 0
-77 -1643 1656 0
-1644 1656 0
-77 -1644 1657 0
-1645 1657 0
-77 -1645 1658 0
-1646 1658 0
-77 -1646 1659 0
-1647 1659 0
-77 -1647 1660 0
-1648 1660 0
-77 -1648 0
-78 1661 0
-1649 1661 0
-78 -1649 1662 0
-1650 1662 0
-78 -1650 1663 0
-1651 1663 0
-78 -1651 1664 0
-1652 1664 0
-78 -1652 1665 0
-1653 1665 0
-78 -1653 1666 0
-1654 1666 0
-78 -1654 1667 0
-1655 1667 0
-78 -1655 1668 0
-1656 1668 0
-78 -1656 1669 0
-1657 1669 0
-78 -1657 1670 0
-1658 1670 0
-78 -1658 1671 0
-1659 1671 0
-78 -1659 1672 0
-1660 1672 0
-78 -1660 0
-79 1673 0
-1661 1673 0
-79 -1661 1674 0
-1662 1674 0
-79 -1662 1675 0
-1663 1675 0
-79 -1663 1676 0
-1664 1676 0
-79 -1664 1677 0
-1665 1677 0
-79 -1665 1678 0
-1666 1678 0
-79 -1666 1679 0
-1667 1679 0
-79 -1667 1680 0
-1668 1680 0
-79 -1668 1681 0
-1669 1681 0
-79 -1669 1682 0
-1670 1682 0
-79 -1670 1683 0
-1671 1683 0
-79 -1671 1684 0
-1672 1684 0
-79 -1672 0
-80 1685 0
-1673 1685 0
-80 -1673 1686 0
-1674 1686 0
-80 -1674 1687 0
-1675 1687 0
-80 -1675 1688 0
-1676 1688 0
-80 -1676 1689 0
-1677 1689 0
-80 -1677 1690 0
-1678 1690 0
-80 -1678 1691 0
-1679 1691 0
-80 -1679 1692 0
-1680 1692 0
-80 -1680 1693 0
-1681 1693 0
-80 -1681 1694 0
-1682 1694 0
-80 -1682 1695 0
-1683 1695 0
-80 -1683 1696 0
-1684 1696 0
-80 -1684 0
-81 1697 0
-1685 1697 0
-81 -1685 1698 0
-1686 1698 0
-81 -1686 1699 0
-1687 1699 0
-81 -1687 1700 0
-1688 1700 0
-81 -1688 1701 0
-1689 1701 0
-81 -1689 1702 0
-1690 1702 0
-81 -1690 1703 0
-1691 1703 0
-81 -1691 1704 0
-1692 1704 0
-81 -1692 1705 0
-1693 1705 0
-81 -1693 1706 0
-1694 1706 0
-81 -1694 1707 0
-1695 1707 0
-81 -1695 1708 0
-1696 1708 0
-81 -1696 0
-82 1709 0
-1697 1709 0
-82 -1697 1710 0
-1698 1710 0
-82 -1698 1711 0
-1699 1711 0
-82 -1699 1712 0
-1700 1712 0
-82 -1700 1713 0
-1701 1713 0
-82 -1701 1714 0
-1702 1714 0
-82 -1702 1715 0
-1703 1715 0
-82 -1703 1716 0
-1704 1716 0
-82 -1704 1717 0
-1705 1717 0
-82 -1705 1718 0
-1706 1718 0
-82 -1706 1719 0
-1707 1719 0
-82 -1707 1720 0
-1708 1720 0
-82 -1708 0
-83 1721 0
-1709 1721 0
-83 -1709 1722 0
-1710 1722 0
-83 -1710 1723 0
-1711 1723 0
-83 -1711 1724 0
-1712 1724 0
-83 -1712 1725 0
-1713 1725 0
-83 -1713 1726 0
-1714 1726 0
-83 -1714 1727 0
-1715 1727 0
-83 -1715 1728 0
-1716 1728 0
-83 -1716 1729 0
-1717 1729 0
-83 -1717 1730 0
-1718 1730 0
-83 -1718 1731 0
-1719 1731 0
-83 -1719 1732 0
-1720 1732 0
-83 -1720 0
-84 1733 0
-1721 1733 0
-84 -1721 1734 0
-1722 1734 0
-84 -1722 1735 0
-1723 1735 0
-84 -1723 1736 0
-1724 1736 0
-84 -1724 1737 0
-1725 1737 0
-84 -1725 1738 0
-1726 1738 0
-84 -1726 1739 0
-1727 1739 0
-84 -1727 1740 0
-1728 1740 0
-84 -1728 1741 0
-1729 1741 0
-84 -1729 1742 0
-1730 1742 0
-84 -1730 1743 0
-1731 1743 0
-84 -1731 1744 0
-1732 1744 0
-84 -1732 0
-85 1745 0
-1733 1745 0
-85 -1733 1746 0
-1734 1746 0
-85 -1734 1747 0
-1735 1747 0
-85 -1735 1748 0
-1736 1748 0
-85 -1736 1749 0
-1737 1749 0
-85 -1737 1750 0
-1738 1750 0
-85 -1738 1751 0
-1739 1751 0
-85 -1739 1752 0
-1740 1752 0
-85 -1740 1753 0
-1741 1753 0
-85 -1741 1754 0
-1742 1754 0
-85 -1742 1755 0
-1743 1755 0
-85 -1743 1756 0
-1744 1756 0
-85 -1744 0
-86 1757 0
-1745 1757 0
-86 -1745 1758 0
-1746 1758 0
-86 -1746 1759 0
-1747 1759 0
-86 -1747 1760 0
-1748 1760 0
-86 -1748 1761 0
-1749 1761 0
-86 -1749 1762 0
-1750 1762 0
-86 -1750 1763 0
-1751 1763 0
-86 -1751 1764 0
-1752 1764 0
-86 -1752 1765 0
-1753 1765 0
-86 -1753 1766 0
-1754 1766 0
-86 -1754 1767 0
-1755 1767 0
-86 -1755 1768 0
-1756 1768 0
-86 -1756 0
-87 1769 0
-1757 1769 0
-87 -1757 1770 0
-1758 1770 0
-87 -1758 1771 0
-1759 1771 0
-87 -1759 1772 0
-1760 1772 0
-87 -1760 1773 0
-1761 1773 0
-87 -1761 1774 0
-1762 1774 0
-87 -1762 1775 0
-1763 1775 0
-87 -1763 1776 0
-1764 1776 0
-87 -1764 1777 0
-1765 1777 0
-87 -1765 1778 0
-1766 1778 0
-87 -1766 1779 0
-1767 1779 0
-87 -1767 1780 0
-1768 1780 0
-87 -1768 0
-88 1781 0
-1769 1781 0
-88 -1769 1782 0
-1770 1782 0
-88 -1770 1783 0
-1771 1783 0
-88 -1771 1784 0
-1772 1784 0
-88 -1772 1785 0
-1773 1785 0
-88 -1773 1786 0
-1774 1786 0
-88 -1774 1787 0
-1775 1787 0
-88 -1775 1788 0
-1776 1788 0
-88 -1776 1789 0
-1777 1789 0
-88 -1777 1790 0
-1778 1790 0
-88 -1778 1791 0
-1779 1791 0
-88 -1779 1792 0
-1780 1792 0
-88 -1780 0
-89 1793 0
-1781 1793 0
-89 -1781 1794 0
-1782 1794 0
-89 -1782 1795 0
-1783 1795 0
-89 -1783 1796 0
-1784 1796 0
-89 -1784 1797 0
-1785 1797 0
-89 -1785 1798 0
-1786 1798 0
-89 -1786 1799 0
-1787 1799 0
-89 -1787 1800 0
-1788 1800 0
-89 -1788 1801 0
-1789 1801 0
-89 -1789 1802 0
-1790 1802 0
-89 -1790 1803 0
-1791 1803 0
-89 -1791 1804 0
-1792 1804 0
-89 -1792 0
-90 1805 0
-1793 1805 0
-90 -1793 1806 0
-1794 1806 0
-90 -1794 1807 0
-1795 1807 0
-90 -1795 1808 0
-1796 1808 0
-90 -1796 1809 0
-1797 1809 0
-90 -1797 1810 0
-1798 1810 0
-90 -1798 1811 0
-1799 1811 0
-90 -1799 1812 0
-1800 1812 0
-90 -1800 1813 0
-1801 1813 0
-90 -1801 1814 0
-1802 1814 0
-90 -1802 1815 0
-1803 1815 0
-90 -1803 1816 0
-1804 1816 0
-90 -1804 0
-91 1817 0
-1805 1817 0
-91 -1805 1818 0
-1806 1818 0
-91 -1806 1819 0
-1807 1819 0
-91 -1807 1820 0
-1808 1820 0
-91 -1808 1821 0
-1809 1821 0
-91 -1809 1822 0
-1810 1822 0
-91 -1810 1823 0
-1811 1823 0
-91 -1811 1824 0
-1812 1824 0
-91 -1812 1825 0
-1813 1825 0
-91 -1813 1826 0
-1814 1826 0
-91 -1814 1827 0
-1815 1827 0
-91 -1815 1828 0
-1816 1828 0
-91 -1816 0
-92 1829 0
-1817 1829 0
-92 -1817 1830 0
-1818 1830 0
-92 -1818 1831 0
-1819 1831 0
-92 -1819 1832 0
-1820 1832 0
-92 -1820 1833 0
-1821 1833 0
-92 -1821 1834 0
-1822 1834 0
-92 -1822 1835 0
-1823 1835 0
-92 -1823 1836 0
-1824 1836 0
-92 -1824 1837 0
-1825 1837 0
-92 -1825 1838 0
-1826 1838 0
-92 -1826 1839 0
-1827 1839 0
-92 -1827 1840 0
-1828 1840 0
-92 -1828 0
-93 1841 0
-1829 1841 0
-93 -1829 1842 0
-1830 1842 0
-93 -1830 1843 0
-1831 1843 0
-93 -1831 1844 0
-1832 1844 0
-93 -1832 1845 0
-1833 1845 0
-93 -1833 1846 0
-1834 1846 0
-93 -1834 1847 0
-1835 1847 0
-93 -1835 1848 0
-1836 1848 0
-93 -1836 1849 0
-1837 1849 0
-93 -1837 1850 0
-1838 1850 0
-93 -1838 1851 0
-1839 1851 0
-93 -1839 1852 0
-1840 1852 0
-93 -1840 0
-94 1853 0
-1841 1853 0
-94 -1841 1854 0
-1842 1854 0
-94 -1842 1855 0
-1843 1855 0
-94 -1843 1856 0
-1844 1856 0
-94 -1844 1857 0
-1845 1857 0
-94 -1845 1858 0
-1846 1858 0
-94 -1846 1859 0
-1847 1859 0
-94 -1847 1860 0
-1848 1860 0
-94 -1848 1861 0
-1849 1861 0
-94 -1849 1862 0
-1850 1862 0
-94 -1850 1863 0
-1851 1863 0
-94 -1851 1864 0
-1852 1864 0
-94 -1852 0
-95 1865 0
-1853 1865 0
-95 -1853 1866 0
-1854 1866 0
-95 -1854 1867 0
-1855 1867 0
-95 -1855 1868 0
-1856 1868 0
-95 -1856 1869 0
-1857 1869 0
-95 -1857 1870 0
-1858 1870 0
-95 -1858 1871 0
-1859 1871 0
-95 -1859 1872 0
-1860 1872 0
-95 -1860 1873 0
-1861 1873 0
-95 -1861 1874 0
-1862 1874 0
-95 -1862 1875 0
-1863 1875 0
-95 -1863 1876 0
-1864 1876 0
-95 -1864 0
-96 1877 0
-1865 1877 0
-96 -1865 1878 0
-1866 1878 0
-96 -1866 1879 0
-1867 1879 0
-96 -1867 1880 0
-1868 1880 0
-96 -1868 1881 0
-1869 1881 0
-96 -1869 1882 0
-1870 1882 0
-96 -1870 1883 0
-1871 1883 0
-96 -1871 1884 0
-1872 1884 0
-96 -1872 1885 0
-1873 1885 0
-96 -1873 1886 0
-1874 1886 0
-96 -1874 1887 0
-1875 1887 0
-96 -1875 1888 0
-1876 1888 0
-96 -1876 0
-97 1889 0
-1877 1889 0
-97 -1877 1890 0
-1878 1890 0
-97 -1878 1891 0
-1879 1891 0
-97 -1879 1892 0
-1880 1892 0
-97 -1880 1893 0
-1881 1893 0
-97 -1881 1894 0
-1882 1894 0
-97 -1882 1895 0
-1883 1895 0
-97 -1883 1896 0
-1884 1896 0
-97 -1884 1897 0
-1885 1897 0
-97 -1885 1898 0
-1886 1898 0
-97 -1886 1899 0
-1887 1899 0
-97 -1887 1900 0
-1888 1900 0
-97 -1888 0
-98 1901 0
-1889 1901 0
-98 -1889 1902 0
-1890 1902 0
-98 -1890 1903 0
-1891 1903 0
-98 -1891 1904 0
-1892 1904 0
-98 -1892 1905 0
-1893 1905 0
-98 -1893 1906 0
-1894 1906 0
-98 -1894 1907 0
-1895 1907 0
-98 -1895 1908 0
-1896 1908 0
-98 -1896 1909 0
-1897 1909 0
-98 -1897 1910 0
-1898 1910 0
-98 -1898 1911 0
-1899 1911 0
-98 -1899 1912 0
-1900 1912 0
-98 -1900 0
-99 1913 0
-1901 1913 0
-99 -1901 1914 0
-1902 1914 0
-99 -1902 1915 0
-1903 1915 0
-99 -1903 1916 0
-1904 1916 0
-99 -1904 1917 0
-1905 1917 0
-99 -1905 1918 0
-1906 1918 0
-99 -1906 1919 0
-1907 1919 0
-99 -1907 1920 0
-1908 1920 0
-99 -1908 1921 0
-1909 1921 0
-99 -1909 1922 0
-1910 1922 0
-99 -1910 1923 0
-1911 1923 0
-99 -1911 1924 0
-1912 1924 0
-99 -1912 0
-100 1925 0
-1913 1925 0
-100 -1913 1926 0
-1914 1926 0
-100 -1914 1927 0
-1915 1927 0
-100 -1915 1928 0
-1916 1928 0
-100 -1916 1929 0
-1917 1929 0
-100 -1917 1930 0
-1918 1930 0
-100 -1918 1931 0
-1919 1931 0
-100 -1919 1932 0
-1920 1932 0
-100 -1920 1933 0
-1921 1933 0
-100 -1921 1934 0
-1922 1934 0
-100 -1922 1935 0
-1923 1935 0
-100 -1923 1936 0
-1924 1936 0
-100 -1924 0
-101 1937 0
-1925 1937 0
-101 -1925 1938 0
-1926 1938 0
-101 -1926 1939 0
-1927 1939 0
-101 -1927 1940 0
-1928 1940 0
-101 -1928 1941 0
-1929 1941 0
-101 -1929 1942 0
-1930 1942 0
-101 -1930 1943 0
-1931 1943 0
-101 -1931 1944 0
-1932 1944 0
-101 -1932 1945 0
-1933 1945 0
-101 -1933 1946 0
-1934 1946 0
-101 -1934 1947 0
-1935 1947 0
-101 -1935 1948 0
-1936 1948 0
-101 -1936 0
-102 1949 0
-1937 1949 0
-102 -1937 1950 0
-1938 1950 0
-102 -1938 1951 0
-1939 1951 0
-102 -1939 1952 0
-1940 1952 0
-102 -1940 1953 0
-1941 1953 0
-102 -1941 1954 0
-1942 1954 0
-102 -1942 1955 0
-1943 1955 0
-102 -1943 1956 0
-1944 1956 0
-102 -1944 1957 0
-1945 1957 0
-102 -1945 1958 0
-1946 1958 0
-102 -1946 1959 0
-1947 1959 0
-102 -1947 1960 0
-1948 1960 0
-102 -1948 0
-103 1961 0
-1949 1961 0
-103 -1949 1962 0
-1950 1962 0
-103 -1950 1963 0
-1951 1963 0
-103 -1951 1964 0
-1952 1964 0
-103 -1952 1965 0
-1953 1965 0
-103 -1953 1966 0
-1954 1966 0
-103 -1954 1967 0
-1955 1967 0
-103 -1955 1968 0
-1956 1968 0
-103 -1956 1969 0
-1957 1969 0
-103 -1957 1970 0
-1958 1970 0
-103 -1958 1971 0
-1959 1971 0
-103 -1959 1972 0
-1960 1972 0
-103 -1960 0
-104 1973 0
-1961 1973 0
-104 -1961 1974 0
-1962 1974 0
-104 -1962 1975 0
-1963 1975 0
-104 -1963 1976 0
-1964 1976 0
-104 -1964 1977 0
-1965 1977 0
-104 -1965 1978 0
-1966 1978 0
-104 -1966 1979 0
-1967 1979 0
-104 -1967 1980 0
-1968 1980 0
-104 -1968 1981 0
-1969 1981 0
-104 -1969 1982 0
-1970 1982 0
-104 -1970 1983 0
-1971 1983 0
-104 -1971 1984 0
-1972 1984 0
-104 -1972 0
-105 1985 0
-1973 1985 0
-105 -1973 1986 0
-1974 1986 0
-105 -1974 1987 0
-1975 1987 0
-105 -1975 1988 0
-1976 1988 0
-105 -1976 1989 0
-1977 1989 0
-105 -1977 1990 0
-1978 1990 0
-105 -1978 1991 0
-1979 1991 0
-105 -1979 1992 0
-1980 1992 0
-105 -1980 1993 0
-1981 1993 0
-105 -1981 1994 0
-1982 1994 0
-105 -1982 1995 0
-1983 1995 0
-105 -1983 1996 0
-1984 1996 0
-105 -1984 0
-106 1997 0
-1985 1997 0
-106 -1985 1998 0
-1986 1998 0
-106 -1986 1999 0
-1987 1999 0
-106 -1987 2000 0
-1988 2000 0
-106 -1988 2001 0
-1989 2001 0
-106 -1989 2002 0
-1990 2002 0
-106 -1990 2003 0
-1991 2003 0
-106 -1991 2004 0
-1992 2004 0
-106 -1992 2005 0
-1993 2005 0
-106 -1993 2006 0
-1994 2006 0
-106 -1994 2007 0
-1995 2007 0
-106 -1995 2008 0
-1996 2008 0
-106 -1996 0
-107 2009 0
-1997 2009 0
-107 -1997 2010 0
-1998 2010 0
-107 -1998 2011 0
-1999 2011 0
-107 -1999 2012 0
-2000 2012 0
-107 -2000 2013 0
-2001 2013 0
-107 -2001 2014 0
-2002 2014 0
-107 -2002 2015 0
-2003 2015 0
-107 -2003 2016 0
-2004 2016 0
-107 -2004 2017 0
-2005 2017 0
-107 -2005 2018 0
-2006 2018 0
-107 -2006 2019 0
-2007 2019 0
-107 -2007 2020 0
-2008 2020 0
-107 -2008 0
-108 2021 0
-2009 2021 0
-108 -2009 2022 0
-2010 2022 0
-108 -2010 2023 0
-2011 2023 0
-108 -2011 2024 0
-2012 2024 0
-108 -2012 2025 0
-2013 2025 0
-108 -2013 2026 0
-2014 2026 0
-108 -2014 2027 0
-2015 2027 0
-108 -2015 2028 0
-2016 2028 0
-108 -2016 2029 0
-2017 2029 0
-108 -2017 2030 0
-2018 2030 0
-108 -2018 2031 0
-2019 2031 0
-108 -2019 2032 0
-2020 2032 0
-108 -2020 0
-109 2033 0
-2021 2033 0
-109 -2021 2034 0
-2022 2034 0
-109 -2022 2035 0
-2023 2035 0
-109 -2023 2036 0
-2024 2036 0
-109 -2024 2037 0
-2025 2037 0
-109 -2025 2038 0
-2026 2038 0
-109 -2026 2039 0
-2027 2039 0
-109 -2027 2040 0
-2028 2040 0
-109 -2028 2041 0
-2029 2041 0
-109 -2029 2042 0
-2030 2042 0
-109 -2030 2043 0
-2031 2043 0
-109 -2031 2044 0
-2032 2044 0
-109 -2032 0
-110 2045 0
-2033 2045 0
-110 -2033 2046 0
-2034 2046 0
-110 -2034 2047 0
-2035 2047 0
-110 -2035 2048 0
-2036 2048 0
-110 -2036 2049 0
-2037 2049 0
-110 -2037 2050 0
-2038 2050 0
-110 -2038 2051 0
-2039 2051 0
-110 -2039 2052 0
-2040 2052 0
-110 -2040 2053 0
-2041 2053 0
-110 -2041 2054 0
-2042 2054 0
-110 -2042 2055 0
-2043 2055 0
-110 -2043 2056 0
-2044 2056 0
-110 -2044 0
-111 2057 0
-2045 2057 0
-111 -2045 2058 0
-2046 2058 0
-111 -2046 2059 0
-2047 2059 0
-111 -2047 2060 0
-2048 2060 0
-111 -2048 2061 0
-2049 2061 0
-111 -2049 2062 0
-2050 2062 0
-111 -2050 2063 0
-2051 2063 0
-111 -2051 2064 0
-2052 2064 0
-111 -2052 2065 0
-2053 2065 0
-111 -2053 2066 0
-2054 2066 0
-111 -2054 2067 0
-2055 2067 0
-111 -2055 2068 0
-2056 2068 0
-111 -2056 0
-112 2069 0
-2057 2069 0
-112 -2057 2070 0
-2058 2070 0
-112 -2058 2071 0
-2059 2071 0
-112 -2059 2072 0
-2060 2072 0
-112 -2060 2073 0
-2061 2073 0
-112 -2061 2074 0
-2062 2074 0
-112 -2062 2075 0
-2063 2075 0
-112 -2063 2076 0
-2064 2076 0
-112 -2064 2077 0
-2065 2077 0
-112 -2065 2078 0
-2066 2078 0
-112 -2066 2079 0
-2067 2079 0
-112 -2067 2080 0
-2068 2080 0
-112 -2068 0
-113 2081 0
-2069 2081 0
-113 -2069 2082 0
-2070 2082 0
-113 -2070 2083 0
-2071 2083 0
-113 -2071 2084 0
-2072 2084 0
-113 -2072 2085 0
-2073 2085 0
-113 -2073 2086 0
-2074 2086 0
-113 -2074 2087 0
-2075 2087 0
-113 -2075 2088 0
-2076 2088 0
-113 -2076 2089 0
-2077 2089 0
-113 -2077 2090 0
-2078 2090 0
-113 -2078 2091 0
-2079 2091 0
-113 -2079 2092 0
-2080 2092 0
-113 -2080 0
-114 2093 0
-2081 2093 0
-114 -2081 2094 0
-2082 2094 0
-114 -2082 2095 0
-2083 2095 0
-114 -2083 2096 0
-2084 2096 0
-114 -2084 2097 0
-2085 2097 0
-114 -2085 2098 0
-2086 2098 0
-114 -2086 2099 0
-2087 2099 0
-114 -2087 2100 0
-2088 2100 0
-114 -2088 2101 0
-2089 2101 0
-114 -2089 2102 0
-2090 2102 0
-114 -2090 2103 0
-2091 2103 0
-114 -2091 2104 0
-2092 2104 0
-114 -2092 0
-115 2105 0
-2093 2105 0
-115 -2093 2106 0
-2094 2106 0
-115 -2094 2107 0
-2095 2107 0
-115 -2095 2108 0
-2096 2108 0
-115 -2096 2109 0
-2097 2109 0
-115 -2097 2110 0
-2098 2110 0
-115 -2098 2111 0
-2099 2111 0
-115 -2099 2112 0
-2100 2112 0
-115 -2100 2113 0
-2101 2113 0
-115 -2101 2114 0
-2102 2114 0
-115 -2102 2115 0
-2103 2115 0
-115 -2103 2116 0
-2104 2116 0
-115 -2104 0
-116 2117 0
-2105 2117 0
-116 -2105 2118 0
-2106 2118 0
-116 -2106 2119 0
-2107 2119 0
-116 -2107 2120 0
-2108 2120 0
-116 -2108 2121 0
-2109 2121 0
-116 -2109 2122 0
-2110 2122 0
-116 -2110 2123 0
-2111 2123 0
-116 -2111 2124 0
-2112 2124 0
-116 -2112 2125 0
-2113 2125 0
-116 -2113 2126 0
-2114 2126 0
-116 -2114 2127 0
-2115 2127 0
-116 -2115 2128 0
-2116 2128 0
-116 -2116 0
-117 2129 0
-2117 2129 0
-117 -2117 2130 0
-2118 2130 0
-117 -2118 2131 0
-2119 2131 0
-117 -2119 2132 0
-2120 2132 0
-117 -2120 2133 0
-2121 2133 0
-117 -2121 2134 0
-2122 2134 0
-117 -2122 2135 0
-2123 2135 0
-117 -2123 2136 0
-2124 2136 0
-117 -2124 2137 0
-2125 2137 0
-117 -2125 2138 0
-2126 2138 0
-117 -2126 2139 0
-2127 2139 0
-117 -2127 2140 0
-2128 2140 0
-117 -2128 0
-118 2141 0
-2129 2141 0
-118 -2129 2142 0
-2130 2142 0
-118 -2130 2143 0
-2131 2143 0
-118 -2131 2144 0
-2132 2144 0
-118 -2132 2145 0
-2133 2145 0
-118 -2133 2146 0
-2134 2146 0
-118 -2134 2147 0
-2135 2147 0
-118 -2135 2148 0
-2136 2148 0
-118 -2136 2149 0
-2137 2149 0
-118 -2137 2150 0
-2138 2150 0
-118 -2138 2151 0
-2139 2151 0
-118 -2139 2152 0
-2140 2152 0
-118 -2140 0
-119 2153 0
-2141 2153 0
-119 -2141 2154 0
-2142 2154 0
-119 -2142 2155 0
-2143 2155 0
-119 -2143 2156 0
-2144 2156 0
-119 -2144 2157 0
-2145 2157 0
-119 -2145 2158 0
-2146 2158 0
-119 -2146 2159 0
-2147 2159 0
-119 -2147 2160 0
-2148 2160 0
-119 -2148 2161 0
-2149 2161 0
-119 -2149 2162 0
-2150 2162 0
-119 -2150 2163 0
-2151 2163 0
-119 -2151 2164 0
-2152 2164 0
-119 -2152 0
-120 2165 0
-2153 2165 0
-120 -2153 2166 0
-2154 2166 0
-120 -2154 2167 0
-2155 2167 0
-120 -2155 2168 0
-2156 2168 0
-120 -2156 2169 0
-2157 2169 0
-120 -2157 2170 0
-2158 2170 0
-120 -2158 2171 0
-2159 2171 0
-120 -2159 2172 0
-2160 2172 0
-120 -2160 2173 0
-2161 2173 0
-120 -2161 2174 0
-2162 2174 0
-120 -2162 2175 0
-2163 2175 0
-120 -2163 2176 0
-2164 2176 0
-120 -2164 0
-121 2177 0
-2165 2177 0
-121 -2165 2178 0
-2166 2178 0
-121 -2166 2179 0
-2167 2179 0
-121 -2167 2180 0
-2168 2180 0
-121 -2168 2181 0
-2169 2181 0
-121 -2169 2182 0
-2170 2182 0
-121 -2170 2183 0
-2171 2183 0
-121 -2171 2184 0
-2172 2184 0
-121 -2172 2185 0
-2173 2185 0
-121 -2173 2186 0
-2174 2186 0
-121 -2174 2187 0
-2175 2187 0
-121 -2175 2188 0
-2176 2188 0
-121 -2176 0
-122 2189 0
-2177 2189 0
-122 -2177 2190 0
-2178 2190 0
-122 -2178 2191 0
-2179 2191 0
-122 -2179 2192 0
-2180 2192 0
-122 -2180 2193 0
-2181 2193 0
-122 -2181 2194 0
-2182 2194 0
-122 -2182 2195 0
-2183 2195 0
-122 -2183 2196 0
-2184 2196 0
-122 -2184 2197 0
-2185 2197 0
-122 -2185 2198 0
-2186 2198 0
-122 -2186 2199 0
-2187 2199 0
-122 -2187 2200 0
-2188 2200 0
-122 -2188 0
-123 2201 0
-2189 2201 0
-123 -2189 2202 0
-2190 2202 0
-123 -2190 2203 0
-2191 2203 0
-123 -2191 2204 0
-2192 2204 0
-123 -2192 2205 0
-2193 2205 0
-123 -2193 2206 0
-2194 2206 0
-123 -2194 2207 0
-2195 2207 0
-123 -2195 2208 0
-2196 2208 0
-123 -2196 2209 0
-2197 2209 0
-123 -2197 2210 0
-2198 2210 0
-123 -2198 2211 0
-2199 2211 0
-123 -2199 2212 0
-2200 2212 0
-123 -2200 0
-124 2213 0
-2201 2213 0
-124 -2201 2214 0
-2202 2214 0
-124 -2202 2215 0
-2203 2215 0
-124 -2203 2216 0
-2204 2216 0
-124 -2204 2217 0
-2205 2217 0
-124 -2205 2218 0
-2206 2218 0
-124 -2206 2219 0
-2207 2219 0
-124 -2207 2220 0
-2208 2220 0
-124 -2208 2221 0
-2209 2221 0
-124 -2209 2222 0
-2210 2222 0
-124 -2210 2223 0
-2211 2223 0
-124 -2211 2224 0
-2212 2224 0
-124 -2212 0
-125 2225 0
-2213 2225 0
-125 -2213 2226 0
-2214 2226 0
-125 -2214 2227 0
-2215 2227 0
-125 -2215 2228 0
-2216 2228 0
-125 -2216 2229 0
-2217 2229 0
-125 -2217 2230 0
-2218 2230 0
-125 -2218 2231 0
-2219 2231 0
-125 -2219 2232 0
-2220 2232 0
-125 -2220 2233 0
-2221 2233 0
-125 -2221 2234 0
-2222 2234 0
-125 -2222 2235 0
-2223 2235 0
-125 -2223 2236 0
-2224 2236 0
-125 -2224 0
-126 2237 0
-2225 2237 0
-126 -2225 2238 0
-2226 2238 0
-126 -2226 2239 0
-2227 2239 0
-126 -2227 2240 0
-2228 2240 0
-126 -2228 2241 0
-2229 2241 0
-126 -2229 2242 0
-2230 2242 0
-126 -2230 2243 0
-2231 2243 0
-126 -2231 2244 0
-2232 2244 0
-126 -2232 2245 0
-2233 2245 0
-126 -2233 2246 0
-2234 2246 0
-126 -2234 2247 0
-2235 2247 0
-126 -2235 2248 0
-2236 2248 0
-126 -2236 0
-127 2249 0
-2237 2249 0
-127 -2237 2250 0
-2238 2250 0
-127 -2238 2251 0
-2239 2251 0
-127 -2239 2252 0
-2240 2252 0
-127 -2240 2253 0
-2241 2253 0
-127 -2241 2254 0
-2242 2254 0
-127 -2242 2255 0
-2243 2255 0
-127 -2243 2256 0
-2244 2256 0
-127 -2244 2257 0
-2245 2257 0
-127 -2245 2258 0
-2246 2258 0
-127 -2246 2259 0
-2247 2259 0
-127 -2247 2260 0
-2248 2260 0
-127 -2248 0
-128 2261 0
-2249 2261 0
-128 -2249 2262 0
-2250 2262 0
-128 -2250 2263 0
-2251 2263 0
-128 -2251 2264 0
-2252 2264 0
-128 -2252 2265 0
-2253 2265 0
-128 -2253 2266 0
-2254 2266 0
-128 -2254 2267 0
-2255 2267 0
-128 -2255 2268 0
-2256 2268 0
-128 -2256 2269 0
-2257 2269 0
-128 -2257 2270 0
-2258 2270 0
-128 -2258 2271 0
-2259 2271 0
-128 -2259 2272 0
-2260 2272 0
-128 -2260 0
-129 2273 0
-2261 2273 0
-129 -2261 2274 0
-2262 2274 0
-129 -2262 2275 0
-2263 2275 0
-129 -2263 2276 0
-2264 2276 0
-129 -2264 2277 0
-2265 2277 0
-129 -2265 2278 0
-2266 2278 0
-129 -2266 2279 0
-2267 2279 0
-129 -2267 2280 0
-2268 2280 0
-129 -2268 2281 0
-2269 2281 0
-129 -2269 2282 0
-2270 2282 0
-129 -2270 2283 0
-2271 2283 0
-129 -2271 2284 0
-2272 2284 0
-129 -2272 0
-130 2285 0
-2273 2285 0
-130 -2273 2286 0
-2274 2286 0
-130 -2274 2287 0
-2275 2287 0
-130 -2275 2288 0
-2276 2288 0
-130 -2276 2289 0
-2277 2289 0
-130 -2277 2290 0
-2278 2290 0
-130 -2278 2291 0
-2279 2291 0
-130 -2279 2292 0
-2280 2292 0
-130 -2280 2293 0
-2281 2293 0
-130 -2281 2294 0
-2282 2294 0
-130 -2282 2295 0
-2283 2295 0
-130 -2283 2296 0
-2284 2296 0
-130 -2284 0
-131 2297 0
-2285 2297 0
-131 -2285 2298 0
-2286 2298 0
-131 -2286 2299 0
-2287 2299 0
-131 -2287 2300 0
-2288 2300 0
-131 -2288 2301 0
-2289 2301 0
-131 -2289 2302 0
-2290 2302 0
-131 -2290 2303 0
-2291 2303 0
-131 -2291 2304 0
-2292 2304 0
-131 -2292 2305 0
-2293 2305 0
-131 -2293 2306 0
-2294 2306 0
-131 -2294 2307 0
-2295 2307 0
-131 -2295 2308 0
-2296 2308 0
-131 -2296 0
-132 2309 0
-2297 2309 0
-132 -2297 2310 0
-2298 2310 0
-132 -2298 2311 0
-2299 2311 0
-132 -2299 2312 0
-2300 2312 0
-132 -2300 2313 0
-2301 2313 0
-132 -2301 2314 0
-2302 2314 0
-132 -2302 2315 0
-2303 2315 0
-132 -2303 2316 0
-2304 2316 0
-132 -2304 2317 0
-2305 2317 0
-132 -2305 2318 0
-2306 2318 0
-132 -2306 2319 0
-2307 2319 0
-132 -2307 2320 0
-2308 2320 0
-132 -2308 0
-133 2321 0
-2309 2321 0
-133 -2309 2322 0
-2310 2322 0
-133 -2310 2323 0
-2311 2323 0
-133 -2311 2324 0
-2312 2324 0
-133 -2312 2325 0
-2313 2325 0
-133 -2313 2326 0
-2314 2326 0
-133 -2314 2327 0
-2315 2327 0
-133 -2315 2328 0
-2316 2328 0
-133 -2316 2329 0
-2317 2329 0
-133 -2317 2330 0
-2318 2330 0
-133 -2318 2331 0
-2319 2331 0
-133 -2319 2332 0
-2320 2332 0
-133 -2320 0
-134 2333 0
-2321 2333 0
-134 -2321 2334 0
-2322 2334 0
-134 -2322 2335 0
-2323 2335 0
-134 -2323 2336 0
-2324 2336 0
-134 -2324 2337 0
-2325 2337 0
-134 -2325 2338 0
-2326 2338 0
-134 -2326 2339 0
-2327 2339 0
-134 -2327 2340 0
-2328 2340 0
-134 -2328 2341 0
-2329 2341 0
-134 -2329 2342 0
-2330 2342 0
-134 -2330 2343 0
-2331 2343 0
-134 -2331 2344 0
-2332 2344 0
-134 -2332 0
-135 2345 0
-2333 2345 0
-135 -2333 2346 0
-2334 2346 0
-135 -2334 2347 0
-2335 2347 0
-135 -2335 2348 0
-2336 2348 0
-135 -2336 2349 0
-2337 2349 0
-135 -2337 2350 0
-2338 2350 0
-135 -2338 2351 0
-2339 2351 0
-135 -2339 2352 0
-2340 2352 0
-135 -2340 2353 0
-2341 2353 0
-135 -2341 2354 0
-2342 2354 0
-135 -2342 2355 0
-2343 2355 0
-135 -2343 2356 0
-2344 2356 0
-135 -2344 0
-136 2357 0
-2345 2357 0
-136 -2345 2358 0
-2346 2358 0
-136 -2346 2359 0
-2347 2359 0
-136 -2347 2360 0
-2348 2360 0
-136 -2348 2361 0
-2349 2361 0
-136 -2349 2362 0
-2350 2362 0
-136 -2350 2363 0
-2351 2363 0
-136 -2351 2364 0
-2352 2364 0
-136 -2352 2365 0
-2353 2365 0
-136 -2353 2366 0
-2354 2366 0
-136 -2354 2367 0
-2355 2367 0
-136 -2355 2368 0
-2356 2368 0
-136 -2356 0
-137 2369 0
-2357 2369 0
-137 -2357 2370 0
-2358 2370 0
-137 -2358 2371 0
-2359 2371 0
-137 -2359 2372 0
-2360 2372 0
-137 -2360 2373 0
-2361 2373 0
-137 -2361 2374 0
-2362 2374 0
-137 -2362 2375 0
-2363 2375 0
-137 -2363 2376 0
-2364 2376 0
-137 -2364 2377 0
-2365 2377 0
-137 -2365 2378 0
-2366 2378 0
-137 -2366 2379 0
-2367 2379 0
-137 -2367 2380 0
-2368 2380 0
-137 -2368 0
-138 2381 0
-2369 2381 0
-138 -2369 2382 0
-2370 2382 0
-138 -2370 2383 0
-2371 2383 0
-138 -2371 2384 0
-2372 2384 0
-138 -2372 2385 0
-2373 2385 0
-138 -2373 2386 0
-2374 2386 0
-138 -2374 2387 0
-2375 2387 0
-138 -2375 2388 0
-2376 2388 0
-138 -2376 2389 0
-2377 2389 0
-138 -2377 2390 0
-2378 2390 0
-138 -2378 2391 0
-2379 2391 0
-138 -2379 2392 0
-2380 2392 0
-138 -2380 0
-139 2393 0
-2381 2393 0
-139 -2381 2394 0
-2382 2394 0
-139 -2382 2395 0
-2383 2395 0
-139 -2383 2396 0
-2384 2396 0
-139 -2384 2397 0
-2385 2397 0
-139 -2385 2398 0
-2386 2398 0
-139 -2386 2399 0
-2387 2399 0
-139 -2387 2400 0
-2388 2400 0
-139 -2388 2401 0
-2389 2401 0
-139 -2389 2402 0
-2390 2402 0
-139 -2390 2403 0
-2391 2403 0
-139 -2391 2404 0
-2392 2404 0
-139 -2392 0
-140 2405 0
-2393 2405 0
-140 -2393 2406 0
-2394 2406 0
-140 -2394 2407 0
-2395 2407 0
-140 -2395 2408 0
-2396 2408 0
-140 -2396 2409 0
-2397 2409 0
-140 -2397 2410 0
-2398 2410 0
-140 -2398 2411 0
-2399 2411 0
-140 -2399 2412 0
-2400 2412 0
-140 -2400 2413 0
-2401 2413 0
-140 -2401 2414 0
-2402 2414 0
-140 -2402 2415 0
-2403 2415 0
-140 -2403 2416 0
-2404 2416 0
-140 -2404 0
-141 2417 0
-2405 2417 0
-141 -2405 2418 0
-2406 2418 0
-141 -2406 2419 0
-2407 2419 0
-141 -2407 2420 0
-2408 2420 0
-141 -2408 2421 0
-2409 2421 0
-141 -2409 2422 0
-2410 2422 0
-141 -2410 2423 0
-2411 2423 0
-141 -2411 2424 0
-2412 2424 0
-141 -2412 2425 0
-2413 2425 0
-141 -2413 2426 0
-2414 2426 0
-141 -2414 2427 0
-2415 2427 0
-141 -2415 2428 0
-2416 2428 0
-141 -2416 0
-142 2429 0
-2417 2429 0
-142 -2417 2430 0
-2418 2430 0
-142 -2418 2431 0
-2419 2431 0
-142 -2419 2432 0
-2420 2432 0
-142 -2420 2433 0
-2421 2433 0
-142 -2421 2434 0
-2422 2434 0
-142 -2422 2435 0
-2423 2435 0
-142 -2423 2436 0
-2424 2436 0
-142 -2424 2437 0
-2425 2437 0
-142 -2425 2438 0
-2426 2438 0
-142 -2426 2439 0
-2427 2439 0
-142 -2427 2440 0
-2428 2440 0
-142 -2428 0
-143 2441 0
-2429 2441 0
-143 -2429 2442 0
-2430 2442 0
-143 -2430 2443 0
-2431 2443 0
-143 -2431 2444 0
-2432 2444 0
-143 -2432 2445 0
-2433 2445 0
-143 -2433 2446 0
-2434 2446 0
-143 -2434 2447 0
-2435 2447 0
-143 -2435 2448 0
-2436 2448 0
-143 -2436 2449 0
-2437 2449 0
-143 -2437 2450 0
-2438 2450 0
-143 -2438 2451 0
-2439 2451 0
-143 -2439 2452 0
-2440 2452 0
-143 -2440 0
-144 -2452 0
