p cnf 4939 27101
-289 10 121 0
-289 -10 -121 0
289 -10 121 0
289 10 -121 0
-290 289 133 0
-290 -289 -133 0
290 -289 133 0
290 289 -133 0
-291 290 150 0
-291 -290 -150 0
291 -290 150 0
291 290 -150 0
-292 291 155 0
-292 -291 -155 0
292 -291 155 0
292 291 -155 0
-293 292 253 0
-293 -292 -253 0
293 -292 253 0
293 292 -253 0
-293 0
-294 11 122 0
-294 -11 -122 0
294 -11 122 0
294 11 -122 0
-295 294 134 0
-295 -294 -134 0
295 -294 134 0
295 294 -134 0
-296 295 151 0
-296 -295 -151 0
296 -295 151 0
296 295 -151 0
-297 296 156 0
-297 -296 -156 0
297 -296 156 0
297 296 -156 0
-298 297 254 0
-298 -297 -254 0
298 -297 254 0
298 297 -254 0
-298 0
-299 12 123 0
-299 -12 -123 0
299 -12 123 0
299 12 -123 0
-300 299 135 0
-300 -299 -135 0
300 -299 135 0
300 299 -135 0
-301 300 145 0
-301 -300 -145 0
301 -300 145 0
301 300 -145 0
-302 301 152 0
-302 -301 -152 0
302 -301 152 0
302 301 -152 0
-303 302 255 0
-303 -302 -255 0
303 -302 255 0
303 302 -255 0
-303 0
-304 1 124 0
-304 -1 -124 0
304 -1 124 0
304 1 -124 0
-305 304 136 0
-305 -304 -136 0
305 -304 136 0
305 304 -136 0
-306 305 146 0
-306 -305 -146 0
306 -305 146 0
306 305 -146 0
-307 306 153 0
-307 -306 -153 0
307 -306 153 0
307 306 -153 0
-308 307 256 0
-308 -307 -256 0
308 -307 256 0
308 307 -256 0
-308 0
-309 2 125 0
-309 -2 -125 0
309 -2 125 0
309 2 -125 0
-310 309 137 0
-310 -309 -137 0
310 -309 137 0
310 309 -137 0
-311 310 147 0
-311 -310 -147 0
311 -310 147 0
311 310 -147 0
-312 311 154 0
-312 -311 -154 0
312 -311 154 0
312 311 -154 0
-313 312 257 0
-313 -312 -257 0
313 -312 257 0
313 312 -257 0
-313 0
-314 3 126 0
-314 -3 -126 0
314 -3 126 0
314 3 -126 0
-315 314 138 0
-315 -314 -138 0
315 -314 138 0
315 314 -138 0
-316 315 148 0
-316 -315 -148 0
316 -315 148 0
316 315 -148 0
-317 316 155 0
-317 -316 -155 0
317 -316 155 0
317 316 -155 0
-318 317 258 0
-318 -317 -258 0
318 -317 258 0
318 317 -258 0
-318 0
-319 4 127 0
-319 -4 -127 0
319 -4 127 0
319 4 -127 0
-320 319 139 0
-320 -319 -139 0
320 -319 139 0
320 319 -139 0
-321 320 149 0
-321 -320 -149 0
321 -320 149 0
321 320 -149 0
-322 321 156 0
-322 -321 -156 0
322 -321 156 0
322 321 -156 0
-323 322 259 0
-323 -322 -259 0
323 -322 259 0
323 322 -259 0
-323 0
-324 5 128 0
-324 -5 -128 0
324 -5 128 0
324 5 -128 0
-325 324 140 0
-325 -324 -140 0
325 -324 140 0
325 324 -140 0
-326 325 145 0
-326 -325 -145 0
326 -325 145 0
326 325 -145 0
-327 326 150 0
-327 -326 -150 0
327 -326 150 0
327 326 -150 0
-328 327 260 0
-328 -327 -260 0
328 -327 260 0
328 327 -260 0
-328 0
-329 6 129 0
-329 -6 -129 0
329 -6 129 0
329 6 -129 0
-330 329 141 0
-330 -329 -141 0
330 -329 141 0
330 329 -141 0
-331 330 146 0
-331 -330 -146 0
331 -330 146 0
331 330 -146 0
-332 331 151 0
-332 -331 -151 0
332 -331 151 0
332 331 -151 0
-333 332 261 0
-333 -332 -261 0
333 -332 261 0
333 332 -261 0
-333 0
-334 7 130 0
-334 -7 -130 0
334 -7 130 0
334 7 -130 0
-335 334 142 0
-335 -334 -142 0
335 -334 142 0
335 334 -142 0
-336 335 147 0
-336 -335 -147 0
336 -335 147 0
336 335 -147 0
-337 336 152 0
-337 -336 -152 0
337 -336 152 0
337 336 -152 0
-338 337 262 0
-338 -337 -262 0
338 -337 262 0
338 337 -262 0
-338 0
-339 8 131 0
-339 -8 -131 0
339 -8 131 0
339 8 -131 0
-340 339 143 0
-340 -339 -143 0
340 -339 143 0
340 339 -143 0
-341 340 148 0
-341 -340 -148 0
341 -340 148 0
341 340 -148 0
-342 341 153 0
-342 -341 -153 0
342 -341 153 0
342 341 -153 0
-343 342 263 0
-343 -342 -263 0
343 -342 263 0
343 342 -263 0
-343 0
-344 9 132 0
-344 -9 -132 0
344 -9 132 0
344 9 -132 0
-345 344 144 0
-345 -344 -144 0
345 -344 144 0
345 344 -144 0
-346 345 149 0
-346 -345 -149 0
346 -345 149 0
346 345 -149 0
-347 346 154 0
-347 -346 -154 0
347 -346 154 0
347 346 -154 0
-348 347 264 0
-348 -347 -264 0
348 -347 264 0
348 347 -264 0
-348 0
-349 1 22 0
-349 -1 -22 0
349 -1 22 0
349 1 -22 0
-350 349 133 0
-350 -349 -133 0
350 -349 133 0
350 349 -133 0
-351 350 162 0
-351 -350 -162 0
351 -350 162 0
351 350 -162 0
-352 351 167 0
-352 -351 -167 0
352 -351 167 0
352 351 -167 0
-353 352 265 0
-353 -352 -265 0
353 -352 265 0
353 352 -265 0
-353 0
-354 2 23 0
-354 -2 -23 0
354 -2 23 0
354 2 -23 0
-355 354 134 0
-355 -354 -134 0
355 -354 134 0
355 354 -134 0
-356 355 163 0
-356 -355 -163 0
356 -355 163 0
356 355 -163 0
-357 356 168 0
-357 -356 -168 0
357 -356 168 0
357 356 -168 0
-358 357 266 0
-358 -357 -266 0
358 -357 266 0
358 357 -266 0
-358 0
-359 3 24 0
-359 -3 -24 0
359 -3 24 0
359 3 -24 0
-360 359 135 0
-360 -359 -135 0
360 -359 135 0
360 359 -135 0
-361 360 157 0
-361 -360 -157 0
361 -360 157 0
361 360 -157 0
-362 361 164 0
-362 -361 -164 0
362 -361 164 0
362 361 -164 0
-363 362 267 0
-363 -362 -267 0
363 -362 267 0
363 362 -267 0
-363 0
-364 4 13 0
-364 -4 -13 0
364 -4 13 0
364 4 -13 0
-365 364 136 0
-365 -364 -136 0
365 -364 136 0
365 364 -136 0
-366 365 158 0
-366 -365 -158 0
366 -365 158 0
366 365 -158 0
-367 366 165 0
-367 -366 -165 0
367 -366 165 0
367 366 -165 0
-368 367 268 0
-368 -367 -268 0
368 -367 268 0
368 367 -268 0
-368 0
-369 5 14 0
-369 -5 -14 0
369 -5 14 0
369 5 -14 0
-370 369 137 0
-370 -369 -137 0
370 -369 137 0
370 369 -137 0
-371 370 159 0
-371 -370 -159 0
371 -370 159 0
371 370 -159 0
-372 371 166 0
-372 -371 -166 0
372 -371 166 0
372 371 -166 0
-373 372 269 0
-373 -372 -269 0
373 -372 269 0
373 372 -269 0
-373 0
-374 6 15 0
-374 -6 -15 0
374 -6 15 0
374 6 -15 0
-375 374 138 0
-375 -374 -138 0
375 -374 138 0
375 374 -138 0
-376 375 160 0
-376 -375 -160 0
376 -375 160 0
376 375 -160 0
-377 376 167 0
-377 -376 -167 0
377 -376 167 0
377 376 -167 0
-378 377 270 0
-378 -377 -270 0
378 -377 270 0
378 377 -270 0
-378 0
-379 7 16 0
-379 -7 -16 0
379 -7 16 0
379 7 -16 0
-380 379 139 0
-380 -379 -139 0
380 -379 139 0
380 379 -139 0
-381 380 161 0
-381 -380 -161 0
381 -380 161 0
381 380 -161 0
-382 381 168 0
-382 -381 -168 0
382 -381 168 0
382 381 -168 0
-383 382 271 0
-383 -382 -271 0
383 -382 271 0
383 382 -271 0
-383 0
-384 8 17 0
-384 -8 -17 0
384 -8 17 0
384 8 -17 0
-385 384 140 0
-385 -384 -140 0
385 -384 140 0
385 384 -140 0
-386 385 157 0
-386 -385 -157 0
386 -385 157 0
386 385 -157 0
-387 386 162 0
-387 -386 -162 0
387 -386 162 0
387 386 -162 0
-388 387 272 0
-388 -387 -272 0
388 -387 272 0
388 387 -272 0
-388 0
-389 9 18 0
-389 -9 -18 0
389 -9 18 0
389 9 -18 0
-390 389 141 0
-390 -389 -141 0
390 -389 141 0
390 389 -141 0
-391 390 158 0
-391 -390 -158 0
391 -390 158 0
391 390 -158 0
-392 391 163 0
-392 -391 -163 0
392 -391 163 0
392 391 -163 0
-393 392 273 0
-393 -392 -273 0
393 -392 273 0
393 392 -273 0
-393 0
-394 10 19 0
-394 -10 -19 0
394 -10 19 0
394 10 -19 0
-395 394 142 0
-395 -394 -142 0
395 -394 142 0
395 394 -142 0
-396 395 159 0
-396 -395 -159 0
396 -395 159 0
396 395 -159 0
-397 396 164 0
-397 -396 -164 0
397 -396 164 0
397 396 -164 0
-398 397 274 0
-398 -397 -274 0
398 -397 274 0
398 397 -274 0
-398 0
-399 11 20 0
-399 -11 -20 0
399 -11 20 0
399 11 -20 0
-400 399 143 0
-400 -399 -143 0
400 -399 143 0
400 399 -143 0
-401 400 160 0
-401 -400 -160 0
401 -400 160 0
401 400 -160 0
-402 401 165 0
-402 -401 -165 0
402 -401 165 0
402 401 -165 0
-403 402 275 0
-403 -402 -275 0
403 -402 275 0
403 402 -275 0
-403 0
-404 12 21 0
-404 -12 -21 0
404 -12 21 0
404 12 -21 0
-405 404 144 0
-405 -404 -144 0
405 -404 144 0
405 404 -144 0
-406 405 161 0
-406 -405 -161 0
406 -405 161 0
406 405 -161 0
-407 406 166 0
-407 -406 -166 0
407 -406 166 0
407 406 -166 0
-408 407 276 0
-408 -407 -276 0
408 -407 276 0
408 407 -276 0
-408 0
-409 1 13 0
-409 -1 -13 0
409 -1 13 0
409 1 -13 0
-410 409 34 0
-410 -409 -34 0
410 -409 34 0
410 409 -34 0
-411 410 174 0
-411 -410 -174 0
411 -410 174 0
411 410 -174 0
-412 411 179 0
-412 -411 -179 0
412 -411 179 0
412 411 -179 0
-413 412 277 0
-413 -412 -277 0
413 -412 277 0
413 412 -277 0
-413 0
-414 2 14 0
-414 -2 -14 0
414 -2 14 0
414 2 -14 0
-415 414 35 0
-415 -414 -35 0
415 -414 35 0
415 414 -35 0
-416 415 175 0
-416 -415 -175 0
416 -415 175 0
416 415 -175 0
-417 416 180 0
-417 -416 -180 0
417 -416 180 0
417 416 -180 0
-418 417 278 0
-418 -417 -278 0
418 -417 278 0
418 417 -278 0
-418 0
-419 3 15 0
-419 -3 -15 0
419 -3 15 0
419 3 -15 0
-420 419 36 0
-420 -419 -36 0
420 -419 36 0
420 419 -36 0
-421 420 169 0
-421 -420 -169 0
421 -420 169 0
421 420 -169 0
-422 421 176 0
-422 -421 -176 0
422 -421 176 0
422 421 -176 0
-423 422 279 0
-423 -422 -279 0
423 -422 279 0
423 422 -279 0
-423 0
-424 4 16 0
-424 -4 -16 0
424 -4 16 0
424 4 -16 0
-425 424 25 0
-425 -424 -25 0
425 -424 25 0
425 424 -25 0
-426 425 170 0
-426 -425 -170 0
426 -425 170 0
426 425 -170 0
-427 426 177 0
-427 -426 -177 0
427 -426 177 0
427 426 -177 0
-428 427 280 0
-428 -427 -280 0
428 -427 280 0
428 427 -280 0
-428 0
-429 5 17 0
-429 -5 -17 0
429 -5 17 0
429 5 -17 0
-430 429 26 0
-430 -429 -26 0
430 -429 26 0
430 429 -26 0
-431 430 171 0
-431 -430 -171 0
431 -430 171 0
431 430 -171 0
-432 431 178 0
-432 -431 -178 0
432 -431 178 0
432 431 -178 0
-433 432 281 0
-433 -432 -281 0
433 -432 281 0
433 432 -281 0
-433 0
-434 6 18 0
-434 -6 -18 0
434 -6 18 0
434 6 -18 0
-435 434 27 0
-435 -434 -27 0
435 -434 27 0
435 434 -27 0
-436 435 172 0
-436 -435 -172 0
436 -435 172 0
436 435 -172 0
-437 436 179 0
-437 -436 -179 0
437 -436 179 0
437 436 -179 0
-438 437 282 0
-438 -437 -282 0
438 -437 282 0
438 437 -282 0
-438 0
-439 7 19 0
-439 -7 -19 0
439 -7 19 0
439 7 -19 0
-440 439 28 0
-440 -439 -28 0
440 -439 28 0
440 439 -28 0
-441 440 173 0
-441 -440 -173 0
441 -440 173 0
441 440 -173 0
-442 441 180 0
-442 -441 -180 0
442 -441 180 0
442 441 -180 0
-443 442 283 0
-443 -442 -283 0
443 -442 283 0
443 442 -283 0
-443 0
-444 8 20 0
-444 -8 -20 0
444 -8 20 0
444 8 -20 0
-445 444 29 0
-445 -444 -29 0
445 -444 29 0
445 444 -29 0
-446 445 169 0
-446 -445 -169 0
446 -445 169 0
446 445 -169 0
-447 446 174 0
-447 -446 -174 0
447 -446 174 0
447 446 -174 0
-448 447 284 0
-448 -447 -284 0
448 -447 284 0
448 447 -284 0
-448 0
-449 9 21 0
-449 -9 -21 0
449 -9 21 0
449 9 -21 0
-450 449 30 0
-450 -449 -30 0
450 -449 30 0
450 449 -30 0
-451 450 170 0
-451 -450 -170 0
451 -450 170 0
451 450 -170 0
-452 451 175 0
-452 -451 -175 0
452 -451 175 0
452 451 -175 0
-453 452 285 0
-453 -452 -285 0
453 -452 285 0
453 452 -285 0
-453 0
-454 10 22 0
-454 -10 -22 0
454 -10 22 0
454 10 -22 0
-455 454 31 0
-455 -454 -31 0
455 -454 31 0
455 454 -31 0
-456 455 171 0
-456 -455 -171 0
456 -455 171 0
456 455 -171 0
-457 456 176 0
-457 -456 -176 0
457 -456 176 0
457 456 -176 0
-458 457 286 0
-458 -457 -286 0
458 -457 286 0
458 457 -286 0
-458 0
-459 11 23 0
-459 -11 -23 0
459 -11 23 0
459 11 -23 0
-460 459 32 0
-460 -459 -32 0
460 -459 32 0
460 459 -32 0
-461 460 172 0
-461 -460 -172 0
461 -460 172 0
461 460 -172 0
-462 461 177 0
-462 -461 -177 0
462 -461 177 0
462 461 -177 0
-463 462 287 0
-463 -462 -287 0
463 -462 287 0
463 462 -287 0
-463 0
-464 12 24 0
-464 -12 -24 0
464 -12 24 0
464 12 -24 0
-465 464 33 0
-465 -464 -33 0
465 -464 33 0
465 464 -33 0
-466 465 173 0
-466 -465 -173 0
466 -465 173 0
466 465 -173 0
-467 466 178 0
-467 -466 -178 0
467 -466 178 0
467 466 -178 0
-468 467 288 0
-468 -467 -288 0
468 -467 288 0
468 467 -288 0
-468 0
-469 13 25 0
-469 -13 -25 0
469 -13 25 0
469 13 -25 0
-470 469 46 0
-470 -469 -46 0
470 -469 46 0
470 469 -46 0
-471 470 145 0
-471 -470 -145 0
471 -470 145 0
471 470 -145 0
-472 471 186 0
-472 -471 -186 0
472 -471 186 0
472 471 -186 0
-473 472 191 0
-473 -472 -191 0
473 -472 191 0
473 472 -191 0
-473 0
-474 14 26 0
-474 -14 -26 0
474 -14 26 0
474 14 -26 0
-475 474 47 0
-475 -474 -47 0
475 -474 47 0
475 474 -47 0
-476 475 146 0
-476 -475 -146 0
476 -475 146 0
476 475 -146 0
-477 476 187 0
-477 -476 -187 0
477 -476 187 0
477 476 -187 0
-478 477 192 0
-478 -477 -192 0
478 -477 192 0
478 477 -192 0
-478 0
-479 15 27 0
-479 -15 -27 0
479 -15 27 0
479 15 -27 0
-480 479 48 0
-480 -479 -48 0
480 -479 48 0
480 479 -48 0
-481 480 147 0
-481 -480 -147 0
481 -480 147 0
481 480 -147 0
-482 481 181 0
-482 -481 -181 0
482 -481 181 0
482 481 -181 0
-483 482 188 0
-483 -482 -188 0
483 -482 188 0
483 482 -188 0
-483 0
-484 16 28 0
-484 -16 -28 0
484 -16 28 0
484 16 -28 0
-485 484 37 0
-485 -484 -37 0
485 -484 37 0
485 484 -37 0
-486 485 148 0
-486 -485 -148 0
486 -485 148 0
486 485 -148 0
-487 486 182 0
-487 -486 -182 0
487 -486 182 0
487 486 -182 0
-488 487 189 0
-488 -487 -189 0
488 -487 189 0
488 487 -189 0
-488 0
-489 17 29 0
-489 -17 -29 0
489 -17 29 0
489 17 -29 0
-490 489 38 0
-490 -489 -38 0
490 -489 38 0
490 489 -38 0
-491 490 149 0
-491 -490 -149 0
491 -490 149 0
491 490 -149 0
-492 491 183 0
-492 -491 -183 0
492 -491 183 0
492 491 -183 0
-493 492 190 0
-493 -492 -190 0
493 -492 190 0
493 492 -190 0
-493 0
-494 18 30 0
-494 -18 -30 0
494 -18 30 0
494 18 -30 0
-495 494 39 0
-495 -494 -39 0
495 -494 39 0
495 494 -39 0
-496 495 150 0
-496 -495 -150 0
496 -495 150 0
496 495 -150 0
-497 496 184 0
-497 -496 -184 0
497 -496 184 0
497 496 -184 0
-498 497 191 0
-498 -497 -191 0
498 -497 191 0
498 497 -191 0
-498 0
-499 19 31 0
-499 -19 -31 0
499 -19 31 0
499 19 -31 0
-500 499 40 0
-500 -499 -40 0
500 -499 40 0
500 499 -40 0
-501 500 151 0
-501 -500 -151 0
501 -500 151 0
501 500 -151 0
-502 501 185 0
-502 -501 -185 0
502 -501 185 0
502 501 -185 0
-503 502 192 0
-503 -502 -192 0
503 -502 192 0
503 502 -192 0
-503 0
-504 20 32 0
-504 -20 -32 0
504 -20 32 0
504 20 -32 0
-505 504 41 0
-505 -504 -41 0
505 -504 41 0
505 504 -41 0
-506 505 152 0
-506 -505 -152 0
506 -505 152 0
506 505 -152 0
-507 506 181 0
-507 -506 -181 0
507 -506 181 0
507 506 -181 0
-508 507 186 0
-508 -507 -186 0
508 -507 186 0
508 507 -186 0
-508 0
-509 21 33 0
-509 -21 -33 0
509 -21 33 0
509 21 -33 0
-510 509 42 0
-510 -509 -42 0
510 -509 42 0
510 509 -42 0
-511 510 153 0
-511 -510 -153 0
511 -510 153 0
511 510 -153 0
-512 511 182 0
-512 -511 -182 0
512 -511 182 0
512 511 -182 0
-513 512 187 0
-513 -512 -187 0
513 -512 187 0
513 512 -187 0
-513 0
-514 22 34 0
-514 -22 -34 0
514 -22 34 0
514 22 -34 0
-515 514 43 0
-515 -514 -43 0
515 -514 43 0
515 514 -43 0
-516 515 154 0
-516 -515 -154 0
516 -515 154 0
516 515 -154 0
-517 516 183 0
-517 -516 -183 0
517 -516 183 0
517 516 -183 0
-518 517 188 0
-518 -517 -188 0
518 -517 188 0
518 517 -188 0
-518 0
-519 23 35 0
-519 -23 -35 0
519 -23 35 0
519 23 -35 0
-520 519 44 0
-520 -519 -44 0
520 -519 44 0
520 519 -44 0
-521 520 155 0
-521 -520 -155 0
521 -520 155 0
521 520 -155 0
-522 521 184 0
-522 -521 -184 0
522 -521 184 0
522 521 -184 0
-523 522 189 0
-523 -522 -189 0
523 -522 189 0
523 522 -189 0
-523 0
-524 24 36 0
-524 -24 -36 0
524 -24 36 0
524 24 -36 0
-525 524 45 0
-525 -524 -45 0
525 -524 45 0
525 524 -45 0
-526 525 156 0
-526 -525 -156 0
526 -525 156 0
526 525 -156 0
-527 526 185 0
-527 -526 -185 0
527 -526 185 0
527 526 -185 0
-528 527 190 0
-528 -527 -190 0
528 -527 190 0
528 527 -190 0
-528 0
-529 25 37 0
-529 -25 -37 0
529 -25 37 0
529 25 -37 0
-530 529 58 0
-530 -529 -58 0
530 -529 58 0
530 529 -58 0
-531 530 157 0
-531 -530 -157 0
531 -530 157 0
531 530 -157 0
-532 531 198 0
-532 -531 -198 0
532 -531 198 0
532 531 -198 0
-533 532 203 0
-533 -532 -203 0
533 -532 203 0
533 532 -203 0
-533 0
-534 26 38 0
-534 -26 -38 0
534 -26 38 0
534 26 -38 0
-535 534 59 0
-535 -534 -59 0
535 -534 59 0
535 534 -59 0
-536 535 158 0
-536 -535 -158 0
536 -535 158 0
536 535 -158 0
-537 536 199 0
-537 -536 -199 0
537 -536 199 0
537 536 -199 0
-538 537 204 0
-538 -537 -204 0
538 -537 204 0
538 537 -204 0
-538 0
-539 27 39 0
-539 -27 -39 0
539 -27 39 0
539 27 -39 0
-540 539 60 0
-540 -539 -60 0
540 -539 60 0
540 539 -60 0
-541 540 159 0
-541 -540 -159 0
541 -540 159 0
541 540 -159 0
-542 541 193 0
-542 -541 -193 0
542 -541 193 0
542 541 -193 0
-543 542 200 0
-543 -542 -200 0
543 -542 200 0
543 542 -200 0
-543 0
-544 28 40 0
-544 -28 -40 0
544 -28 40 0
544 28 -40 0
-545 544 49 0
-545 -544 -49 0
545 -544 49 0
545 544 -49 0
-546 545 160 0
-546 -545 -160 0
546 -545 160 0
546 545 -160 0
-547 546 194 0
-547 -546 -194 0
547 -546 194 0
547 546 -194 0
-548 547 201 0
-548 -547 -201 0
548 -547 201 0
548 547 -201 0
-548 0
-549 29 41 0
-549 -29 -41 0
549 -29 41 0
549 29 -41 0
-550 549 50 0
-550 -549 -50 0
550 -549 50 0
550 549 -50 0
-551 550 161 0
-551 -550 -161 0
551 -550 161 0
551 550 -161 0
-552 551 195 0
-552 -551 -195 0
552 -551 195 0
552 551 -195 0
-553 552 202 0
-553 -552 -202 0
553 -552 202 0
553 552 -202 0
-553 0
-554 30 42 0
-554 -30 -42 0
554 -30 42 0
554 30 -42 0
-555 554 51 0
-555 -554 -51 0
555 -554 51 0
555 554 -51 0
-556 555 162 0
-556 -555 -162 0
556 -555 162 0
556 555 -162 0
-557 556 196 0
-557 -556 -196 0
557 -556 196 0
557 556 -196 0
-558 557 203 0
-558 -557 -203 0
558 -557 203 0
558 557 -203 0
-558 0
-559 31 43 0
-559 -31 -43 0
559 -31 43 0
559 31 -43 0
-560 559 52 0
-560 -559 -52 0
560 -559 52 0
560 559 -52 0
-561 560 163 0
-561 -560 -163 0
561 -560 163 0
561 560 -163 0
-562 561 197 0
-562 -561 -197 0
562 -561 197 0
562 561 -197 0
-563 562 204 0
-563 -562 -204 0
563 -562 204 0
563 562 -204 0
-563 0
-564 32 44 0
-564 -32 -44 0
564 -32 44 0
564 32 -44 0
-565 564 53 0
-565 -564 -53 0
565 -564 53 0
565 564 -53 0
-566 565 164 0
-566 -565 -164 0
566 -565 164 0
566 565 -164 0
-567 566 193 0
-567 -566 -193 0
567 -566 193 0
567 566 -193 0
-568 567 198 0
-568 -567 -198 0
568 -567 198 0
568 567 -198 0
-568 0
-569 33 45 0
-569 -33 -45 0
569 -33 45 0
569 33 -45 0
-570 569 54 0
-570 -569 -54 0
570 -569 54 0
570 569 -54 0
-571 570 165 0
-571 -570 -165 0
571 -570 165 0
571 570 -165 0
-572 571 194 0
-572 -571 -194 0
572 -571 194 0
572 571 -194 0
-573 572 199 0
-573 -572 -199 0
573 -572 199 0
573 572 -199 0
-573 0
-574 34 46 0
-574 -34 -46 0
574 -34 46 0
574 34 -46 0
-575 574 55 0
-575 -574 -55 0
575 -574 55 0
575 574 -55 0
-576 575 166 0
-576 -575 -166 0
576 -575 166 0
576 575 -166 0
-577 576 195 0
-577 -576 -195 0
577 -576 195 0
577 576 -195 0
-578 577 200 0
-578 -577 -200 0
578 -577 200 0
578 577 -200 0
-578 0
-579 35 47 0
-579 -35 -47 0
579 -35 47 0
579 35 -47 0
-580 579 56 0
-580 -579 -56 0
580 -579 56 0
580 579 -56 0
-581 580 167 0
-581 -580 -167 0
581 -580 167 0
581 580 -167 0
-582 581 196 0
-582 -581 -196 0
582 -581 196 0
582 581 -196 0
-583 582 201 0
-583 -582 -201 0
583 -582 201 0
583 582 -201 0
-583 0
-584 36 48 0
-584 -36 -48 0
584 -36 48 0
584 36 -48 0
-585 584 57 0
-585 -584 -57 0
585 -584 57 0
585 584 -57 0
-586 585 168 0
-586 -585 -168 0
586 -585 168 0
586 585 -168 0
-587 586 197 0
-587 -586 -197 0
587 -586 197 0
587 586 -197 0
-588 587 202 0
-588 -587 -202 0
588 -587 202 0
588 587 -202 0
-588 0
-589 37 49 0
-589 -37 -49 0
589 -37 49 0
589 37 -49 0
-590 589 70 0
-590 -589 -70 0
590 -589 70 0
590 589 -70 0
-591 590 169 0
-591 -590 -169 0
591 -590 169 0
591 590 -169 0
-592 591 210 0
-592 -591 -210 0
592 -591 210 0
592 591 -210 0
-593 592 215 0
-593 -592 -215 0
593 -592 215 0
593 592 -215 0
-593 0
-594 38 50 0
-594 -38 -50 0
594 -38 50 0
594 38 -50 0
-595 594 71 0
-595 -594 -71 0
595 -594 71 0
595 594 -71 0
-596 595 170 0
-596 -595 -170 0
596 -595 170 0
596 595 -170 0
-597 596 211 0
-597 -596 -211 0
597 -596 211 0
597 596 -211 0
-598 597 216 0
-598 -597 -216 0
598 -597 216 0
598 597 -216 0
-598 0
-599 39 51 0
-599 -39 -51 0
599 -39 51 0
599 39 -51 0
-600 599 72 0
-600 -599 -72 0
600 -599 72 0
600 599 -72 0
-601 600 171 0
-601 -600 -171 0
601 -600 171 0
601 600 -171 0
-602 601 205 0
-602 -601 -205 0
602 -601 205 0
602 601 -205 0
-603 602 212 0
-603 -602 -212 0
603 -602 212 0
603 602 -212 0
-603 0
-604 40 52 0
-604 -40 -52 0
604 -40 52 0
604 40 -52 0
-605 604 61 0
-605 -604 -61 0
605 -604 61 0
605 604 -61 0
-606 605 172 0
-606 -605 -172 0
606 -605 172 0
606 605 -172 0
-607 606 206 0
-607 -606 -206 0
607 -606 206 0
607 606 -206 0
-608 607 213 0
-608 -607 -213 0
608 -607 213 0
608 607 -213 0
-608 0
-609 41 53 0
-609 -41 -53 0
609 -41 53 0
609 41 -53 0
-610 609 62 0
-610 -609 -62 0
610 -609 62 0
610 609 -62 0
-611 610 173 0
-611 -610 -173 0
611 -610 173 0
611 610 -173 0
-612 611 207 0
-612 -611 -207 0
612 -611 207 0
612 611 -207 0
-613 612 214 0
-613 -612 -214 0
613 -612 214 0
613 612 -214 0
-613 0
-614 42 54 0
-614 -42 -54 0
614 -42 54 0
614 42 -54 0
-615 614 63 0
-615 -614 -63 0
615 -614 63 0
615 614 -63 0
-616 615 174 0
-616 -615 -174 0
616 -615 174 0
616 615 -174 0
-617 616 208 0
-617 -616 -208 0
617 -616 208 0
617 616 -208 0
-618 617 215 0
-618 -617 -215 0
618 -617 215 0
618 617 -215 0
-618 0
-619 43 55 0
-619 -43 -55 0
619 -43 55 0
619 43 -55 0
-620 619 64 0
-620 -619 -64 0
620 -619 64 0
620 619 -64 0
-621 620 175 0
-621 -620 -175 0
621 -620 175 0
621 620 -175 0
-622 621 209 0
-622 -621 -209 0
622 -621 209 0
622 621 -209 0
-623 622 216 0
-623 -622 -216 0
623 -622 216 0
623 622 -216 0
-623 0
-624 44 56 0
-624 -44 -56 0
624 -44 56 0
624 44 -56 0
-625 624 65 0
-625 -624 -65 0
625 -624 65 0
625 624 -65 0
-626 625 176 0
-626 -625 -176 0
626 -625 176 0
626 625 -176 0
-627 626 205 0
-627 -626 -205 0
627 -626 205 0
627 626 -205 0
-628 627 210 0
-628 -627 -210 0
628 -627 210 0
628 627 -210 0
-628 0
-629 45 57 0
-629 -45 -57 0
629 -45 57 0
629 45 -57 0
-630 629 66 0
-630 -629 -66 0
630 -629 66 0
630 629 -66 0
-631 630 177 0
-631 -630 -177 0
631 -630 177 0
631 630 -177 0
-632 631 206 0
-632 -631 -206 0
632 -631 206 0
632 631 -206 0
-633 632 211 0
-633 -632 -211 0
633 -632 211 0
633 632 -211 0
-633 0
-634 46 58 0
-634 -46 -58 0
634 -46 58 0
634 46 -58 0
-635 634 67 0
-635 -634 -67 0
635 -634 67 0
635 634 -67 0
-636 635 178 0
-636 -635 -178 0
636 -635 178 0
636 635 -178 0
-637 636 207 0
-637 -636 -207 0
637 -636 207 0
637 636 -207 0
-638 637 212 0
-638 -637 -212 0
638 -637 212 0
638 637 -212 0
-638 0
-639 47 59 0
-639 -47 -59 0
639 -47 59 0
639 47 -59 0
-640 639 68 0
-640 -639 -68 0
640 -639 68 0
640 639 -68 0
-641 640 179 0
-641 -640 -179 0
641 -640 179 0
641 640 -179 0
-642 641 208 0
-642 -641 -208 0
642 -641 208 0
642 641 -208 0
-643 642 213 0
-643 -642 -213 0
643 -642 213 0
643 642 -213 0
-643 0
-644 48 60 0
-644 -48 -60 0
644 -48 60 0
644 48 -60 0
-645 644 69 0
-645 -644 -69 0
645 -644 69 0
645 644 -69 0
-646 645 180 0
-646 -645 -180 0
646 -645 180 0
646 645 -180 0
-647 646 209 0
-647 -646 -209 0
647 -646 209 0
647 646 -209 0
-648 647 214 0
-648 -647 -214 0
648 -647 214 0
648 647 -214 0
-648 0
-649 49 61 0
-649 -49 -61 0
649 -49 61 0
649 49 -61 0
-650 649 82 0
-650 -649 -82 0
650 -649 82 0
650 649 -82 0
-651 650 181 0
-651 -650 -181 0
651 -650 181 0
651 650 -181 0
-652 651 222 0
-652 -651 -222 0
652 -651 222 0
652 651 -222 0
-653 652 227 0
-653 -652 -227 0
653 -652 227 0
653 652 -227 0
-653 0
-654 50 62 0
-654 -50 -62 0
654 -50 62 0
654 50 -62 0
-655 654 83 0
-655 -654 -83 0
655 -654 83 0
655 654 -83 0
-656 655 182 0
-656 -655 -182 0
656 -655 182 0
656 655 -182 0
-657 656 223 0
-657 -656 -223 0
657 -656 223 0
657 656 -223 0
-658 657 228 0
-658 -657 -228 0
658 -657 228 0
658 657 -228 0
-658 0
-659 51 63 0
-659 -51 -63 0
659 -51 63 0
659 51 -63 0
-660 659 84 0
-660 -659 -84 0
660 -659 84 0
660 659 -84 0
-661 660 183 0
-661 -660 -183 0
661 -660 183 0
661 660 -183 0
-662 661 217 0
-662 -661 -217 0
662 -661 217 0
662 661 -217 0
-663 662 224 0
-663 -662 -224 0
663 -662 224 0
663 662 -224 0
-663 0
-664 52 64 0
-664 -52 -64 0
664 -52 64 0
664 52 -64 0
-665 664 73 0
-665 -664 -73 0
665 -664 73 0
665 664 -73 0
-666 665 184 0
-666 -665 -184 0
666 -665 184 0
666 665 -184 0
-667 666 218 0
-667 -666 -218 0
667 -666 218 0
667 666 -218 0
-668 667 225 0
-668 -667 -225 0
668 -667 225 0
668 667 -225 0
-668 0
-669 53 65 0
-669 -53 -65 0
669 -53 65 0
669 53 -65 0
-670 669 74 0
-670 -669 -74 0
670 -669 74 0
670 669 -74 0
-671 670 185 0
-671 -670 -185 0
671 -670 185 0
671 670 -185 0
-672 671 219 0
-672 -671 -219 0
672 -671 219 0
672 671 -219 0
-673 672 226 0
-673 -672 -226 0
673 -672 226 0
673 672 -226 0
-673 0
-674 54 66 0
-674 -54 -66 0
674 -54 66 0
674 54 -66 0
-675 674 75 0
-675 -674 -75 0
675 -674 75 0
675 674 -75 0
-676 675 186 0
-676 -675 -186 0
676 -675 186 0
676 675 -186 0
-677 676 220 0
-677 -676 -220 0
677 -676 220 0
677 676 -220 0
-678 677 227 0
-678 -677 -227 0
678 -677 227 0
678 677 -227 0
-678 0
-679 55 67 0
-679 -55 -67 0
679 -55 67 0
679 55 -67 0
-680 679 76 0
-680 -679 -76 0
680 -679 76 0
680 679 -76 0
-681 680 187 0
-681 -680 -187 0
681 -680 187 0
681 680 -187 0
-682 681 221 0
-682 -681 -221 0
682 -681 221 0
682 681 -221 0
-683 682 228 0
-683 -682 -228 0
683 -682 228 0
683 682 -228 0
-683 0
-684 56 68 0
-684 -56 -68 0
684 -56 68 0
684 56 -68 0
-685 684 77 0
-685 -684 -77 0
685 -684 77 0
685 684 -77 0
-686 685 188 0
-686 -685 -188 0
686 -685 188 0
686 685 -188 0
-687 686 217 0
-687 -686 -217 0
687 -686 217 0
687 686 -217 0
-688 687 222 0
-688 -687 -222 0
688 -687 222 0
688 687 -222 0
-688 0
-689 57 69 0
-689 -57 -69 0
689 -57 69 0
689 57 -69 0
-690 689 78 0
-690 -689 -78 0
690 -689 78 0
690 689 -78 0
-691 690 189 0
-691 -690 -189 0
691 -690 189 0
691 690 -189 0
-692 691 218 0
-692 -691 -218 0
692 -691 218 0
692 691 -218 0
-693 692 223 0
-693 -692 -223 0
693 -692 223 0
693 692 -223 0
-693 0
-694 58 70 0
-694 -58 -70 0
694 -58 70 0
694 58 -70 0
-695 694 79 0
-695 -694 -79 0
695 -694 79 0
695 694 -79 0
-696 695 190 0
-696 -695 -190 0
696 -695 190 0
696 695 -190 0
-697 696 219 0
-697 -696 -219 0
697 -696 219 0
697 696 -219 0
-698 697 224 0
-698 -697 -224 0
698 -697 224 0
698 697 -224 0
-698 0
-699 59 71 0
-699 -59 -71 0
699 -59 71 0
699 59 -71 0
-700 699 80 0
-700 -699 -80 0
700 -699 80 0
700 699 -80 0
-701 700 191 0
-701 -700 -191 0
701 -700 191 0
701 700 -191 0
-702 701 220 0
-702 -701 -220 0
702 -701 220 0
702 701 -220 0
-703 702 225 0
-703 -702 -225 0
703 -702 225 0
703 702 -225 0
-703 0
-704 60 72 0
-704 -60 -72 0
704 -60 72 0
704 60 -72 0
-705 704 81 0
-705 -704 -81 0
705 -704 81 0
705 704 -81 0
-706 705 192 0
-706 -705 -192 0
706 -705 192 0
706 705 -192 0
-707 706 221 0
-707 -706 -221 0
707 -706 221 0
707 706 -221 0
-708 707 226 0
-708 -707 -226 0
708 -707 226 0
708 707 -226 0
-708 0
-709 61 73 0
-709 -61 -73 0
709 -61 73 0
709 61 -73 0
-710 709 94 0
-710 -709 -94 0
710 -709 94 0
710 709 -94 0
-711 710 193 0
-711 -710 -193 0
711 -710 193 0
711 710 -193 0
-712 711 234 0
-712 -711 -234 0
712 -711 234 0
712 711 -234 0
-713 712 239 0
-713 -712 -239 0
713 -712 239 0
713 712 -239 0
-713 0
-714 62 74 0
-714 -62 -74 0
714 -62 74 0
714 62 -74 0
-715 714 95 0
-715 -714 -95 0
715 -714 95 0
715 714 -95 0
-716 715 194 0
-716 -715 -194 0
716 -715 194 0
716 715 -194 0
-717 716 235 0
-717 -716 -235 0
717 -716 235 0
717 716 -235 0
-718 717 240 0
-718 -717 -240 0
718 -717 240 0
718 717 -240 0
-718 0
-719 63 75 0
-719 -63 -75 0
719 -63 75 0
719 63 -75 0
-720 719 96 0
-720 -719 -96 0
720 -719 96 0
720 719 -96 0
-721 720 195 0
-721 -720 -195 0
721 -720 195 0
721 720 -195 0
-722 721 229 0
-722 -721 -229 0
722 -721 229 0
722 721 -229 0
-723 722 236 0
-723 -722 -236 0
723 -722 236 0
723 722 -236 0
-723 0
-724 64 76 0
-724 -64 -76 0
724 -64 76 0
724 64 -76 0
-725 724 85 0
-725 -724 -85 0
725 -724 85 0
725 724 -85 0
-726 725 196 0
-726 -725 -196 0
726 -725 196 0
726 725 -196 0
-727 726 230 0
-727 -726 -230 0
727 -726 230 0
727 726 -230 0
-728 727 237 0
-728 -727 -237 0
728 -727 237 0
728 727 -237 0
-728 0
-729 65 77 0
-729 -65 -77 0
729 -65 77 0
729 65 -77 0
-730 729 86 0
-730 -729 -86 0
730 -729 86 0
730 729 -86 0
-731 730 197 0
-731 -730 -197 0
731 -730 197 0
731 730 -197 0
-732 731 231 0
-732 -731 -231 0
732 -731 231 0
732 731 -231 0
-733 732 238 0
-733 -732 -238 0
733 -732 238 0
733 732 -238 0
-733 0
-734 66 78 0
-734 -66 -78 0
734 -66 78 0
734 66 -78 0
-735 734 87 0
-735 -734 -87 0
735 -734 87 0
735 734 -87 0
-736 735 198 0
-736 -735 -198 0
736 -735 198 0
736 735 -198 0
-737 736 232 0
-737 -736 -232 0
737 -736 232 0
737 736 -232 0
-738 737 239 0
-738 -737 -239 0
738 -737 239 0
738 737 -239 0
-738 0
-739 67 79 0
-739 -67 -79 0
739 -67 79 0
739 67 -79 0
-740 739 88 0
-740 -739 -88 0
740 -739 88 0
740 739 -88 0
-741 740 199 0
-741 -740 -199 0
741 -740 199 0
741 740 -199 0
-742 741 233 0
-742 -741 -233 0
742 -741 233 0
742 741 -233 0
-743 742 240 0
-743 -742 -240 0
743 -742 240 0
743 742 -240 0
-743 0
-744 68 80 0
-744 -68 -80 0
744 -68 80 0
744 68 -80 0
-745 744 89 0
-745 -744 -89 0
745 -744 89 0
745 744 -89 0
-746 745 200 0
-746 -745 -200 0
746 -745 200 0
746 745 -200 0
-747 746 229 0
-747 -746 -229 0
747 -746 229 0
747 746 -229 0
-748 747 234 0
-748 -747 -234 0
748 -747 234 0
748 747 -234 0
-748 0
-749 69 81 0
-749 -69 -81 0
749 -69 81 0
749 69 -81 0
-750 749 90 0
-750 -749 -90 0
750 -749 90 0
750 749 -90 0
-751 750 201 0
-751 -750 -201 0
751 -750 201 0
751 750 -201 0
-752 751 230 0
-752 -751 -230 0
752 -751 230 0
752 751 -230 0
-753 752 235 0
-753 -752 -235 0
753 -752 235 0
753 752 -235 0
-753 0
-754 70 82 0
-754 -70 -82 0
754 -70 82 0
754 70 -82 0
-755 754 91 0
-755 -754 -91 0
755 -754 91 0
755 754 -91 0
-756 755 202 0
-756 -755 -202 0
756 -755 202 0
756 755 -202 0
-757 756 231 0
-757 -756 -231 0
757 -756 231 0
757 756 -231 0
-758 757 236 0
-758 -757 -236 0
758 -757 236 0
758 757 -236 0
-758 0
-759 71 83 0
-759 -71 -83 0
759 -71 83 0
759 71 -83 0
-760 759 92 0
-760 -759 -92 0
760 -759 92 0
760 759 -92 0
-761 760 203 0
-761 -760 -203 0
761 -760 203 0
761 760 -203 0
-762 761 232 0
-762 -761 -232 0
762 -761 232 0
762 761 -232 0
-763 762 237 0
-763 -762 -237 0
763 -762 237 0
763 762 -237 0
-763 0
-764 72 84 0
-764 -72 -84 0
764 -72 84 0
764 72 -84 0
-765 764 93 0
-765 -764 -93 0
765 -764 93 0
765 764 -93 0
-766 765 204 0
-766 -765 -204 0
766 -765 204 0
766 765 -204 0
-767 766 233 0
-767 -766 -233 0
767 -766 233 0
767 766 -233 0
-768 767 238 0
-768 -767 -238 0
768 -767 238 0
768 767 -238 0
-768 0
-769 73 85 0
-769 -73 -85 0
769 -73 85 0
769 73 -85 0
-770 769 106 0
-770 -769 -106 0
770 -769 106 0
770 769 -106 0
-771 770 205 0
-771 -770 -205 0
771 -770 205 0
771 770 -205 0
-772 771 246 0
-772 -771 -246 0
772 -771 246 0
772 771 -246 0
-773 772 251 0
-773 -772 -251 0
773 -772 251 0
773 772 -251 0
-773 0
-774 74 86 0
-774 -74 -86 0
774 -74 86 0
774 74 -86 0
-775 774 107 0
-775 -774 -107 0
775 -774 107 0
775 774 -107 0
-776 775 206 0
-776 -775 -206 0
776 -775 206 0
776 775 -206 0
-777 776 247 0
-777 -776 -247 0
777 -776 247 0
777 776 -247 0
-778 777 252 0
-778 -777 -252 0
778 -777 252 0
778 777 -252 0
-778 0
-779 75 87 0
-779 -75 -87 0
779 -75 87 0
779 75 -87 0
-780 779 108 0
-780 -779 -108 0
780 -779 108 0
780 779 -108 0
-781 780 207 0
-781 -780 -207 0
781 -780 207 0
781 780 -207 0
-782 781 241 0
-782 -781 -241 0
782 -781 241 0
782 781 -241 0
-783 782 248 0
-783 -782 -248 0
783 -782 248 0
783 782 -248 0
-783 0
-784 76 88 0
-784 -76 -88 0
784 -76 88 0
784 76 -88 0
-785 784 97 0
-785 -784 -97 0
785 -784 97 0
785 784 -97 0
-786 785 208 0
-786 -785 -208 0
786 -785 208 0
786 785 -208 0
-787 786 242 0
-787 -786 -242 0
787 -786 242 0
787 786 -242 0
-788 787 249 0
-788 -787 -249 0
788 -787 249 0
788 787 -249 0
-788 0
-789 77 89 0
-789 -77 -89 0
789 -77 89 0
789 77 -89 0
-790 789 98 0
-790 -789 -98 0
790 -789 98 0
790 789 -98 0
-791 790 209 0
-791 -790 -209 0
791 -790 209 0
791 790 -209 0
-792 791 243 0
-792 -791 -243 0
792 -791 243 0
792 791 -243 0
-793 792 250 0
-793 -792 -250 0
793 -792 250 0
793 792 -250 0
-793 0
-794 78 90 0
-794 -78 -90 0
794 -78 90 0
794 78 -90 0
-795 794 99 0
-795 -794 -99 0
795 -794 99 0
795 794 -99 0
-796 795 210 0
-796 -795 -210 0
796 -795 210 0
796 795 -210 0
-797 796 244 0
-797 -796 -244 0
797 -796 244 0
797 796 -244 0
-798 797 251 0
-798 -797 -251 0
798 -797 251 0
798 797 -251 0
-798 0
-799 79 91 0
-799 -79 -91 0
799 -79 91 0
799 79 -91 0
-800 799 100 0
-800 -799 -100 0
800 -799 100 0
800 799 -100 0
-801 800 211 0
-801 -800 -211 0
801 -800 211 0
801 800 -211 0
-802 801 245 0
-802 -801 -245 0
802 -801 245 0
802 801 -245 0
-803 802 252 0
-803 -802 -252 0
803 -802 252 0
803 802 -252 0
-803 0
-804 80 92 0
-804 -80 -92 0
804 -80 92 0
804 80 -92 0
-805 804 101 0
-805 -804 -101 0
805 -804 101 0
805 804 -101 0
-806 805 212 0
-806 -805 -212 0
806 -805 212 0
806 805 -212 0
-807 806 241 0
-807 -806 -241 0
807 -806 241 0
807 806 -241 0
-808 807 246 0
-808 -807 -246 0
808 -807 246 0
808 807 -246 0
-808 0
-809 81 93 0
-809 -81 -93 0
809 -81 93 0
809 81 -93 0
-810 809 102 0
-810 -809 -102 0
810 -809 102 0
810 809 -102 0
-811 810 213 0
-811 -810 -213 0
811 -810 213 0
811 810 -213 0
-812 811 242 0
-812 -811 -242 0
812 -811 242 0
812 811 -242 0
-813 812 247 0
-813 -812 -247 0
813 -812 247 0
813 812 -247 0
-813 0
-814 82 94 0
-814 -82 -94 0
814 -82 94 0
814 82 -94 0
-815 814 103 0
-815 -814 -103 0
815 -814 103 0
815 814 -103 0
-816 815 214 0
-816 -815 -214 0
816 -815 214 0
816 815 -214 0
-817 816 243 0
-817 -816 -243 0
817 -816 243 0
817 816 -243 0
-818 817 248 0
-818 -817 -248 0
818 -817 248 0
818 817 -248 0
-818 0
-819 83 95 0
-819 -83 -95 0
819 -83 95 0
819 83 -95 0
-820 819 104 0
-820 -819 -104 0
820 -819 104 0
820 819 -104 0
-821 820 215 0
-821 -820 -215 0
821 -820 215 0
821 820 -215 0
-822 821 244 0
-822 -821 -244 0
822 -821 244 0
822 821 -244 0
-823 822 249 0
-823 -822 -249 0
823 -822 249 0
823 822 -249 0
-823 0
-824 84 96 0
-824 -84 -96 0
824 -84 96 0
824 84 -96 0
-825 824 105 0
-825 -824 -105 0
825 -824 105 0
825 824 -105 0
-826 825 216 0
-826 -825 -216 0
826 -825 216 0
826 825 -216 0
-827 826 245 0
-827 -826 -245 0
827 -826 245 0
827 826 -245 0
-828 827 250 0
-828 -827 -250 0
828 -827 250 0
828 827 -250 0
-828 0
-829 85 97 0
-829 -85 -97 0
829 -85 97 0
829 85 -97 0
-830 829 118 0
-830 -829 -118 0
830 -829 118 0
830 829 -118 0
-831 830 217 0
-831 -830 -217 0
831 -830 217 0
831 830 -217 0
-832 831 258 0
-832 -831 -258 0
832 -831 258 0
832 831 -258 0
-833 832 263 0
-833 -832 -263 0
833 -832 263 0
833 832 -263 0
-833 0
-834 86 98 0
-834 -86 -98 0
834 -86 98 0
834 86 -98 0
-835 834 119 0
-835 -834 -119 0
835 -834 119 0
835 834 -119 0
-836 835 218 0
-836 -835 -218 0
836 -835 218 0
836 835 -218 0
-837 836 259 0
-837 -836 -259 0
837 -836 259 0
837 836 -259 0
-838 837 264 0
-838 -837 -264 0
838 -837 264 0
838 837 -264 0
-838 0
-839 87 99 0
-839 -87 -99 0
839 -87 99 0
839 87 -99 0
-840 839 120 0
-840 -839 -120 0
840 -839 120 0
840 839 -120 0
-841 840 219 0
-841 -840 -219 0
841 -840 219 0
841 840 -219 0
-842 841 253 0
-842 -841 -253 0
842 -841 253 0
842 841 -253 0
-843 842 260 0
-843 -842 -260 0
843 -842 260 0
843 842 -260 0
-843 0
-844 88 100 0
-844 -88 -100 0
844 -88 100 0
844 88 -100 0
-845 844 109 0
-845 -844 -109 0
845 -844 109 0
845 844 -109 0
-846 845 220 0
-846 -845 -220 0
846 -845 220 0
846 845 -220 0
-847 846 254 0
-847 -846 -254 0
847 -846 254 0
847 846 -254 0
-848 847 261 0
-848 -847 -261 0
848 -847 261 0
848 847 -261 0
-848 0
-849 89 101 0
-849 -89 -101 0
849 -89 101 0
849 89 -101 0
-850 849 110 0
-850 -849 -110 0
850 -849 110 0
850 849 -110 0
-851 850 221 0
-851 -850 -221 0
851 -850 221 0
851 850 -221 0
-852 851 255 0
-852 -851 -255 0
852 -851 255 0
852 851 -255 0
-853 852 262 0
-853 -852 -262 0
853 -852 262 0
853 852 -262 0
-853 0
-854 90 102 0
-854 -90 -102 0
854 -90 102 0
854 90 -102 0
-855 854 111 0
-855 -854 -111 0
855 -854 111 0
855 854 -111 0
-856 855 222 0
-856 -855 -222 0
856 -855 222 0
856 855 -222 0
-857 856 256 0
-857 -856 -256 0
857 -856 256 0
857 856 -256 0
-858 857 263 0
-858 -857 -263 0
858 -857 263 0
858 857 -263 0
-858 0
-859 91 103 0
-859 -91 -103 0
859 -91 103 0
859 91 -103 0
-860 859 112 0
-860 -859 -112 0
860 -859 112 0
860 859 -112 0
-861 860 223 0
-861 -860 -223 0
861 -860 223 0
861 860 -223 0
-862 861 257 0
-862 -861 -257 0
862 -861 257 0
862 861 -257 0
-863 862 264 0
-863 -862 -264 0
863 -862 264 0
863 862 -264 0
-863 0
-864 92 104 0
-864 -92 -104 0
864 -92 104 0
864 92 -104 0
-865 864 113 0
-865 -864 -113 0
865 -864 113 0
865 864 -113 0
-866 865 224 0
-866 -865 -224 0
866 -865 224 0
866 865 -224 0
-867 866 253 0
-867 -866 -253 0
867 -866 253 0
867 866 -253 0
-868 867 258 0
-868 -867 -258 0
868 -867 258 0
868 867 -258 0
-868 0
-869 93 105 0
-869 -93 -105 0
869 -93 105 0
869 93 -105 0
-870 869 114 0
-870 -869 -114 0
870 -869 114 0
870 869 -114 0
-871 870 225 0
-871 -870 -225 0
871 -870 225 0
871 870 -225 0
-872 871 254 0
-872 -871 -254 0
872 -871 254 0
872 871 -254 0
-873 872 259 0
-873 -872 -259 0
873 -872 259 0
873 872 -259 0
-873 0
-874 94 106 0
-874 -94 -106 0
874 -94 106 0
874 94 -106 0
-875 874 115 0
-875 -874 -115 0
875 -874 115 0
875 874 -115 0
-876 875 226 0
-876 -875 -226 0
876 -875 226 0
876 875 -226 0
-877 876 255 0
-877 -876 -255 0
877 -876 255 0
877 876 -255 0
-878 877 260 0
-878 -877 -260 0
878 -877 260 0
878 877 -260 0
-878 0
-879 95 107 0
-879 -95 -107 0
879 -95 107 0
879 95 -107 0
-880 879 116 0
-880 -879 -116 0
880 -879 116 0
880 879 -116 0
-881 880 227 0
-881 -880 -227 0
881 -880 227 0
881 880 -227 0
-882 881 256 0
-882 -881 -256 0
882 -881 256 0
882 881 -256 0
-883 882 261 0
-883 -882 -261 0
883 -882 261 0
883 882 -261 0
-883 0
-884 96 108 0
-884 -96 -108 0
884 -96 108 0
884 96 -108 0
-885 884 117 0
-885 -884 -117 0
885 -884 117 0
885 884 -117 0
-886 885 228 0
-886 -885 -228 0
886 -885 228 0
886 885 -228 0
-887 886 257 0
-887 -886 -257 0
887 -886 257 0
887 886 -257 0
-888 887 262 0
-888 -887 -262 0
888 -887 262 0
888 887 -262 0
-888 0
-889 97 109 0
-889 -97 -109 0
889 -97 109 0
889 97 -109 0
-890 889 130 0
-890 -889 -130 0
890 -889 130 0
890 889 -130 0
-891 890 229 0
-891 -890 -229 0
891 -890 229 0
891 890 -229 0
-892 891 270 0
-892 -891 -270 0
892 -891 270 0
892 891 -270 0
-893 892 275 0
-893 -892 -275 0
893 -892 275 0
893 892 -275 0
-893 0
-894 98 110 0
-894 -98 -110 0
894 -98 110 0
894 98 -110 0
-895 894 131 0
-895 -894 -131 0
895 -894 131 0
895 894 -131 0
-896 895 230 0
-896 -895 -230 0
896 -895 230 0
896 895 -230 0
-897 896 271 0
-897 -896 -271 0
897 -896 271 0
897 896 -271 0
-898 897 276 0
-898 -897 -276 0
898 -897 276 0
898 897 -276 0
-898 0
-899 99 111 0
-899 -99 -111 0
899 -99 111 0
899 99 -111 0
-900 899 132 0
-900 -899 -132 0
900 -899 132 0
900 899 -132 0
-901 900 231 0
-901 -900 -231 0
901 -900 231 0
901 900 -231 0
-902 901 265 0
-902 -901 -265 0
902 -901 265 0
902 901 -265 0
-903 902 272 0
-903 -902 -272 0
903 -902 272 0
903 902 -272 0
-903 0
-904 100 112 0
-904 -100 -112 0
904 -100 112 0
904 100 -112 0
-905 904 121 0
-905 -904 -121 0
905 -904 121 0
905 904 -121 0
-906 905 232 0
-906 -905 -232 0
906 -905 232 0
906 905 -232 0
-907 906 266 0
-907 -906 -266 0
907 -906 266 0
907 906 -266 0
-908 907 273 0
-908 -907 -273 0
908 -907 273 0
908 907 -273 0
-908 0
-909 101 113 0
-909 -101 -113 0
909 -101 113 0
909 101 -113 0
-910 909 122 0
-910 -909 -122 0
910 -909 122 0
910 909 -122 0
-911 910 233 0
-911 -910 -233 0
911 -910 233 0
911 910 -233 0
-912 911 267 0
-912 -911 -267 0
912 -911 267 0
912 911 -267 0
-913 912 274 0
-913 -912 -274 0
913 -912 274 0
913 912 -274 0
-913 0
-914 102 114 0
-914 -102 -114 0
914 -102 114 0
914 102 -114 0
-915 914 123 0
-915 -914 -123 0
915 -914 123 0
915 914 -123 0
-916 915 234 0
-916 -915 -234 0
916 -915 234 0
916 915 -234 0
-917 916 268 0
-917 -916 -268 0
917 -916 268 0
917 916 -268 0
-918 917 275 0
-918 -917 -275 0
918 -917 275 0
918 917 -275 0
-918 0
-919 103 115 0
-919 -103 -115 0
919 -103 115 0
919 103 -115 0
-920 919 124 0
-920 -919 -124 0
920 -919 124 0
920 919 -124 0
-921 920 235 0
-921 -920 -235 0
921 -920 235 0
921 920 -235 0
-922 921 269 0
-922 -921 -269 0
922 -921 269 0
922 921 -269 0
-923 922 276 0
-923 -922 -276 0
923 -922 276 0
923 922 -276 0
-923 0
-924 104 116 0
-924 -104 -116 0
924 -104 116 0
924 104 -116 0
-925 924 125 0
-925 -924 -125 0
925 -924 125 0
925 924 -125 0
-926 925 236 0
-926 -925 -236 0
926 -925 236 0
926 925 -236 0
-927 926 265 0
-927 -926 -265 0
927 -926 265 0
927 926 -265 0
-928 927 270 0
-928 -927 -270 0
928 -927 270 0
928 927 -270 0
-928 0
-929 105 117 0
-929 -105 -117 0
929 -105 117 0
929 105 -117 0
-930 929 126 0
-930 -929 -126 0
930 -929 126 0
930 929 -126 0
-931 930 237 0
-931 -930 -237 0
931 -930 237 0
931 930 -237 0
-932 931 266 0
-932 -931 -266 0
932 -931 266 0
932 931 -266 0
-933 932 271 0
-933 -932 -271 0
933 -932 271 0
933 932 -271 0
-933 0
-934 106 118 0
-934 -106 -118 0
934 -106 118 0
934 106 -118 0
-935 934 127 0
-935 -934 -127 0
935 -934 127 0
935 934 -127 0
-936 935 238 0
-936 -935 -238 0
936 -935 238 0
936 935 -238 0
-937 936 267 0
-937 -936 -267 0
937 -936 267 0
937 936 -267 0
-938 937 272 0
-938 -937 -272 0
938 -937 272 0
938 937 -272 0
-938 0
-939 107 119 0
-939 -107 -119 0
939 -107 119 0
939 107 -119 0
-940 939 128 0
-940 -939 -128 0
940 -939 128 0
940 939 -128 0
-941 940 239 0
-941 -940 -239 0
941 -940 239 0
941 940 -239 0
-942 941 268 0
-942 -941 -268 0
942 -941 268 0
942 941 -268 0
-943 942 273 0
-943 -942 -273 0
943 -942 273 0
943 942 -273 0
-943 0
-944 108 120 0
-944 -108 -120 0
944 -108 120 0
944 108 -120 0
-945 944 129 0
-945 -944 -129 0
945 -944 129 0
945 944 -129 0
-946 945 240 0
-946 -945 -240 0
946 -945 240 0
946 945 -240 0
-947 946 269 0
-947 -946 -269 0
947 -946 269 0
947 946 -269 0
-948 947 274 0
-948 -947 -274 0
948 -947 274 0
948 947 -274 0
-948 0
-949 109 121 0
-949 -109 -121 0
949 -109 121 0
949 109 -121 0
-950 949 142 0
-950 -949 -142 0
950 -949 142 0
950 949 -142 0
-951 950 241 0
-951 -950 -241 0
951 -950 241 0
951 950 -241 0
-952 951 282 0
-952 -951 -282 0
952 -951 282 0
952 951 -282 0
-953 952 287 0
-953 -952 -287 0
953 -952 287 0
953 952 -287 0
-953 0
-954 110 122 0
-954 -110 -122 0
954 -110 122 0
954 110 -122 0
-955 954 143 0
-955 -954 -143 0
955 -954 143 0
955 954 -143 0
-956 955 242 0
-956 -955 -242 0
956 -955 242 0
956 955 -242 0
-957 956 283 0
-957 -956 -283 0
957 -956 283 0
957 956 -283 0
-958 957 288 0
-958 -957 -288 0
958 -957 288 0
958 957 -288 0
-958 0
-959 111 123 0
-959 -111 -123 0
959 -111 123 0
959 111 -123 0
-960 959 144 0
-960 -959 -144 0
960 -959 144 0
960 959 -144 0
-961 960 243 0
-961 -960 -243 0
961 -960 243 0
961 960 -243 0
-962 961 277 0
-962 -961 -277 0
962 -961 277 0
962 961 -277 0
-963 962 284 0
-963 -962 -284 0
963 -962 284 0
963 962 -284 0
-963 0
-964 112 124 0
-964 -112 -124 0
964 -112 124 0
964 112 -124 0
-965 964 133 0
-965 -964 -133 0
965 -964 133 0
965 964 -133 0
-966 965 244 0
-966 -965 -244 0
966 -965 244 0
966 965 -244 0
-967 966 278 0
-967 -966 -278 0
967 -966 278 0
967 966 -278 0
-968 967 285 0
-968 -967 -285 0
968 -967 285 0
968 967 -285 0
-968 0
-969 113 125 0
-969 -113 -125 0
969 -113 125 0
969 113 -125 0
-970 969 134 0
-970 -969 -134 0
970 -969 134 0
970 969 -134 0
-971 970 245 0
-971 -970 -245 0
971 -970 245 0
971 970 -245 0
-972 971 279 0
-972 -971 -279 0
972 -971 279 0
972 971 -279 0
-973 972 286 0
-973 -972 -286 0
973 -972 286 0
973 972 -286 0
-973 0
-974 114 126 0
-974 -114 -126 0
974 -114 126 0
974 114 -126 0
-975 974 135 0
-975 -974 -135 0
975 -974 135 0
975 974 -135 0
-976 975 246 0
-976 -975 -246 0
976 -975 246 0
976 975 -246 0
-977 976 280 0
-977 -976 -280 0
977 -976 280 0
977 976 -280 0
-978 977 287 0
-978 -977 -287 0
978 -977 287 0
978 977 -287 0
-978 0
-979 115 127 0
-979 -115 -127 0
979 -115 127 0
979 115 -127 0
-980 979 136 0
-980 -979 -136 0
980 -979 136 0
980 979 -136 0
-981 980 247 0
-981 -980 -247 0
981 -980 247 0
981 980 -247 0
-982 981 281 0
-982 -981 -281 0
982 -981 281 0
982 981 -281 0
-983 982 288 0
-983 -982 -288 0
983 -982 288 0
983 982 -288 0
-983 0
-984 116 128 0
-984 -116 -128 0
984 -116 128 0
984 116 -128 0
-985 984 137 0
-985 -984 -137 0
985 -984 137 0
985 984 -137 0
-986 985 248 0
-986 -985 -248 0
986 -985 248 0
986 985 -248 0
-987 986 277 0
-987 -986 -277 0
987 -986 277 0
987 986 -277 0
-988 987 282 0
-988 -987 -282 0
988 -987 282 0
988 987 -282 0
-988 0
-989 117 129 0
-989 -117 -129 0
989 -117 129 0
989 117 -129 0
-990 989 138 0
-990 -989 -138 0
990 -989 138 0
990 989 -138 0
-991 990 249 0
-991 -990 -249 0
991 -990 249 0
991 990 -249 0
-992 991 278 0
-992 -991 -278 0
992 -991 278 0
992 991 -278 0
-993 992 283 0
-993 -992 -283 0
993 -992 283 0
993 992 -283 0
-993 0
-994 118 130 0
-994 -118 -130 0
994 -118 130 0
994 118 -130 0
-995 994 139 0
-995 -994 -139 0
995 -994 139 0
995 994 -139 0
-996 995 250 0
-996 -995 -250 0
996 -995 250 0
996 995 -250 0
-997 996 279 0
-997 -996 -279 0
997 -996 279 0
997 996 -279 0
-998 997 284 0
-998 -997 -284 0
998 -997 284 0
998 997 -284 0
-998 0
-999 119 131 0
-999 -119 -131 0
999 -119 131 0
999 119 -131 0
-1000 999 140 0
-1000 -999 -140 0
1000 -999 140 0
1000 999 -140 0
-1001 1000 251 0
-1001 -1000 -251 0
1001 -1000 251 0
1001 1000 -251 0
-1002 1001 280 0
-1002 -1001 -280 0
1002 -1001 280 0
1002 1001 -280 0
-1003 1002 285 0
-1003 -1002 -285 0
1003 -1002 285 0
1003 1002 -285 0
-1003 0
-1004 120 132 0
-1004 -120 -132 0
1004 -120 132 0
1004 120 -132 0
-1005 1004 141 0
-1005 -1004 -141 0
1005 -1004 141 0
1005 1004 -141 0
-1006 1005 252 0
-1006 -1005 -252 0
1006 -1005 252 0
1006 1005 -252 0
-1007 1006 281 0
-1007 -1006 -281 0
1007 -1006 281 0
1007 1006 -281 0
-1008 1007 286 0
-1008 -1007 -286 0
1008 -1007 286 0
1008 1007 -286 0
-1008 0
-1009 3 6 0
-1009 -3 -6 0
1009 -3 6 0
1009 3 -6 0
-1010 1009 10 0
-1010 -1009 -10 0
1010 -1009 10 0
1010 1009 -10 0
-1011 1010 11 0
-1011 -1010 -11 0
1011 -1010 11 0
1011 1010 -11 0
-1012 1011 37 0
-1012 -1011 -37 0
1012 -1011 37 0
1012 1011 -37 0
-1013 1012 39 0
-1013 -1012 -39 0
1013 -1012 39 0
1013 1012 -39 0
-1014 1013 45 0
-1014 -1013 -45 0
1014 -1013 45 0
1014 1013 -45 0
-1015 1014 47 0
-1015 -1014 -47 0
1015 -1014 47 0
1015 1014 -47 0
-1016 1015 73 0
-1016 -1015 -73 0
1016 -1015 73 0
1016 1015 -73 0
-1017 1016 74 0
-1017 -1016 -74 0
1017 -1016 74 0
1017 1016 -74 0
-1018 1017 76 0
-1018 -1017 -76 0
1018 -1017 76 0
1018 1017 -76 0
-1019 1018 78 0
-1019 -1018 -78 0
1019 -1018 78 0
1019 1018 -78 0
-1020 1019 79 0
-1020 -1019 -79 0
1020 -1019 79 0
1020 1019 -79 0
-1021 1020 80 0
-1021 -1020 -80 0
1021 -1020 80 0
1021 1020 -80 0
-1022 1021 81 0
-1022 -1021 -81 0
1022 -1021 81 0
1022 1021 -81 0
-1023 1022 83 0
-1023 -1022 -83 0
1023 -1022 83 0
1023 1022 -83 0
-1024 1023 109 0
-1024 -1023 -109 0
1024 -1023 109 0
1024 1023 -109 0
-1025 1024 113 0
-1025 -1024 -113 0
1025 -1024 113 0
1025 1024 -113 0
-1026 4 7 0
-1026 -4 -7 0
1026 -4 7 0
1026 4 -7 0
-1027 1026 11 0
-1027 -1026 -11 0
1027 -1026 11 0
1027 1026 -11 0
-1028 1027 12 0
-1028 -1027 -12 0
1028 -1027 12 0
1028 1027 -12 0
-1029 1028 38 0
-1029 -1028 -38 0
1029 -1028 38 0
1029 1028 -38 0
-1030 1029 40 0
-1030 -1029 -40 0
1030 -1029 40 0
1030 1029 -40 0
-1031 1030 46 0
-1031 -1030 -46 0
1031 -1030 46 0
1031 1030 -46 0
-1032 1031 48 0
-1032 -1031 -48 0
1032 -1031 48 0
1032 1031 -48 0
-1033 1032 74 0
-1033 -1032 -74 0
1033 -1032 74 0
1033 1032 -74 0
-1034 1033 75 0
-1034 -1033 -75 0
1034 -1033 75 0
1034 1033 -75 0
-1035 1034 77 0
-1035 -1034 -77 0
1035 -1034 77 0
1035 1034 -77 0
-1036 1035 79 0
-1036 -1035 -79 0
1036 -1035 79 0
1036 1035 -79 0
-1037 1036 80 0
-1037 -1036 -80 0
1037 -1036 80 0
1037 1036 -80 0
-1038 1037 81 0
-1038 -1037 -81 0
1038 -1037 81 0
1038 1037 -81 0
-1039 1038 82 0
-1039 -1038 -82 0
1039 -1038 82 0
1039 1038 -82 0
-1040 1039 84 0
-1040 -1039 -84 0
1040 -1039 84 0
1040 1039 -84 0
-1041 1040 110 0
-1041 -1040 -110 0
1041 -1040 110 0
1041 1040 -110 0
-1042 1041 114 0
-1042 -1041 -114 0
1042 -1041 114 0
1042 1041 -114 0
-1043 1 5 0
-1043 -1 -5 0
1043 -1 5 0
1043 1 -5 0
-1044 1043 8 0
-1044 -1043 -8 0
1044 -1043 8 0
1044 1043 -8 0
-1045 1044 12 0
-1045 -1044 -12 0
1045 -1044 12 0
1045 1044 -12 0
-1046 1045 37 0
-1046 -1045 -37 0
1046 -1045 37 0
1046 1045 -37 0
-1047 1046 39 0
-1047 -1046 -39 0
1047 -1046 39 0
1047 1046 -39 0
-1048 1047 41 0
-1048 -1047 -41 0
1048 -1047 41 0
1048 1047 -41 0
-1049 1048 47 0
-1049 -1048 -47 0
1049 -1048 47 0
1049 1048 -47 0
-1050 1049 73 0
-1050 -1049 -73 0
1050 -1049 73 0
1050 1049 -73 0
-1051 1050 75 0
-1051 -1050 -75 0
1051 -1050 75 0
1051 1050 -75 0
-1052 1051 76 0
-1052 -1051 -76 0
1052 -1051 76 0
1052 1051 -76 0
-1053 1052 78 0
-1053 -1052 -78 0
1053 -1052 78 0
1053 1052 -78 0
-1054 1053 80 0
-1054 -1053 -80 0
1054 -1053 80 0
1054 1053 -80 0
-1055 1054 81 0
-1055 -1054 -81 0
1055 -1054 81 0
1055 1054 -81 0
-1056 1055 82 0
-1056 -1055 -82 0
1056 -1055 82 0
1056 1055 -82 0
-1057 1056 83 0
-1057 -1056 -83 0
1057 -1056 83 0
1057 1056 -83 0
-1058 1057 111 0
-1058 -1057 -111 0
1058 -1057 111 0
1058 1057 -111 0
-1059 1058 115 0
-1059 -1058 -115 0
1059 -1058 115 0
1059 1058 -115 0
-1060 1 2 0
-1060 -1 -2 0
1060 -1 2 0
1060 1 -2 0
-1061 1060 6 0
-1061 -1060 -6 0
1061 -1060 6 0
1061 1060 -6 0
-1062 1061 9 0
-1062 -1061 -9 0
1062 -1061 9 0
1062 1061 -9 0
-1063 1062 38 0
-1063 -1062 -38 0
1063 -1062 38 0
1063 1062 -38 0
-1064 1063 40 0
-1064 -1063 -40 0
1064 -1063 40 0
1064 1063 -40 0
-1065 1064 42 0
-1065 -1064 -42 0
1065 -1064 42 0
1065 1064 -42 0
-1066 1065 48 0
-1066 -1065 -48 0
1066 -1065 48 0
1066 1065 -48 0
-1067 1066 74 0
-1067 -1066 -74 0
1067 -1066 74 0
1067 1066 -74 0
-1068 1067 76 0
-1068 -1067 -76 0
1068 -1067 76 0
1068 1067 -76 0
-1069 1068 77 0
-1069 -1068 -77 0
1069 -1068 77 0
1069 1068 -77 0
-1070 1069 79 0
-1070 -1069 -79 0
1070 -1069 79 0
1070 1069 -79 0
-1071 1070 81 0
-1071 -1070 -81 0
1071 -1070 81 0
1071 1070 -81 0
-1072 1071 82 0
-1072 -1071 -82 0
1072 -1071 82 0
1072 1071 -82 0
-1073 1072 83 0
-1073 -1072 -83 0
1073 -1072 83 0
1073 1072 -83 0
-1074 1073 84 0
-1074 -1073 -84 0
1074 -1073 84 0
1074 1073 -84 0
-1075 1074 112 0
-1075 -1074 -112 0
1075 -1074 112 0
1075 1074 -112 0
-1076 1075 116 0
-1076 -1075 -116 0
1076 -1075 116 0
1076 1075 -116 0
-1077 15 18 0
-1077 -15 -18 0
1077 -15 18 0
1077 15 -18 0
-1078 1077 22 0
-1078 -1077 -22 0
1078 -1077 22 0
1078 1077 -22 0
-1079 1078 23 0
-1079 -1078 -23 0
1079 -1078 23 0
1079 1078 -23 0
-1080 1079 49 0
-1080 -1079 -49 0
1080 -1079 49 0
1080 1079 -49 0
-1081 1080 51 0
-1081 -1080 -51 0
1081 -1080 51 0
1081 1080 -51 0
-1082 1081 57 0
-1082 -1081 -57 0
1082 -1081 57 0
1082 1081 -57 0
-1083 1082 59 0
-1083 -1082 -59 0
1083 -1082 59 0
1083 1082 -59 0
-1084 1083 85 0
-1084 -1083 -85 0
1084 -1083 85 0
1084 1083 -85 0
-1085 1084 86 0
-1085 -1084 -86 0
1085 -1084 86 0
1085 1084 -86 0
-1086 1085 88 0
-1086 -1085 -88 0
1086 -1085 88 0
1086 1085 -88 0
-1087 1086 90 0
-1087 -1086 -90 0
1087 -1086 90 0
1087 1086 -90 0
-1088 1087 91 0
-1088 -1087 -91 0
1088 -1087 91 0
1088 1087 -91 0
-1089 1088 92 0
-1089 -1088 -92 0
1089 -1088 92 0
1089 1088 -92 0
-1090 1089 93 0
-1090 -1089 -93 0
1090 -1089 93 0
1090 1089 -93 0
-1091 1090 95 0
-1091 -1090 -95 0
1091 -1090 95 0
1091 1090 -95 0
-1092 1091 121 0
-1092 -1091 -121 0
1092 -1091 121 0
1092 1091 -121 0
-1093 1092 125 0
-1093 -1092 -125 0
1093 -1092 125 0
1093 1092 -125 0
-1094 16 19 0
-1094 -16 -19 0
1094 -16 19 0
1094 16 -19 0
-1095 1094 23 0
-1095 -1094 -23 0
1095 -1094 23 0
1095 1094 -23 0
-1096 1095 24 0
-1096 -1095 -24 0
1096 -1095 24 0
1096 1095 -24 0
-1097 1096 50 0
-1097 -1096 -50 0
1097 -1096 50 0
1097 1096 -50 0
-1098 1097 52 0
-1098 -1097 -52 0
1098 -1097 52 0
1098 1097 -52 0
-1099 1098 58 0
-1099 -1098 -58 0
1099 -1098 58 0
1099 1098 -58 0
-1100 1099 60 0
-1100 -1099 -60 0
1100 -1099 60 0
1100 1099 -60 0
-1101 1100 86 0
-1101 -1100 -86 0
1101 -1100 86 0
1101 1100 -86 0
-1102 1101 87 0
-1102 -1101 -87 0
1102 -1101 87 0
1102 1101 -87 0
-1103 1102 89 0
-1103 -1102 -89 0
1103 -1102 89 0
1103 1102 -89 0
-1104 1103 91 0
-1104 -1103 -91 0
1104 -1103 91 0
1104 1103 -91 0
-1105 1104 92 0
-1105 -1104 -92 0
1105 -1104 92 0
1105 1104 -92 0
-1106 1105 93 0
-1106 -1105 -93 0
1106 -1105 93 0
1106 1105 -93 0
-1107 1106 94 0
-1107 -1106 -94 0
1107 -1106 94 0
1107 1106 -94 0
-1108 1107 96 0
-1108 -1107 -96 0
1108 -1107 96 0
1108 1107 -96 0
-1109 1108 122 0
-1109 -1108 -122 0
1109 -1108 122 0
1109 1108 -122 0
-1110 1109 126 0
-1110 -1109 -126 0
1110 -1109 126 0
1110 1109 -126 0
-1111 1 2 0
-1111 -1 -2 0
1111 -1 2 0
1111 1 -2 0
-1112 1111 6 0
-1112 -1111 -6 0
1112 -1111 6 0
1112 1111 -6 0
-1113 1112 7 0
-1113 -1112 -7 0
1113 -1112 7 0
1113 1112 -7 0
-1114 1113 8 0
-1114 -1113 -8 0
1114 -1113 8 0
1114 1113 -8 0
-1115 1114 9 0
-1115 -1114 -9 0
1115 -1114 9 0
1115 1114 -9 0
-1116 1115 11 0
-1116 -1115 -11 0
1116 -1115 11 0
1116 1115 -11 0
-1117 1116 12 0
-1117 -1116 -12 0
1117 -1116 12 0
1117 1116 -12 0
-1118 1117 13 0
-1118 -1117 -13 0
1118 -1117 13 0
1118 1117 -13 0
-1119 1118 16 0
-1119 -1118 -16 0
1119 -1118 16 0
1119 1118 -16 0
-1120 1119 18 0
-1120 -1119 -18 0
1120 -1119 18 0
1120 1119 -18 0
-1121 1120 21 0
-1121 -1120 -21 0
1121 -1120 21 0
1121 1120 -21 0
-1122 1121 24 0
-1122 -1121 -24 0
1122 -1121 24 0
1122 1121 -24 0
-1123 1122 37 0
-1123 -1122 -37 0
1123 -1122 37 0
1123 1122 -37 0
-1124 1123 39 0
-1124 -1123 -39 0
1124 -1123 39 0
1124 1123 -39 0
-1125 1124 42 0
-1125 -1124 -42 0
1125 -1124 42 0
1125 1124 -42 0
-1126 1125 43 0
-1126 -1125 -43 0
1126 -1125 43 0
1126 1125 -43 0
-1127 1126 45 0
-1127 -1126 -45 0
1127 -1126 45 0
1127 1126 -45 0
-1128 1127 47 0
-1128 -1127 -47 0
1128 -1127 47 0
1128 1127 -47 0
-1129 1128 49 0
-1129 -1128 -49 0
1129 -1128 49 0
1129 1128 -49 0
-1130 1129 51 0
-1130 -1129 -51 0
1130 -1129 51 0
1130 1129 -51 0
-1131 1130 53 0
-1131 -1130 -53 0
1131 -1130 53 0
1131 1130 -53 0
-1132 1131 54 0
-1132 -1131 -54 0
1132 -1131 54 0
1132 1131 -54 0
-1133 1132 55 0
-1133 -1132 -55 0
1133 -1132 55 0
1133 1132 -55 0
-1134 1133 57 0
-1134 -1133 -57 0
1134 -1133 57 0
1134 1133 -57 0
-1135 1134 59 0
-1135 -1134 -59 0
1135 -1134 59 0
1135 1134 -59 0
-1136 1135 73 0
-1136 -1135 -73 0
1136 -1135 73 0
1136 1135 -73 0
-1137 1136 74 0
-1137 -1136 -74 0
1137 -1136 74 0
1137 1136 -74 0
-1138 1137 77 0
-1138 -1137 -77 0
1138 -1137 77 0
1138 1137 -77 0
-1139 1138 78 0
-1139 -1138 -78 0
1139 -1138 78 0
1139 1138 -78 0
-1140 1139 79 0
-1140 -1139 -79 0
1140 -1139 79 0
1140 1139 -79 0
-1141 1140 80 0
-1141 -1140 -80 0
1141 -1140 80 0
1141 1140 -80 0
-1142 1141 81 0
-1142 -1141 -81 0
1142 -1141 81 0
1142 1141 -81 0
-1143 1142 84 0
-1143 -1142 -84 0
1143 -1142 84 0
1143 1142 -84 0
-1144 1143 85 0
-1144 -1143 -85 0
1144 -1143 85 0
1144 1143 -85 0
-1145 1144 86 0
-1145 -1144 -86 0
1145 -1144 86 0
1145 1144 -86 0
-1146 1145 87 0
-1146 -1145 -87 0
1146 -1145 87 0
1146 1145 -87 0
-1147 1146 89 0
-1147 -1146 -89 0
1147 -1146 89 0
1147 1146 -89 0
-1148 1147 90 0
-1148 -1147 -90 0
1148 -1147 90 0
1148 1147 -90 0
-1149 1148 91 0
-1149 -1148 -91 0
1149 -1148 91 0
1149 1148 -91 0
-1150 1149 92 0
-1150 -1149 -92 0
1150 -1149 92 0
1150 1149 -92 0
-1151 1150 93 0
-1151 -1150 -93 0
1151 -1150 93 0
1151 1150 -93 0
-1152 1151 94 0
-1152 -1151 -94 0
1152 -1151 94 0
1152 1151 -94 0
-1153 1152 96 0
-1153 -1152 -96 0
1153 -1152 96 0
1153 1152 -96 0
-1154 1153 109 0
-1154 -1153 -109 0
1154 -1153 109 0
1154 1153 -109 0
-1155 1154 110 0
-1155 -1154 -110 0
1155 -1154 110 0
1155 1154 -110 0
-1156 1155 111 0
-1156 -1155 -111 0
1156 -1155 111 0
1156 1155 -111 0
-1157 1156 112 0
-1157 -1156 -112 0
1157 -1156 112 0
1157 1156 -112 0
-1158 1157 122 0
-1158 -1157 -122 0
1158 -1157 122 0
1158 1157 -122 0
-1159 1158 124 0
-1159 -1158 -124 0
1159 -1158 124 0
1159 1158 -124 0
-1160 1159 145 0
-1160 -1159 -145 0
1160 -1159 145 0
1160 1159 -145 0
-1161 1160 146 0
-1161 -1160 -146 0
1161 -1160 146 0
1161 1160 -146 0
-1162 1161 148 0
-1162 -1161 -148 0
1162 -1161 148 0
1162 1161 -148 0
-1163 1162 150 0
-1163 -1162 -150 0
1163 -1162 150 0
1163 1162 -150 0
-1164 1163 151 0
-1164 -1163 -151 0
1164 -1163 151 0
1164 1163 -151 0
-1165 1164 157 0
-1165 -1164 -157 0
1165 -1164 157 0
1165 1164 -157 0
-1166 1165 158 0
-1166 -1165 -158 0
1166 -1165 158 0
1166 1165 -158 0
-1167 1166 160 0
-1167 -1166 -160 0
1167 -1166 160 0
1167 1166 -160 0
-1168 1167 162 0
-1168 -1167 -162 0
1168 -1167 162 0
1168 1167 -162 0
-1169 1168 163 0
-1169 -1168 -163 0
1169 -1168 163 0
1169 1168 -163 0
-1170 14 15 0
-1170 -14 -15 0
1170 -14 15 0
1170 14 -15 0
-1171 1170 16 0
-1171 -1170 -16 0
1171 -1170 16 0
1171 1170 -16 0
-1172 1171 17 0
-1172 -1171 -17 0
1172 -1171 17 0
1172 1171 -17 0
-1173 1172 19 0
-1173 -1172 -19 0
1173 -1172 19 0
1173 1172 -19 0
-1174 1173 21 0
-1174 -1173 -21 0
1174 -1173 21 0
1174 1173 -21 0
-1175 1174 23 0
-1175 -1174 -23 0
1175 -1174 23 0
1175 1174 -23 0
-1176 1175 24 0
-1176 -1175 -24 0
1176 -1175 24 0
1176 1175 -24 0
-1177 1176 38 0
-1177 -1176 -38 0
1177 -1176 38 0
1177 1176 -38 0
-1178 1177 40 0
-1178 -1177 -40 0
1178 -1177 40 0
1178 1177 -40 0
-1179 1178 42 0
-1179 -1178 -42 0
1179 -1178 42 0
1179 1178 -42 0
-1180 1179 44 0
-1180 -1179 -44 0
1180 -1179 44 0
1180 1179 -44 0
-1181 1180 46 0
-1181 -1180 -46 0
1181 -1180 46 0
1181 1180 -46 0
-1182 1181 48 0
-1182 -1181 -48 0
1182 -1181 48 0
1182 1181 -48 0
-1183 1182 50 0
-1183 -1182 -50 0
1183 -1182 50 0
1183 1182 -50 0
-1184 1183 52 0
-1184 -1183 -52 0
1184 -1183 52 0
1184 1183 -52 0
-1185 1184 53 0
-1185 -1184 -53 0
1185 -1184 53 0
1185 1184 -53 0
-1186 1185 56 0
-1186 -1185 -56 0
1186 -1185 56 0
1186 1185 -56 0
-1187 1186 58 0
-1187 -1186 -58 0
1187 -1186 58 0
1187 1186 -58 0
-1188 1187 60 0
-1188 -1187 -60 0
1188 -1187 60 0
1188 1187 -60 0
-1189 1188 73 0
-1189 -1188 -73 0
1189 -1188 73 0
1189 1188 -73 0
-1190 1189 74 0
-1190 -1189 -74 0
1190 -1189 74 0
1190 1189 -74 0
-1191 1190 75 0
-1191 -1190 -75 0
1191 -1190 75 0
1191 1190 -75 0
-1192 1191 76 0
-1192 -1191 -76 0
1192 -1191 76 0
1192 1191 -76 0
-1193 1192 77 0
-1193 -1192 -77 0
1193 -1192 77 0
1193 1192 -77 0
-1194 1193 78 0
-1194 -1193 -78 0
1194 -1193 78 0
1194 1193 -78 0
-1195 1194 79 0
-1195 -1194 -79 0
1195 -1194 79 0
1195 1194 -79 0
-1196 1195 80 0
-1196 -1195 -80 0
1196 -1195 80 0
1196 1195 -80 0
-1197 1196 81 0
-1197 -1196 -81 0
1197 -1196 81 0
1197 1196 -81 0
-1198 1197 82 0
-1198 -1197 -82 0
1198 -1197 82 0
1198 1197 -82 0
-1199 1198 83 0
-1199 -1198 -83 0
1199 -1198 83 0
1199 1198 -83 0
-1200 1199 84 0
-1200 -1199 -84 0
1200 -1199 84 0
1200 1199 -84 0
-1201 1200 85 0
-1201 -1200 -85 0
1201 -1200 85 0
1201 1200 -85 0
-1202 1201 86 0
-1202 -1201 -86 0
1202 -1201 86 0
1202 1201 -86 0
-1203 1202 89 0
-1203 -1202 -89 0
1203 -1202 89 0
1203 1202 -89 0
-1204 1203 90 0
-1204 -1203 -90 0
1204 -1203 90 0
1204 1203 -90 0
-1205 1204 91 0
-1205 -1204 -91 0
1205 -1204 91 0
1205 1204 -91 0
-1206 1205 92 0
-1206 -1205 -92 0
1206 -1205 92 0
1206 1205 -92 0
-1207 1206 93 0
-1207 -1206 -93 0
1207 -1206 93 0
1207 1206 -93 0
-1208 1207 96 0
-1208 -1207 -96 0
1208 -1207 96 0
1208 1207 -96 0
-1209 1208 121 0
-1209 -1208 -121 0
1209 -1208 121 0
1209 1208 -121 0
-1210 1209 122 0
-1210 -1209 -122 0
1210 -1209 122 0
1210 1209 -122 0
-1211 1210 123 0
-1211 -1210 -123 0
1211 -1210 123 0
1211 1210 -123 0
-1212 1211 124 0
-1212 -1211 -124 0
1212 -1211 124 0
1212 1211 -124 0
-1213 1212 145 0
-1213 -1212 -145 0
1213 -1212 145 0
1213 1212 -145 0
-1214 1213 147 0
-1214 -1213 -147 0
1214 -1213 147 0
1214 1213 -147 0
-1215 1214 148 0
-1215 -1214 -148 0
1215 -1214 148 0
1215 1214 -148 0
-1216 1215 149 0
-1216 -1215 -149 0
1216 -1215 149 0
1216 1215 -149 0
-1217 1216 150 0
-1217 -1216 -150 0
1217 -1216 150 0
1217 1216 -150 0
-1218 1217 152 0
-1218 -1217 -152 0
1218 -1217 152 0
1218 1217 -152 0
-1219 1218 157 0
-1219 -1218 -157 0
1219 -1218 157 0
1219 1218 -157 0
-1220 1219 159 0
-1220 -1219 -159 0
1220 -1219 159 0
1220 1219 -159 0
-1221 1220 160 0
-1221 -1220 -160 0
1221 -1220 160 0
1221 1220 -160 0
-1222 1221 161 0
-1222 -1221 -161 0
1222 -1221 161 0
1222 1221 -161 0
-1223 1222 162 0
-1223 -1222 -162 0
1223 -1222 162 0
1223 1222 -162 0
-1224 1223 164 0
-1224 -1223 -164 0
1224 -1223 164 0
1224 1223 -164 0
-1225 2 7 0
-1225 -2 -7 0
1225 -2 7 0
1225 2 -7 0
-1226 1225 9 0
-1226 -1225 -9 0
1226 -1225 9 0
1226 1225 -9 0
-1227 1226 12 0
-1227 -1226 -12 0
1227 -1226 12 0
1227 1226 -12 0
-1228 1227 13 0
-1228 -1227 -13 0
1228 -1227 13 0
1228 1227 -13 0
-1229 1228 14 0
-1229 -1228 -14 0
1229 -1228 14 0
1229 1228 -14 0
-1230 1229 21 0
-1230 -1229 -21 0
1230 -1229 21 0
1230 1229 -21 0
-1231 1230 24 0
-1231 -1230 -24 0
1231 -1230 24 0
1231 1230 -24 0
-1232 1231 27 0
-1232 -1231 -27 0
1232 -1231 27 0
1232 1231 -27 0
-1233 1232 28 0
-1233 -1232 -28 0
1233 -1232 28 0
1233 1232 -28 0
-1234 1233 29 0
-1234 -1233 -29 0
1234 -1233 29 0
1234 1233 -29 0
-1235 1234 30 0
-1235 -1234 -30 0
1235 -1234 30 0
1235 1234 -30 0
-1236 1235 33 0
-1236 -1235 -33 0
1236 -1235 33 0
1236 1235 -33 0
-1237 1236 36 0
-1237 -1236 -36 0
1237 -1236 36 0
1237 1236 -36 0
-1238 1237 42 0
-1238 -1237 -42 0
1238 -1237 42 0
1238 1237 -42 0
-1239 1238 54 0
-1239 -1238 -54 0
1239 -1238 54 0
1239 1238 -54 0
-1240 1239 61 0
-1240 -1239 -61 0
1240 -1239 61 0
1240 1239 -61 0
-1241 1240 62 0
-1241 -1240 -62 0
1241 -1240 62 0
1241 1240 -62 0
-1242 1241 63 0
-1242 -1241 -63 0
1242 -1241 63 0
1242 1241 -63 0
-1243 1242 64 0
-1243 -1242 -64 0
1243 -1242 64 0
1243 1242 -64 0
-1244 1243 65 0
-1244 -1243 -65 0
1244 -1243 65 0
1244 1243 -65 0
-1245 1244 67 0
-1245 -1244 -67 0
1245 -1244 67 0
1245 1244 -67 0
-1246 1245 68 0
-1246 -1245 -68 0
1246 -1245 68 0
1246 1245 -68 0
-1247 1246 69 0
-1247 -1246 -69 0
1247 -1246 69 0
1247 1246 -69 0
-1248 1247 70 0
-1248 -1247 -70 0
1248 -1247 70 0
1248 1247 -70 0
-1249 1248 71 0
-1249 -1248 -71 0
1249 -1248 71 0
1249 1248 -71 0
-1250 1249 72 0
-1250 -1249 -72 0
1250 -1249 72 0
1250 1249 -72 0
-1251 1250 76 0
-1251 -1250 -76 0
1251 -1250 76 0
1251 1250 -76 0
-1252 1251 83 0
-1252 -1251 -83 0
1252 -1251 83 0
1252 1251 -83 0
-1253 1252 88 0
-1253 -1252 -88 0
1253 -1252 88 0
1253 1252 -88 0
-1254 1253 95 0
-1254 -1253 -95 0
1254 -1253 95 0
1254 1253 -95 0
-1255 1254 100 0
-1255 -1254 -100 0
1255 -1254 100 0
1255 1254 -100 0
-1256 1255 107 0
-1256 -1255 -107 0
1256 -1255 107 0
1256 1255 -107 0
-1257 1256 110 0
-1257 -1256 -110 0
1257 -1256 110 0
1257 1256 -110 0
-1258 1257 112 0
-1258 -1257 -112 0
1258 -1257 112 0
1258 1257 -112 0
-1259 1258 122 0
-1259 -1258 -122 0
1259 -1258 122 0
1259 1258 -122 0
-1260 1259 124 0
-1260 -1259 -124 0
1260 -1259 124 0
1260 1259 -124 0
-1261 1260 134 0
-1261 -1260 -134 0
1261 -1260 134 0
1261 1260 -134 0
-1262 1261 136 0
-1262 -1261 -136 0
1262 -1261 136 0
1262 1261 -136 0
-1263 1262 145 0
-1263 -1262 -145 0
1263 -1262 145 0
1263 1262 -145 0
-1264 1263 151 0
-1264 -1263 -151 0
1264 -1263 151 0
1264 1263 -151 0
-1265 1264 157 0
-1265 -1264 -157 0
1265 -1264 157 0
1265 1264 -157 0
-1266 1265 158 0
-1266 -1265 -158 0
1266 -1265 158 0
1266 1265 -158 0
-1267 1266 159 0
-1267 -1266 -159 0
1267 -1266 159 0
1267 1266 -159 0
-1268 1267 160 0
-1268 -1267 -160 0
1268 -1267 160 0
1268 1267 -160 0
-1269 1268 161 0
-1269 -1268 -161 0
1269 -1268 161 0
1269 1268 -161 0
-1270 1269 162 0
-1270 -1269 -162 0
1270 -1269 162 0
1270 1269 -162 0
-1271 1270 169 0
-1271 -1270 -169 0
1271 -1270 169 0
1271 1270 -169 0
-1272 1271 171 0
-1272 -1271 -171 0
1272 -1271 171 0
1272 1271 -171 0
-1273 1272 173 0
-1273 -1272 -173 0
1273 -1272 173 0
1273 1272 -173 0
-1274 2 7 0
-1274 -2 -7 0
1274 -2 7 0
1274 2 -7 0
-1275 1274 9 0
-1275 -1274 -9 0
1275 -1274 9 0
1275 1274 -9 0
-1276 1275 12 0
-1276 -1275 -12 0
1276 -1275 12 0
1276 1275 -12 0
-1277 1276 14 0
-1277 -1276 -14 0
1277 -1276 14 0
1277 1276 -14 0
-1278 1277 16 0
-1278 -1277 -16 0
1278 -1277 16 0
1278 1277 -16 0
-1279 1278 21 0
-1279 -1278 -21 0
1279 -1278 21 0
1279 1278 -21 0
-1280 1279 23 0
-1280 -1279 -23 0
1280 -1279 23 0
1280 1279 -23 0
-1281 1280 24 0
-1281 -1280 -24 0
1281 -1280 24 0
1281 1280 -24 0
-1282 1281 25 0
-1282 -1281 -25 0
1282 -1281 25 0
1282 1281 -25 0
-1283 1282 27 0
-1283 -1282 -27 0
1283 -1282 27 0
1283 1282 -27 0
-1284 1283 28 0
-1284 -1283 -28 0
1284 -1283 28 0
1284 1283 -28 0
-1285 1284 29 0
-1285 -1284 -29 0
1285 -1284 29 0
1285 1284 -29 0
-1286 1285 31 0
-1286 -1285 -31 0
1286 -1285 31 0
1286 1285 -31 0
-1287 1286 35 0
-1287 -1286 -35 0
1287 -1286 35 0
1287 1286 -35 0
-1288 1287 42 0
-1288 -1287 -42 0
1288 -1287 42 0
1288 1287 -42 0
-1289 1288 53 0
-1289 -1288 -53 0
1289 -1288 53 0
1289 1288 -53 0
-1290 1289 54 0
-1290 -1289 -54 0
1290 -1289 54 0
1290 1289 -54 0
-1291 1290 62 0
-1291 -1290 -62 0
1291 -1290 62 0
1291 1290 -62 0
-1292 1291 64 0
-1292 -1291 -64 0
1292 -1291 64 0
1292 1291 -64 0
-1293 1292 65 0
-1293 -1292 -65 0
1293 -1292 65 0
1293 1292 -65 0
-1294 1293 66 0
-1294 -1293 -66 0
1294 -1293 66 0
1294 1293 -66 0
-1295 1294 68 0
-1295 -1294 -68 0
1295 -1294 68 0
1295 1294 -68 0
-1296 1295 70 0
-1296 -1295 -70 0
1296 -1295 70 0
1296 1295 -70 0
-1297 1296 72 0
-1297 -1296 -72 0
1297 -1296 72 0
1297 1296 -72 0
-1298 1297 76 0
-1298 -1297 -76 0
1298 -1297 76 0
1298 1297 -76 0
-1299 1298 83 0
-1299 -1298 -83 0
1299 -1298 83 0
1299 1298 -83 0
-1300 1299 87 0
-1300 -1299 -87 0
1300 -1299 87 0
1300 1299 -87 0
-1301 1300 88 0
-1301 -1300 -88 0
1301 -1300 88 0
1301 1300 -88 0
-1302 1301 94 0
-1302 -1301 -94 0
1302 -1301 94 0
1302 1301 -94 0
-1303 1302 95 0
-1303 -1302 -95 0
1303 -1302 95 0
1303 1302 -95 0
-1304 1303 97 0
-1304 -1303 -97 0
1304 -1303 97 0
1304 1303 -97 0
-1305 1304 98 0
-1305 -1304 -98 0
1305 -1304 98 0
1305 1304 -98 0
-1306 1305 100 0
-1306 -1305 -100 0
1306 -1305 100 0
1306 1305 -100 0
-1307 1306 101 0
-1307 -1306 -101 0
1307 -1306 101 0
1307 1306 -101 0
-1308 1307 102 0
-1308 -1307 -102 0
1308 -1307 102 0
1308 1307 -102 0
-1309 1308 103 0
-1309 -1308 -103 0
1309 -1308 103 0
1309 1308 -103 0
-1310 1309 104 0
-1310 -1309 -104 0
1310 -1309 104 0
1310 1309 -104 0
-1311 1310 105 0
-1311 -1310 -105 0
1311 -1310 105 0
1311 1310 -105 0
-1312 1311 107 0
-1312 -1311 -107 0
1312 -1311 107 0
1312 1311 -107 0
-1313 1312 108 0
-1313 -1312 -108 0
1313 -1312 108 0
1313 1312 -108 0
-1314 1313 110 0
-1314 -1313 -110 0
1314 -1313 110 0
1314 1313 -110 0
-1315 1314 112 0
-1315 -1314 -112 0
1315 -1314 112 0
1315 1314 -112 0
-1316 1315 121 0
-1316 -1315 -121 0
1316 -1315 121 0
1316 1315 -121 0
-1317 1316 122 0
-1317 -1316 -122 0
1317 -1316 122 0
1317 1316 -122 0
-1318 1317 123 0
-1318 -1317 -123 0
1318 -1317 123 0
1318 1317 -123 0
-1319 1318 124 0
-1319 -1318 -124 0
1319 -1318 124 0
1319 1318 -124 0
-1320 1319 133 0
-1320 -1319 -133 0
1320 -1319 133 0
1320 1319 -133 0
-1321 1320 135 0
-1321 -1320 -135 0
1321 -1320 135 0
1321 1320 -135 0
-1322 1321 145 0
-1322 -1321 -145 0
1322 -1321 145 0
1322 1321 -145 0
-1323 1322 148 0
-1323 -1322 -148 0
1323 -1322 148 0
1323 1322 -148 0
-1324 1323 150 0
-1324 -1323 -150 0
1324 -1323 150 0
1324 1323 -150 0
-1325 1324 151 0
-1325 -1324 -151 0
1325 -1324 151 0
1325 1324 -151 0
-1326 1325 152 0
-1326 -1325 -152 0
1326 -1325 152 0
1326 1325 -152 0
-1327 1326 157 0
-1327 -1326 -157 0
1327 -1326 157 0
1327 1326 -157 0
-1328 1327 159 0
-1328 -1327 -159 0
1328 -1327 159 0
1328 1327 -159 0
-1329 1328 161 0
-1329 -1328 -161 0
1329 -1328 161 0
1329 1328 -161 0
-1330 1329 170 0
-1330 -1329 -170 0
1330 -1329 170 0
1330 1329 -170 0
-1331 1330 172 0
-1331 -1330 -172 0
1331 -1330 172 0
1331 1330 -172 0
-1332 1331 174 0
-1332 -1331 -174 0
1332 -1331 174 0
1332 1331 -174 0
-1333 1 6 0
-1333 -1 -6 0
1333 -1 6 0
1333 1 -6 0
-1334 1333 8 0
-1334 -1333 -8 0
1334 -1333 8 0
1334 1333 -8 0
-1335 1334 11 0
-1335 -1334 -11 0
1335 -1334 11 0
1335 1334 -11 0
-1336 1335 19 0
-1336 -1335 -19 0
1336 -1335 19 0
1336 1335 -19 0
-1337 1336 20 0
-1337 -1336 -20 0
1337 -1336 20 0
1337 1336 -20 0
-1338 1337 21 0
-1338 -1337 -21 0
1338 -1337 21 0
1338 1337 -21 0
-1339 1338 24 0
-1339 -1338 -24 0
1339 -1338 24 0
1339 1338 -24 0
-1340 1339 27 0
-1340 -1339 -27 0
1340 -1339 27 0
1340 1339 -27 0
-1341 1340 29 0
-1341 -1340 -29 0
1341 -1340 29 0
1341 1340 -29 0
-1342 1341 30 0
-1342 -1341 -30 0
1342 -1341 30 0
1342 1341 -30 0
-1343 1342 31 0
-1343 -1342 -31 0
1343 -1342 31 0
1343 1342 -31 0
-1344 1343 33 0
-1344 -1343 -33 0
1344 -1343 33 0
1344 1343 -33 0
-1345 1344 35 0
-1345 -1344 -35 0
1345 -1344 35 0
1345 1344 -35 0
-1346 1345 36 0
-1346 -1345 -36 0
1346 -1345 36 0
1346 1345 -36 0
-1347 1346 37 0
-1347 -1346 -37 0
1347 -1346 37 0
1347 1346 -37 0
-1348 1347 39 0
-1348 -1347 -39 0
1348 -1347 39 0
1348 1347 -39 0
-1349 1348 43 0
-1349 -1348 -43 0
1349 -1348 43 0
1349 1348 -43 0
-1350 1349 45 0
-1350 -1349 -45 0
1350 -1349 45 0
1350 1349 -45 0
-1351 1350 47 0
-1351 -1350 -47 0
1351 -1350 47 0
1351 1350 -47 0
-1352 1351 54 0
-1352 -1351 -54 0
1352 -1351 54 0
1352 1351 -54 0
-1353 1352 61 0
-1353 -1352 -61 0
1353 -1352 61 0
1353 1352 -61 0
-1354 1353 62 0
-1354 -1353 -62 0
1354 -1353 62 0
1354 1353 -62 0
-1355 1354 63 0
-1355 -1354 -63 0
1355 -1354 63 0
1355 1354 -63 0
-1356 1355 64 0
-1356 -1355 -64 0
1356 -1355 64 0
1356 1355 -64 0
-1357 1356 67 0
-1357 -1356 -67 0
1357 -1356 67 0
1357 1356 -67 0
-1358 1357 68 0
-1358 -1357 -68 0
1358 -1357 68 0
1358 1357 -68 0
-1359 1358 69 0
-1359 -1358 -69 0
1359 -1358 69 0
1359 1358 -69 0
-1360 1359 70 0
-1360 -1359 -70 0
1360 -1359 70 0
1360 1359 -70 0
-1361 1360 71 0
-1361 -1360 -71 0
1361 -1360 71 0
1361 1360 -71 0
-1362 1361 72 0
-1362 -1361 -72 0
1362 -1361 72 0
1362 1361 -72 0
-1363 1362 73 0
-1363 -1362 -73 0
1363 -1362 73 0
1363 1362 -73 0
-1364 1363 74 0
-1364 -1363 -74 0
1364 -1363 74 0
1364 1363 -74 0
-1365 1364 76 0
-1365 -1364 -76 0
1365 -1364 76 0
1365 1364 -76 0
-1366 1365 77 0
-1366 -1365 -77 0
1366 -1365 77 0
1366 1365 -77 0
-1367 1366 78 0
-1367 -1366 -78 0
1367 -1366 78 0
1367 1366 -78 0
-1368 1367 79 0
-1368 -1367 -79 0
1368 -1367 79 0
1368 1367 -79 0
-1369 1368 80 0
-1369 -1368 -80 0
1369 -1368 80 0
1369 1368 -80 0
-1370 1369 81 0
-1370 -1369 -81 0
1370 -1369 81 0
1370 1369 -81 0
-1371 1370 83 0
-1371 -1370 -83 0
1371 -1370 83 0
1371 1370 -83 0
-1372 1371 84 0
-1372 -1371 -84 0
1372 -1371 84 0
1372 1371 -84 0
-1373 1372 88 0
-1373 -1372 -88 0
1373 -1372 88 0
1373 1372 -88 0
-1374 1373 95 0
-1374 -1373 -95 0
1374 -1373 95 0
1374 1373 -95 0
-1375 1374 99 0
-1375 -1374 -99 0
1375 -1374 99 0
1375 1374 -99 0
-1376 1375 100 0
-1376 -1375 -100 0
1376 -1375 100 0
1376 1375 -100 0
-1377 1376 106 0
-1377 -1376 -106 0
1377 -1376 106 0
1377 1376 -106 0
-1378 1377 107 0
-1378 -1377 -107 0
1378 -1377 107 0
1378 1377 -107 0
-1379 1378 109 0
-1379 -1378 -109 0
1379 -1378 109 0
1379 1378 -109 0
-1380 1379 111 0
-1380 -1379 -111 0
1380 -1379 111 0
1380 1379 -111 0
-1381 1380 122 0
-1381 -1380 -122 0
1381 -1380 122 0
1381 1380 -122 0
-1382 1381 124 0
-1382 -1381 -124 0
1382 -1381 124 0
1382 1381 -124 0
-1383 1382 133 0
-1383 -1382 -133 0
1383 -1382 133 0
1383 1382 -133 0
-1384 1383 134 0
-1384 -1383 -134 0
1384 -1383 134 0
1384 1383 -134 0
-1385 1384 135 0
-1385 -1384 -135 0
1385 -1384 135 0
1385 1384 -135 0
-1386 1385 136 0
-1386 -1385 -136 0
1386 -1385 136 0
1386 1385 -136 0
-1387 1386 146 0
-1387 -1386 -146 0
1387 -1386 146 0
1387 1386 -146 0
-1388 1387 152 0
-1388 -1387 -152 0
1388 -1387 152 0
1388 1387 -152 0
-1389 1388 157 0
-1389 -1388 -157 0
1389 -1388 157 0
1389 1388 -157 0
-1390 1389 159 0
-1390 -1389 -159 0
1390 -1389 159 0
1390 1389 -159 0
-1391 1390 161 0
-1391 -1390 -161 0
1391 -1390 161 0
1391 1390 -161 0
-1392 1391 169 0
-1392 -1391 -169 0
1392 -1391 169 0
1392 1391 -169 0
-1393 1392 175 0
-1393 -1392 -175 0
1393 -1392 175 0
1393 1392 -175 0
-1394 13 14 0
-1394 -13 -14 0
1394 -13 14 0
1394 13 -14 0
-1395 1394 15 0
-1395 -1394 -15 0
1395 -1394 15 0
1395 1394 -15 0
-1396 1395 17 0
-1396 -1395 -17 0
1396 -1395 17 0
1396 1395 -17 0
-1397 1396 19 0
-1397 -1396 -19 0
1397 -1396 19 0
1397 1396 -19 0
-1398 1397 21 0
-1398 -1397 -21 0
1398 -1397 21 0
1398 1397 -21 0
-1399 1398 24 0
-1399 -1398 -24 0
1399 -1398 24 0
1399 1398 -24 0
-1400 1399 25 0
-1400 -1399 -25 0
1400 -1399 25 0
1400 1399 -25 0
-1401 1400 26 0
-1401 -1400 -26 0
1401 -1400 26 0
1401 1400 -26 0
-1402 1401 27 0
-1402 -1401 -27 0
1402 -1401 27 0
1402 1401 -27 0
-1403 1402 28 0
-1403 -1402 -28 0
1403 -1402 28 0
1403 1402 -28 0
-1404 1403 29 0
-1404 -1403 -29 0
1404 -1403 29 0
1404 1403 -29 0
-1405 1404 30 0
-1405 -1404 -30 0
1405 -1404 30 0
1405 1404 -30 0
-1406 1405 38 0
-1406 -1405 -38 0
1406 -1405 38 0
1406 1405 -38 0
-1407 1406 40 0
-1407 -1406 -40 0
1407 -1406 40 0
1407 1406 -40 0
-1408 1407 42 0
-1408 -1407 -42 0
1408 -1407 42 0
1408 1407 -42 0
-1409 1408 44 0
-1409 -1408 -44 0
1409 -1408 44 0
1409 1408 -44 0
-1410 1409 46 0
-1410 -1409 -46 0
1410 -1409 46 0
1410 1409 -46 0
-1411 1410 48 0
-1411 -1410 -48 0
1411 -1410 48 0
1411 1410 -48 0
-1412 1411 54 0
-1412 -1411 -54 0
1412 -1411 54 0
1412 1411 -54 0
-1413 1412 61 0
-1413 -1412 -61 0
1413 -1412 61 0
1413 1412 -61 0
-1414 1413 62 0
-1414 -1413 -62 0
1414 -1413 62 0
1414 1413 -62 0
-1415 1414 63 0
-1415 -1414 -63 0
1415 -1414 63 0
1415 1414 -63 0
-1416 1415 64 0
-1416 -1415 -64 0
1416 -1415 64 0
1416 1415 -64 0
-1417 1416 65 0
-1417 -1416 -65 0
1417 -1416 65 0
1417 1416 -65 0
-1418 1417 66 0
-1418 -1417 -66 0
1418 -1417 66 0
1418 1417 -66 0
-1419 1418 67 0
-1419 -1418 -67 0
1419 -1418 67 0
1419 1418 -67 0
-1420 1419 68 0
-1420 -1419 -68 0
1420 -1419 68 0
1420 1419 -68 0
-1421 1420 69 0
-1421 -1420 -69 0
1421 -1420 69 0
1421 1420 -69 0
-1422 1421 70 0
-1422 -1421 -70 0
1422 -1421 70 0
1422 1421 -70 0
-1423 1422 71 0
-1423 -1422 -71 0
1423 -1422 71 0
1423 1422 -71 0
-1424 1423 72 0
-1424 -1423 -72 0
1424 -1423 72 0
1424 1423 -72 0
-1425 1424 73 0
-1425 -1424 -73 0
1425 -1424 73 0
1425 1424 -73 0
-1426 1425 74 0
-1426 -1425 -74 0
1426 -1425 74 0
1426 1425 -74 0
-1427 1426 75 0
-1427 -1426 -75 0
1427 -1426 75 0
1427 1426 -75 0
-1428 1427 76 0
-1428 -1427 -76 0
1428 -1427 76 0
1428 1427 -76 0
-1429 1428 77 0
-1429 -1428 -77 0
1429 -1428 77 0
1429 1428 -77 0
-1430 1429 78 0
-1430 -1429 -78 0
1430 -1429 78 0
1430 1429 -78 0
-1431 1430 79 0
-1431 -1430 -79 0
1431 -1430 79 0
1431 1430 -79 0
-1432 1431 80 0
-1432 -1431 -80 0
1432 -1431 80 0
1432 1431 -80 0
-1433 1432 81 0
-1433 -1432 -81 0
1433 -1432 81 0
1433 1432 -81 0
-1434 1433 82 0
-1434 -1433 -82 0
1434 -1433 82 0
1434 1433 -82 0
-1435 1434 83 0
-1435 -1434 -83 0
1435 -1434 83 0
1435 1434 -83 0
-1436 1435 84 0
-1436 -1435 -84 0
1436 -1435 84 0
1436 1435 -84 0
-1437 1436 88 0
-1437 -1436 -88 0
1437 -1436 88 0
1437 1436 -88 0
-1438 1437 95 0
-1438 -1437 -95 0
1438 -1437 95 0
1438 1437 -95 0
-1439 1438 122 0
-1439 -1438 -122 0
1439 -1438 122 0
1439 1438 -122 0
-1440 1439 124 0
-1440 -1439 -124 0
1440 -1439 124 0
1440 1439 -124 0
-1441 1440 145 0
-1441 -1440 -145 0
1441 -1440 145 0
1441 1440 -145 0
-1442 1441 147 0
-1442 -1441 -147 0
1442 -1441 147 0
1442 1441 -147 0
-1443 1442 149 0
-1443 -1442 -149 0
1443 -1442 149 0
1443 1442 -149 0
-1444 1443 158 0
-1444 -1443 -158 0
1444 -1443 158 0
1444 1443 -158 0
-1445 1444 160 0
-1445 -1444 -160 0
1445 -1444 160 0
1445 1444 -160 0
-1446 1445 162 0
-1446 -1445 -162 0
1446 -1445 162 0
1446 1445 -162 0
-1447 1446 170 0
-1447 -1446 -170 0
1447 -1446 170 0
1447 1446 -170 0
-1448 1447 176 0
-1448 -1447 -176 0
1448 -1447 176 0
1448 1447 -176 0
1025 1042 1059 1076 1093 1110 1169 1224 1273 1332 1393 1448 0
-1449 2 3 0
1449 -3 0
-1450 2 0
1449 -2 0
-1450 3 0
1450 -2 -3 0
-1451 1 1449 0
1451 -1449 0
-1452 1 1450 0
1452 -1450 0
-1453 1 0
1451 -1 0
-1452 1449 0
1452 -1 -1449 0
-1453 1450 0
1453 -1 -1450 0
-1454 5 6 0
1454 -6 0
-1455 5 0
1454 -5 0
-1455 6 0
1455 -5 -6 0
-1456 4 1454 0
1456 -1454 0
-1457 4 1455 0
1457 -1455 0
-1458 4 0
1456 -4 0
-1457 1454 0
1457 -4 -1454 0
-1458 1455 0
1458 -4 -1455 0
-1459 1451 1456 0
1459 -1456 0
-1460 1451 1457 0
1460 -1457 0
-1461 1451 1458 0
1461 -1458 0
-1462 1451 0
1459 -1451 0
-1460 1452 1456 0
1460 -1451 -1456 0
-1461 1452 1457 0
1461 -1451 -1457 0
-1462 1452 1458 0
1462 -1451 -1458 0
-1463 1452 0
1460 -1452 0
-1461 1453 1456 0
1461 -1452 -1456 0
-1462 1453 1457 0
1462 -1452 -1457 0
-1463 1453 1458 0
1463 -1452 -1458 0
-1464 1453 0
1461 -1453 0
-1462 1456 0
1462 -1453 -1456 0
-1463 1457 0
1463 -1453 -1457 0
-1464 1458 0
1464 -1453 -1458 0
-1465 8 9 0
1465 -9 0
-1466 8 0
1465 -8 0
-1466 9 0
1466 -8 -9 0
-1467 7 1465 0
1467 -1465 0
-1468 7 1466 0
1468 -1466 0
-1469 7 0
1467 -7 0
-1468 1465 0
1468 -7 -1465 0
-1469 1466 0
1469 -7 -1466 0
-1470 11 12 0
1470 -12 0
-1471 11 0
1470 -11 0
-1471 12 0
1471 -11 -12 0
-1472 10 1470 0
1472 -1470 0
-1473 10 1471 0
1473 -1471 0
-1474 10 0
1472 -10 0
-1473 1470 0
1473 -10 -1470 0
-1474 1471 0
1474 -10 -1471 0
-1475 1467 1472 0
1475 -1472 0
-1476 1467 1473 0
1476 -1473 0
-1477 1467 1474 0
1477 -1474 0
-1478 1467 0
1475 -1467 0
-1476 1468 1472 0
1476 -1467 -1472 0
-1477 1468 1473 0
1477 -1467 -1473 0
-1478 1468 1474 0
1478 -1467 -1474 0
-1479 1468 0
1476 -1468 0
-1477 1469 1472 0
1477 -1468 -1472 0
-1478 1469 1473 0
1478 -1468 -1473 0
-1479 1469 1474 0
1479 -1468 -1474 0
-1480 1469 0
1477 -1469 0
-1478 1472 0
1478 -1469 -1472 0
-1479 1473 0
1479 -1469 -1473 0
-1480 1474 0
1480 -1469 -1474 0
-1481 1459 1475 0
1481 -1475 0
-1482 1459 1476 0
1482 -1476 0
-1483 1459 1477 0
1483 -1477 0
-1484 1459 1478 0
1484 -1478 0
-1485 1459 1479 0
1485 -1479 0
-1486 1459 1480 0
1486 -1480 0
-1487 1459 0
1481 -1459 0
-1482 1460 1475 0
1482 -1459 -1475 0
-1483 1460 1476 0
1483 -1459 -1476 0
-1484 1460 1477 0
1484 -1459 -1477 0
-1485 1460 1478 0
1485 -1459 -1478 0
-1486 1460 1479 0
1486 -1459 -1479 0
-1487 1460 1480 0
1487 -1459 -1480 0
-1488 1460 0
1482 -1460 0
-1483 1461 1475 0
1483 -1460 -1475 0
-1484 1461 1476 0
1484 -1460 -1476 0
-1485 1461 1477 0
1485 -1460 -1477 0
-1486 1461 1478 0
1486 -1460 -1478 0
-1487 1461 1479 0
1487 -1460 -1479 0
-1488 1461 1480 0
1488 -1460 -1480 0
-1489 1461 0
1483 -1461 0
-1484 1462 1475 0
1484 -1461 -1475 0
-1485 1462 1476 0
1485 -1461 -1476 0
-1486 1462 1477 0
1486 -1461 -1477 0
-1487 1462 1478 0
1487 -1461 -1478 0
-1488 1462 1479 0
1488 -1461 -1479 0
-1489 1462 1480 0
1489 -1461 -1480 0
-1490 1462 0
1484 -1462 0
-1485 1463 1475 0
1485 -1462 -1475 0
-1486 1463 1476 0
1486 -1462 -1476 0
-1487 1463 1477 0
1487 -1462 -1477 0
-1488 1463 1478 0
1488 -1462 -1478 0
-1489 1463 1479 0
1489 -1462 -1479 0
-1490 1463 1480 0
1490 -1462 -1480 0
-1491 1463 0
1485 -1463 0
-1486 1464 1475 0
1486 -1463 -1475 0
-1487 1464 1476 0
1487 -1463 -1476 0
-1488 1464 1477 0
1488 -1463 -1477 0
-1489 1464 1478 0
1489 -1463 -1478 0
-1490 1464 1479 0
1490 -1463 -1479 0
-1491 1464 1480 0
1491 -1463 -1480 0
-1492 1464 0
1486 -1464 0
-1487 1475 0
1487 -1464 -1475 0
-1488 1476 0
1488 -1464 -1476 0
-1489 1477 0
1489 -1464 -1477 0
-1490 1478 0
1490 -1464 -1478 0
-1491 1479 0
1491 -1464 -1479 0
-1492 1480 0
1492 -1464 -1480 0
-1493 146 147 0
1493 -147 0
-1494 146 0
1493 -146 0
-1494 147 0
1494 -146 -147 0
-1495 145 1493 0
1495 -1493 0
-1496 145 1494 0
1496 -1494 0
-1497 145 0
1495 -145 0
-1496 1493 0
1496 -145 -1493 0
-1497 1494 0
1497 -145 -1494 0
-1498 149 150 0
1498 -150 0
-1499 149 0
1498 -149 0
-1499 150 0
1499 -149 -150 0
-1500 148 1498 0
1500 -1498 0
-1501 148 1499 0
1501 -1499 0
-1502 148 0
1500 -148 0
-1501 1498 0
1501 -148 -1498 0
-1502 1499 0
1502 -148 -1499 0
-1503 1495 1500 0
1503 -1500 0
-1504 1495 1501 0
1504 -1501 0
-1505 1495 1502 0
1505 -1502 0
-1506 1495 0
1503 -1495 0
-1504 1496 1500 0
1504 -1495 -1500 0
-1505 1496 1501 0
1505 -1495 -1501 0
-1506 1496 1502 0
1506 -1495 -1502 0
-1507 1496 0
1504 -1496 0
-1505 1497 1500 0
1505 -1496 -1500 0
-1506 1497 1501 0
1506 -1496 -1501 0
-1507 1497 1502 0
1507 -1496 -1502 0
-1508 1497 0
1505 -1497 0
-1506 1500 0
1506 -1497 -1500 0
-1507 1501 0
1507 -1497 -1501 0
-1508 1502 0
1508 -1497 -1502 0
-1509 152 153 0
1509 -153 0
-1510 152 0
1509 -152 0
-1510 153 0
1510 -152 -153 0
-1511 151 1509 0
1511 -1509 0
-1512 151 1510 0
1512 -1510 0
-1513 151 0
1511 -151 0
-1512 1509 0
1512 -151 -1509 0
-1513 1510 0
1513 -151 -1510 0
-1514 155 156 0
1514 -156 0
-1515 155 0
1514 -155 0
-1515 156 0
1515 -155 -156 0
-1516 154 1514 0
1516 -1514 0
-1517 154 1515 0
1517 -1515 0
-1518 154 0
1516 -154 0
-1517 1514 0
1517 -154 -1514 0
-1518 1515 0
1518 -154 -1515 0
-1519 1511 1516 0
1519 -1516 0
-1520 1511 1517 0
1520 -1517 0
-1521 1511 1518 0
1521 -1518 0
-1522 1511 0
1519 -1511 0
-1520 1512 1516 0
1520 -1511 -1516 0
-1521 1512 1517 0
1521 -1511 -1517 0
-1522 1512 1518 0
1522 -1511 -1518 0
-1523 1512 0
1520 -1512 0
-1521 1513 1516 0
1521 -1512 -1516 0
-1522 1513 1517 0
1522 -1512 -1517 0
-1523 1513 1518 0
1523 -1512 -1518 0
-1524 1513 0
1521 -1513 0
-1522 1516 0
1522 -1513 -1516 0
-1523 1517 0
1523 -1513 -1517 0
-1524 1518 0
1524 -1513 -1518 0
-1525 1503 1519 0
1525 -1519 0
-1526 1503 1520 0
1526 -1520 0
-1527 1503 1521 0
1527 -1521 0
-1528 1503 1522 0
1528 -1522 0
-1529 1503 1523 0
1529 -1523 0
-1530 1503 1524 0
1530 -1524 0
-1531 1503 0
1525 -1503 0
-1526 1504 1519 0
1526 -1503 -1519 0
-1527 1504 1520 0
1527 -1503 -1520 0
-1528 1504 1521 0
1528 -1503 -1521 0
-1529 1504 1522 0
1529 -1503 -1522 0
-1530 1504 1523 0
1530 -1503 -1523 0
-1531 1504 1524 0
1531 -1503 -1524 0
-1532 1504 0
1526 -1504 0
-1527 1505 1519 0
1527 -1504 -1519 0
-1528 1505 1520 0
1528 -1504 -1520 0
-1529 1505 1521 0
1529 -1504 -1521 0
-1530 1505 1522 0
1530 -1504 -1522 0
-1531 1505 1523 0
1531 -1504 -1523 0
-1532 1505 1524 0
1532 -1504 -1524 0
-1533 1505 0
1527 -1505 0
-1528 1506 1519 0
1528 -1505 -1519 0
-1529 1506 1520 0
1529 -1505 -1520 0
-1530 1506 1521 0
1530 -1505 -1521 0
-1531 1506 1522 0
1531 -1505 -1522 0
-1532 1506 1523 0
1532 -1505 -1523 0
-1533 1506 1524 0
1533 -1505 -1524 0
-1534 1506 0
1528 -1506 0
-1529 1507 1519 0
1529 -1506 -1519 0
-1530 1507 1520 0
1530 -1506 -1520 0
-1531 1507 1521 0
1531 -1506 -1521 0
-1532 1507 1522 0
1532 -1506 -1522 0
-1533 1507 1523 0
1533 -1506 -1523 0
-1534 1507 1524 0
1534 -1506 -1524 0
-1535 1507 0
1529 -1507 0
-1530 1508 1519 0
1530 -1507 -1519 0
-1531 1508 1520 0
1531 -1507 -1520 0
-1532 1508 1521 0
1532 -1507 -1521 0
-1533 1508 1522 0
1533 -1507 -1522 0
-1534 1508 1523 0
1534 -1507 -1523 0
-1535 1508 1524 0
1535 -1507 -1524 0
-1536 1508 0
1530 -1508 0
-1531 1519 0
1531 -1508 -1519 0
-1532 1520 0
1532 -1508 -1520 0
-1533 1521 0
1533 -1508 -1521 0
-1534 1522 0
1534 -1508 -1522 0
-1535 1523 0
1535 -1508 -1523 0
-1536 1524 0
1536 -1508 -1524 0
-1537 1481 1525 0
1537 -1525 0
-1538 1481 1526 0
1538 -1526 0
-1539 1481 1527 0
1539 -1527 0
-1540 1481 1528 0
1540 -1528 0
-1541 1481 1529 0
1541 -1529 0
-1542 1481 1530 0
1542 -1530 0
-1543 1481 1531 0
1543 -1531 0
-1544 1481 1532 0
1544 -1532 0
-1545 1481 1533 0
1545 -1533 0
-1546 1481 1534 0
1546 -1534 0
-1547 1481 1535 0
1547 -1535 0
-1548 1481 1536 0
1548 -1536 0
-1549 1481 0
1537 -1481 0
-1538 1482 1525 0
1538 -1481 -1525 0
-1539 1482 1526 0
1539 -1481 -1526 0
-1540 1482 1527 0
1540 -1481 -1527 0
-1541 1482 1528 0
1541 -1481 -1528 0
-1542 1482 1529 0
1542 -1481 -1529 0
-1543 1482 1530 0
1543 -1481 -1530 0
-1544 1482 1531 0
1544 -1481 -1531 0
-1545 1482 1532 0
1545 -1481 -1532 0
-1546 1482 1533 0
1546 -1481 -1533 0
-1547 1482 1534 0
1547 -1481 -1534 0
-1548 1482 1535 0
1548 -1481 -1535 0
-1549 1482 1536 0
1549 -1481 -1536 0
-1550 1482 0
1538 -1482 0
-1539 1483 1525 0
1539 -1482 -1525 0
-1540 1483 1526 0
1540 -1482 -1526 0
-1541 1483 1527 0
1541 -1482 -1527 0
-1542 1483 1528 0
1542 -1482 -1528 0
-1543 1483 1529 0
1543 -1482 -1529 0
-1544 1483 1530 0
1544 -1482 -1530 0
-1545 1483 1531 0
1545 -1482 -1531 0
-1546 1483 1532 0
1546 -1482 -1532 0
-1547 1483 1533 0
1547 -1482 -1533 0
-1548 1483 1534 0
1548 -1482 -1534 0
-1549 1483 1535 0
1549 -1482 -1535 0
-1550 1483 1536 0
1550 -1482 -1536 0
-1551 1483 0
1539 -1483 0
-1540 1484 1525 0
1540 -1483 -1525 0
-1541 1484 1526 0
1541 -1483 -1526 0
-1542 1484 1527 0
1542 -1483 -1527 0
-1543 1484 1528 0
1543 -1483 -1528 0
-1544 1484 1529 0
1544 -1483 -1529 0
-1545 1484 1530 0
1545 -1483 -1530 0
-1546 1484 1531 0
1546 -1483 -1531 0
-1547 1484 1532 0
1547 -1483 -1532 0
-1548 1484 1533 0
1548 -1483 -1533 0
-1549 1484 1534 0
1549 -1483 -1534 0
-1550 1484 1535 0
1550 -1483 -1535 0
-1551 1484 1536 0
1551 -1483 -1536 0
1540 -1484 0
-1541 1485 1525 0
1541 -1484 -1525 0
-1542 1485 1526 0
1542 -1484 -1526 0
-1543 1485 1527 0
1543 -1484 -1527 0
-1544 1485 1528 0
1544 -1484 -1528 0
-1545 1485 1529 0
1545 -1484 -1529 0
-1546 1485 1530 0
1546 -1484 -1530 0
-1547 1485 1531 0
1547 -1484 -1531 0
-1548 1485 1532 0
1548 -1484 -1532 0
-1549 1485 1533 0
1549 -1484 -1533 0
-1550 1485 1534 0
1550 -1484 -1534 0
-1551 1485 1535 0
1551 -1484 -1535 0
1541 -1485 0
-1542 1486 1525 0
1542 -1485 -1525 0
-1543 1486 1526 0
1543 -1485 -1526 0
-1544 1486 1527 0
1544 -1485 -1527 0
-1545 1486 1528 0
1545 -1485 -1528 0
-1546 1486 1529 0
1546 -1485 -1529 0
-1547 1486 1530 0
1547 -1485 -1530 0
-1548 1486 1531 0
1548 -1485 -1531 0
-1549 1486 1532 0
1549 -1485 -1532 0
-1550 1486 1533 0
1550 -1485 -1533 0
-1551 1486 1534 0
1551 -1485 -1534 0
1542 -1486 0
-1543 1487 1525 0
1543 -1486 -1525 0
-1544 1487 1526 0
1544 -1486 -1526 0
-1545 1487 1527 0
1545 -1486 -1527 0
-1546 1487 1528 0
1546 -1486 -1528 0
-1547 1487 1529 0
1547 -1486 -1529 0
-1548 1487 1530 0
1548 -1486 -1530 0
-1549 1487 1531 0
1549 -1486 -1531 0
-1550 1487 1532 0
1550 -1486 -1532 0
-1551 1487 1533 0
1551 -1486 -1533 0
1543 -1487 0
-1544 1488 1525 0
1544 -1487 -1525 0
-1545 1488 1526 0
1545 -1487 -1526 0
-1546 1488 1527 0
1546 -1487 -1527 0
-1547 1488 1528 0
1547 -1487 -1528 0
-1548 1488 1529 0
1548 -1487 -1529 0
-1549 1488 1530 0
1549 -1487 -1530 0
-1550 1488 1531 0
1550 -1487 -1531 0
-1551 1488 1532 0
1551 -1487 -1532 0
1544 -1488 0
-1545 1489 1525 0
1545 -1488 -1525 0
-1546 1489 1526 0
1546 -1488 -1526 0
-1547 1489 1527 0
1547 -1488 -1527 0
-1548 1489 1528 0
1548 -1488 -1528 0
-1549 1489 1529 0
1549 -1488 -1529 0
-1550 1489 1530 0
1550 -1488 -1530 0
-1551 1489 1531 0
1551 -1488 -1531 0
1545 -1489 0
-1546 1490 1525 0
1546 -1489 -1525 0
-1547 1490 1526 0
1547 -1489 -1526 0
-1548 1490 1527 0
1548 -1489 -1527 0
-1549 1490 1528 0
1549 -1489 -1528 0
-1550 1490 1529 0
1550 -1489 -1529 0
-1551 1490 1530 0
1551 -1489 -1530 0
1546 -1490 0
-1547 1491 1525 0
1547 -1490 -1525 0
-1548 1491 1526 0
1548 -1490 -1526 0
-1549 1491 1527 0
1549 -1490 -1527 0
-1550 1491 1528 0
1550 -1490 -1528 0
-1551 1491 1529 0
1551 -1490 -1529 0
1547 -1491 0
-1548 1492 1525 0
1548 -1491 -1525 0
-1549 1492 1526 0
1549 -1491 -1526 0
-1550 1492 1527 0
1550 -1491 -1527 0
-1551 1492 1528 0
1551 -1491 -1528 0
1548 -1492 0
-1549 1525 0
1549 -1492 -1525 0
-1550 1526 0
1550 -1492 -1526 0
-1551 1527 0
1551 -1492 -1527 0
-1552 14 15 0
1552 -15 0
-1553 14 0
1552 -14 0
-1553 15 0
1553 -14 -15 0
-1554 13 1552 0
1554 -1552 0
-1555 13 1553 0
1555 -1553 0
-1556 13 0
1554 -13 0
-1555 1552 0
1555 -13 -1552 0
-1556 1553 0
1556 -13 -1553 0
-1557 17 18 0
1557 -18 0
-1558 17 0
1557 -17 0
-1558 18 0
1558 -17 -18 0
-1559 16 1557 0
1559 -1557 0
-1560 16 1558 0
1560 -1558 0
-1561 16 0
1559 -16 0
-1560 1557 0
1560 -16 -1557 0
-1561 1558 0
1561 -16 -1558 0
-1562 1554 1559 0
1562 -1559 0
-1563 1554 1560 0
1563 -1560 0
-1564 1554 1561 0
1564 -1561 0
-1565 1554 0
1562 -1554 0
-1563 1555 1559 0
1563 -1554 -1559 0
-1564 1555 1560 0
1564 -1554 -1560 0
-1565 1555 1561 0
1565 -1554 -1561 0
-1566 1555 0
1563 -1555 0
-1564 1556 1559 0
1564 -1555 -1559 0
-1565 1556 1560 0
1565 -1555 -1560 0
-1566 1556 1561 0
1566 -1555 -1561 0
-1567 1556 0
1564 -1556 0
-1565 1559 0
1565 -1556 -1559 0
-1566 1560 0
1566 -1556 -1560 0
-1567 1561 0
1567 -1556 -1561 0
-1568 20 21 0
1568 -21 0
-1569 20 0
1568 -20 0
-1569 21 0
1569 -20 -21 0
-1570 19 1568 0
1570 -1568 0
-1571 19 1569 0
1571 -1569 0
-1572 19 0
1570 -19 0
-1571 1568 0
1571 -19 -1568 0
-1572 1569 0
1572 -19 -1569 0
-1573 23 24 0
1573 -24 0
-1574 23 0
1573 -23 0
-1574 24 0
1574 -23 -24 0
-1575 22 1573 0
1575 -1573 0
-1576 22 1574 0
1576 -1574 0
-1577 22 0
1575 -22 0
-1576 1573 0
1576 -22 -1573 0
-1577 1574 0
1577 -22 -1574 0
-1578 1570 1575 0
1578 -1575 0
-1579 1570 1576 0
1579 -1576 0
-1580 1570 1577 0
1580 -1577 0
-1581 1570 0
1578 -1570 0
-1579 1571 1575 0
1579 -1570 -1575 0
-1580 1571 1576 0
1580 -1570 -1576 0
-1581 1571 1577 0
1581 -1570 -1577 0
-1582 1571 0
1579 -1571 0
-1580 1572 1575 0
1580 -1571 -1575 0
-1581 1572 1576 0
1581 -1571 -1576 0
-1582 1572 1577 0
1582 -1571 -1577 0
-1583 1572 0
1580 -1572 0
-1581 1575 0
1581 -1572 -1575 0
-1582 1576 0
1582 -1572 -1576 0
-1583 1577 0
1583 -1572 -1577 0
-1584 1562 1578 0
1584 -1578 0
-1585 1562 1579 0
1585 -1579 0
-1586 1562 1580 0
1586 -1580 0
-1587 1562 1581 0
1587 -1581 0
-1588 1562 1582 0
1588 -1582 0
-1589 1562 1583 0
1589 -1583 0
-1590 1562 0
1584 -1562 0
-1585 1563 1578 0
1585 -1562 -1578 0
-1586 1563 1579 0
1586 -1562 -1579 0
-1587 1563 1580 0
1587 -1562 -1580 0
-1588 1563 1581 0
1588 -1562 -1581 0
-1589 1563 1582 0
1589 -1562 -1582 0
-1590 1563 1583 0
1590 -1562 -1583 0
-1591 1563 0
1585 -1563 0
-1586 1564 1578 0
1586 -1563 -1578 0
-1587 1564 1579 0
1587 -1563 -1579 0
-1588 1564 1580 0
1588 -1563 -1580 0
-1589 1564 1581 0
1589 -1563 -1581 0
-1590 1564 1582 0
1590 -1563 -1582 0
-1591 1564 1583 0
1591 -1563 -1583 0
-1592 1564 0
1586 -1564 0
-1587 1565 1578 0
1587 -1564 -1578 0
-1588 1565 1579 0
1588 -1564 -1579 0
-1589 1565 1580 0
1589 -1564 -1580 0
-1590 1565 1581 0
1590 -1564 -1581 0
-1591 1565 1582 0
1591 -1564 -1582 0
-1592 1565 1583 0
1592 -1564 -1583 0
-1593 1565 0
1587 -1565 0
-1588 1566 1578 0
1588 -1565 -1578 0
-1589 1566 1579 0
1589 -1565 -1579 0
-1590 1566 1580 0
1590 -1565 -1580 0
-1591 1566 1581 0
1591 -1565 -1581 0
-1592 1566 1582 0
1592 -1565 -1582 0
-1593 1566 1583 0
1593 -1565 -1583 0
-1594 1566 0
1588 -1566 0
-1589 1567 1578 0
1589 -1566 -1578 0
-1590 1567 1579 0
1590 -1566 -1579 0
-1591 1567 1580 0
1591 -1566 -1580 0
-1592 1567 1581 0
1592 -1566 -1581 0
-1593 1567 1582 0
1593 -1566 -1582 0
-1594 1567 1583 0
1594 -1566 -1583 0
-1595 1567 0
1589 -1567 0
-1590 1578 0
1590 -1567 -1578 0
-1591 1579 0
1591 -1567 -1579 0
-1592 1580 0
1592 -1567 -1580 0
-1593 1581 0
1593 -1567 -1581 0
-1594 1582 0
1594 -1567 -1582 0
-1595 1583 0
1595 -1567 -1583 0
-1596 158 159 0
1596 -159 0
-1597 158 0
1596 -158 0
-1597 159 0
1597 -158 -159 0
-1598 157 1596 0
1598 -1596 0
-1599 157 1597 0
1599 -1597 0
-1600 157 0
1598 -157 0
-1599 1596 0
1599 -157 -1596 0
-1600 1597 0
1600 -157 -1597 0
-1601 161 162 0
1601 -162 0
-1602 161 0
1601 -161 0
-1602 162 0
1602 -161 -162 0
-1603 160 1601 0
1603 -1601 0
-1604 160 1602 0
1604 -1602 0
-1605 160 0
1603 -160 0
-1604 1601 0
1604 -160 -1601 0
-1605 1602 0
1605 -160 -1602 0
-1606 1598 1603 0
1606 -1603 0
-1607 1598 1604 0
1607 -1604 0
-1608 1598 1605 0
1608 -1605 0
-1609 1598 0
1606 -1598 0
-1607 1599 1603 0
1607 -1598 -1603 0
-1608 1599 1604 0
1608 -1598 -1604 0
-1609 1599 1605 0
1609 -1598 -1605 0
-1610 1599 0
1607 -1599 0
-1608 1600 1603 0
1608 -1599 -1603 0
-1609 1600 1604 0
1609 -1599 -1604 0
-1610 1600 1605 0
1610 -1599 -1605 0
-1611 1600 0
1608 -1600 0
-1609 1603 0
1609 -1600 -1603 0
-1610 1604 0
1610 -1600 -1604 0
-1611 1605 0
1611 -1600 -1605 0
-1612 164 165 0
1612 -165 0
-1613 164 0
1612 -164 0
-1613 165 0
1613 -164 -165 0
-1614 163 1612 0
1614 -1612 0
-1615 163 1613 0
1615 -1613 0
-1616 163 0
1614 -163 0
-1615 1612 0
1615 -163 -1612 0
-1616 1613 0
1616 -163 -1613 0
-1617 167 168 0
1617 -168 0
-1618 167 0
1617 -167 0
-1618 168 0
1618 -167 -168 0
-1619 166 1617 0
1619 -1617 0
-1620 166 1618 0
1620 -1618 0
-1621 166 0
1619 -166 0
-1620 1617 0
1620 -166 -1617 0
-1621 1618 0
1621 -166 -1618 0
-1622 1614 1619 0
1622 -1619 0
-1623 1614 1620 0
1623 -1620 0
-1624 1614 1621 0
1624 -1621 0
-1625 1614 0
1622 -1614 0
-1623 1615 1619 0
1623 -1614 -1619 0
-1624 1615 1620 0
1624 -1614 -1620 0
-1625 1615 1621 0
1625 -1614 -1621 0
-1626 1615 0
1623 -1615 0
-1624 1616 1619 0
1624 -1615 -1619 0
-1625 1616 1620 0
1625 -1615 -1620 0
-1626 1616 1621 0
1626 -1615 -1621 0
-1627 1616 0
1624 -1616 0
-1625 1619 0
1625 -1616 -1619 0
-1626 1620 0
1626 -1616 -1620 0
-1627 1621 0
1627 -1616 -1621 0
-1628 1606 1622 0
1628 -1622 0
-1629 1606 1623 0
1629 -1623 0
-1630 1606 1624 0
1630 -1624 0
-1631 1606 1625 0
1631 -1625 0
-1632 1606 1626 0
1632 -1626 0
-1633 1606 1627 0
1633 -1627 0
-1634 1606 0
1628 -1606 0
-1629 1607 1622 0
1629 -1606 -1622 0
-1630 1607 1623 0
1630 -1606 -1623 0
-1631 1607 1624 0
1631 -1606 -1624 0
-1632 1607 1625 0
1632 -1606 -1625 0
-1633 1607 1626 0
1633 -1606 -1626 0
-1634 1607 1627 0
1634 -1606 -1627 0
-1635 1607 0
1629 -1607 0
-1630 1608 1622 0
1630 -1607 -1622 0
-1631 1608 1623 0
1631 -1607 -1623 0
-1632 1608 1624 0
1632 -1607 -1624 0
-1633 1608 1625 0
1633 -1607 -1625 0
-1634 1608 1626 0
1634 -1607 -1626 0
-1635 1608 1627 0
1635 -1607 -1627 0
-1636 1608 0
1630 -1608 0
-1631 1609 1622 0
1631 -1608 -1622 0
-1632 1609 1623 0
1632 -1608 -1623 0
-1633 1609 1624 0
1633 -1608 -1624 0
-1634 1609 1625 0
1634 -1608 -1625 0
-1635 1609 1626 0
1635 -1608 -1626 0
-1636 1609 1627 0
1636 -1608 -1627 0
-1637 1609 0
1631 -1609 0
-1632 1610 1622 0
1632 -1609 -1622 0
-1633 1610 1623 0
1633 -1609 -1623 0
-1634 1610 1624 0
1634 -1609 -1624 0
-1635 1610 1625 0
1635 -1609 -1625 0
-1636 1610 1626 0
1636 -1609 -1626 0
-1637 1610 1627 0
1637 -1609 -1627 0
-1638 1610 0
1632 -1610 0
-1633 1611 1622 0
1633 -1610 -1622 0
-1634 1611 1623 0
1634 -1610 -1623 0
-1635 1611 1624 0
1635 -1610 -1624 0
-1636 1611 1625 0
1636 -1610 -1625 0
-1637 1611 1626 0
1637 -1610 -1626 0
-1638 1611 1627 0
1638 -1610 -1627 0
-1639 1611 0
1633 -1611 0
-1634 1622 0
1634 -1611 -1622 0
-1635 1623 0
1635 -1611 -1623 0
-1636 1624 0
1636 -1611 -1624 0
-1637 1625 0
1637 -1611 -1625 0
-1638 1626 0
1638 -1611 -1626 0
-1639 1627 0
1639 -1611 -1627 0
-1640 1584 1628 0
1640 -1628 0
-1641 1584 1629 0
1641 -1629 0
-1642 1584 1630 0
1642 -1630 0
-1643 1584 1631 0
1643 -1631 0
-1644 1584 1632 0
1644 -1632 0
-1645 1584 1633 0
1645 -1633 0
-1646 1584 1634 0
1646 -1634 0
-1647 1584 1635 0
1647 -1635 0
-1648 1584 1636 0
1648 -1636 0
-1649 1584 1637 0
1649 -1637 0
-1650 1584 1638 0
1650 -1638 0
-1651 1584 1639 0
1651 -1639 0
-1652 1584 0
1640 -1584 0
-1641 1585 1628 0
1641 -1584 -1628 0
-1642 1585 1629 0
1642 -1584 -1629 0
-1643 1585 1630 0
1643 -1584 -1630 0
-1644 1585 1631 0
1644 -1584 -1631 0
-1645 1585 1632 0
1645 -1584 -1632 0
-1646 1585 1633 0
1646 -1584 -1633 0
-1647 1585 1634 0
1647 -1584 -1634 0
-1648 1585 1635 0
1648 -1584 -1635 0
-1649 1585 1636 0
1649 -1584 -1636 0
-1650 1585 1637 0
1650 -1584 -1637 0
-1651 1585 1638 0
1651 -1584 -1638 0
-1652 1585 1639 0
1652 -1584 -1639 0
-1653 1585 0
1641 -1585 0
-1642 1586 1628 0
1642 -1585 -1628 0
-1643 1586 1629 0
1643 -1585 -1629 0
-1644 1586 1630 0
1644 -1585 -1630 0
-1645 1586 1631 0
1645 -1585 -1631 0
-1646 1586 1632 0
1646 -1585 -1632 0
-1647 1586 1633 0
1647 -1585 -1633 0
-1648 1586 1634 0
1648 -1585 -1634 0
-1649 1586 1635 0
1649 -1585 -1635 0
-1650 1586 1636 0
1650 -1585 -1636 0
-1651 1586 1637 0
1651 -1585 -1637 0
-1652 1586 1638 0
1652 -1585 -1638 0
-1653 1586 1639 0
1653 -1585 -1639 0
-1654 1586 0
1642 -1586 0
-1643 1587 1628 0
1643 -1586 -1628 0
-1644 1587 1629 0
1644 -1586 -1629 0
-1645 1587 1630 0
1645 -1586 -1630 0
-1646 1587 1631 0
1646 -1586 -1631 0
-1647 1587 1632 0
1647 -1586 -1632 0
-1648 1587 1633 0
1648 -1586 -1633 0
-1649 1587 1634 0
1649 -1586 -1634 0
-1650 1587 1635 0
1650 -1586 -1635 0
-1651 1587 1636 0
1651 -1586 -1636 0
-1652 1587 1637 0
1652 -1586 -1637 0
-1653 1587 1638 0
1653 -1586 -1638 0
-1654 1587 1639 0
1654 -1586 -1639 0
1643 -1587 0
-1644 1588 1628 0
1644 -1587 -1628 0
-1645 1588 1629 0
1645 -1587 -1629 0
-1646 1588 1630 0
1646 -1587 -1630 0
-1647 1588 1631 0
1647 -1587 -1631 0
-1648 1588 1632 0
1648 -1587 -1632 0
-1649 1588 1633 0
1649 -1587 -1633 0
-1650 1588 1634 0
1650 -1587 -1634 0
-1651 1588 1635 0
1651 -1587 -1635 0
-1652 1588 1636 0
1652 -1587 -1636 0
-1653 1588 1637 0
1653 -1587 -1637 0
-1654 1588 1638 0
1654 -1587 -1638 0
1644 -1588 0
-1645 1589 1628 0
1645 -1588 -1628 0
-1646 1589 1629 0
1646 -1588 -1629 0
-1647 1589 1630 0
1647 -1588 -1630 0
-1648 1589 1631 0
1648 -1588 -1631 0
-1649 1589 1632 0
1649 -1588 -1632 0
-1650 1589 1633 0
1650 -1588 -1633 0
-1651 1589 1634 0
1651 -1588 -1634 0
-1652 1589 1635 0
1652 -1588 -1635 0
-1653 1589 1636 0
1653 -1588 -1636 0
-1654 1589 1637 0
1654 -1588 -1637 0
1645 -1589 0
-1646 1590 1628 0
1646 -1589 -1628 0
-1647 1590 1629 0
1647 -1589 -1629 0
-1648 1590 1630 0
1648 -1589 -1630 0
-1649 1590 1631 0
1649 -1589 -1631 0
-1650 1590 1632 0
1650 -1589 -1632 0
-1651 1590 1633 0
1651 -1589 -1633 0
-1652 1590 1634 0
1652 -1589 -1634 0
-1653 1590 1635 0
1653 -1589 -1635 0
-1654 1590 1636 0
1654 -1589 -1636 0
1646 -1590 0
-1647 1591 1628 0
1647 -1590 -1628 0
-1648 1591 1629 0
1648 -1590 -1629 0
-1649 1591 1630 0
1649 -1590 -1630 0
-1650 1591 1631 0
1650 -1590 -1631 0
-1651 1591 1632 0
1651 -1590 -1632 0
-1652 1591 1633 0
1652 -1590 -1633 0
-1653 1591 1634 0
1653 -1590 -1634 0
-1654 1591 1635 0
1654 -1590 -1635 0
1647 -1591 0
-1648 1592 1628 0
1648 -1591 -1628 0
-1649 1592 1629 0
1649 -1591 -1629 0
-1650 1592 1630 0
1650 -1591 -1630 0
-1651 1592 1631 0
1651 -1591 -1631 0
-1652 1592 1632 0
1652 -1591 -1632 0
-1653 1592 1633 0
1653 -1591 -1633 0
-1654 1592 1634 0
1654 -1591 -1634 0
1648 -1592 0
-1649 1593 1628 0
1649 -1592 -1628 0
-1650 1593 1629 0
1650 -1592 -1629 0
-1651 1593 1630 0
1651 -1592 -1630 0
-1652 1593 1631 0
1652 -1592 -1631 0
-1653 1593 1632 0
1653 -1592 -1632 0
-1654 1593 1633 0
1654 -1592 -1633 0
1649 -1593 0
-1650 1594 1628 0
1650 -1593 -1628 0
-1651 1594 1629 0
1651 -1593 -1629 0
-1652 1594 1630 0
1652 -1593 -1630 0
-1653 1594 1631 0
1653 -1593 -1631 0
-1654 1594 1632 0
1654 -1593 -1632 0
1650 -1594 0
-1651 1595 1628 0
1651 -1594 -1628 0
-1652 1595 1629 0
1652 -1594 -1629 0
-1653 1595 1630 0
1653 -1594 -1630 0
-1654 1595 1631 0
1654 -1594 -1631 0
1651 -1595 0
-1652 1628 0
1652 -1595 -1628 0
-1653 1629 0
1653 -1595 -1629 0
-1654 1630 0
1654 -1595 -1630 0
-1655 26 27 0
1655 -27 0
-1656 26 0
1655 -26 0
-1656 27 0
1656 -26 -27 0
-1657 25 1655 0
1657 -1655 0
-1658 25 1656 0
1658 -1656 0
-1659 25 0
1657 -25 0
-1658 1655 0
1658 -25 -1655 0
-1659 1656 0
1659 -25 -1656 0
-1660 29 30 0
1660 -30 0
-1661 29 0
1660 -29 0
-1661 30 0
1661 -29 -30 0
-1662 28 1660 0
1662 -1660 0
-1663 28 1661 0
1663 -1661 0
-1664 28 0
1662 -28 0
-1663 1660 0
1663 -28 -1660 0
-1664 1661 0
1664 -28 -1661 0
-1665 1657 1662 0
1665 -1662 0
-1666 1657 1663 0
1666 -1663 0
-1667 1657 1664 0
1667 -1664 0
-1668 1657 0
1665 -1657 0
-1666 1658 1662 0
1666 -1657 -1662 0
-1667 1658 1663 0
1667 -1657 -1663 0
-1668 1658 1664 0
1668 -1657 -1664 0
-1669 1658 0
1666 -1658 0
-1667 1659 1662 0
1667 -1658 -1662 0
-1668 1659 1663 0
1668 -1658 -1663 0
-1669 1659 1664 0
1669 -1658 -1664 0
-1670 1659 0
1667 -1659 0
-1668 1662 0
1668 -1659 -1662 0
-1669 1663 0
1669 -1659 -1663 0
-1670 1664 0
1670 -1659 -1664 0
-1671 32 33 0
1671 -33 0
-1672 32 0
1671 -32 0
-1672 33 0
1672 -32 -33 0
-1673 31 1671 0
1673 -1671 0
-1674 31 1672 0
1674 -1672 0
-1675 31 0
1673 -31 0
-1674 1671 0
1674 -31 -1671 0
-1675 1672 0
1675 -31 -1672 0
-1676 35 36 0
1676 -36 0
-1677 35 0
1676 -35 0
-1677 36 0
1677 -35 -36 0
-1678 34 1676 0
1678 -1676 0
-1679 34 1677 0
1679 -1677 0
-1680 34 0
1678 -34 0
-1679 1676 0
1679 -34 -1676 0
-1680 1677 0
1680 -34 -1677 0
-1681 1673 1678 0
1681 -1678 0
-1682 1673 1679 0
1682 -1679 0
-1683 1673 1680 0
1683 -1680 0
-1684 1673 0
1681 -1673 0
-1682 1674 1678 0
1682 -1673 -1678 0
-1683 1674 1679 0
1683 -1673 -1679 0
-1684 1674 1680 0
1684 -1673 -1680 0
-1685 1674 0
1682 -1674 0
-1683 1675 1678 0
1683 -1674 -1678 0
-1684 1675 1679 0
1684 -1674 -1679 0
-1685 1675 1680 0
1685 -1674 -1680 0
-1686 1675 0
1683 -1675 0
-1684 1678 0
1684 -1675 -1678 0
-1685 1679 0
1685 -1675 -1679 0
-1686 1680 0
1686 -1675 -1680 0
-1687 1665 1681 0
1687 -1681 0
-1688 1665 1682 0
1688 -1682 0
-1689 1665 1683 0
1689 -1683 0
-1690 1665 1684 0
1690 -1684 0
-1691 1665 1685 0
1691 -1685 0
-1692 1665 1686 0
1692 -1686 0
-1693 1665 0
1687 -1665 0
-1688 1666 1681 0
1688 -1665 -1681 0
-1689 1666 1682 0
1689 -1665 -1682 0
-1690 1666 1683 0
1690 -1665 -1683 0
-1691 1666 1684 0
1691 -1665 -1684 0
-1692 1666 1685 0
1692 -1665 -1685 0
-1693 1666 1686 0
1693 -1665 -1686 0
-1694 1666 0
1688 -1666 0
-1689 1667 1681 0
1689 -1666 -1681 0
-1690 1667 1682 0
1690 -1666 -1682 0
-1691 1667 1683 0
1691 -1666 -1683 0
-1692 1667 1684 0
1692 -1666 -1684 0
-1693 1667 1685 0
1693 -1666 -1685 0
-1694 1667 1686 0
1694 -1666 -1686 0
-1695 1667 0
1689 -1667 0
-1690 1668 1681 0
1690 -1667 -1681 0
-1691 1668 1682 0
1691 -1667 -1682 0
-1692 1668 1683 0
1692 -1667 -1683 0
-1693 1668 1684 0
1693 -1667 -1684 0
-1694 1668 1685 0
1694 -1667 -1685 0
-1695 1668 1686 0
1695 -1667 -1686 0
-1696 1668 0
1690 -1668 0
-1691 1669 1681 0
1691 -1668 -1681 0
-1692 1669 1682 0
1692 -1668 -1682 0
-1693 1669 1683 0
1693 -1668 -1683 0
-1694 1669 1684 0
1694 -1668 -1684 0
-1695 1669 1685 0
1695 -1668 -1685 0
-1696 1669 1686 0
1696 -1668 -1686 0
-1697 1669 0
1691 -1669 0
-1692 1670 1681 0
1692 -1669 -1681 0
-1693 1670 1682 0
1693 -1669 -1682 0
-1694 1670 1683 0
1694 -1669 -1683 0
-1695 1670 1684 0
1695 -1669 -1684 0
-1696 1670 1685 0
1696 -1669 -1685 0
-1697 1670 1686 0
1697 -1669 -1686 0
-1698 1670 0
1692 -1670 0
-1693 1681 0
1693 -1670 -1681 0
-1694 1682 0
1694 -1670 -1682 0
-1695 1683 0
1695 -1670 -1683 0
-1696 1684 0
1696 -1670 -1684 0
-1697 1685 0
1697 -1670 -1685 0
-1698 1686 0
1698 -1670 -1686 0
-1699 170 171 0
1699 -171 0
-1700 170 0
1699 -170 0
-1700 171 0
1700 -170 -171 0
-1701 169 1699 0
1701 -1699 0
-1702 169 1700 0
1702 -1700 0
-1703 169 0
1701 -169 0
-1702 1699 0
1702 -169 -1699 0
-1703 1700 0
1703 -169 -1700 0
-1704 173 174 0
1704 -174 0
-1705 173 0
1704 -173 0
-1705 174 0
1705 -173 -174 0
-1706 172 1704 0
1706 -1704 0
-1707 172 1705 0
1707 -1705 0
-1708 172 0
1706 -172 0
-1707 1704 0
1707 -172 -1704 0
-1708 1705 0
1708 -172 -1705 0
-1709 1701 1706 0
1709 -1706 0
-1710 1701 1707 0
1710 -1707 0
-1711 1701 1708 0
1711 -1708 0
-1712 1701 0
1709 -1701 0
-1710 1702 1706 0
1710 -1701 -1706 0
-1711 1702 1707 0
1711 -1701 -1707 0
-1712 1702 1708 0
1712 -1701 -1708 0
-1713 1702 0
1710 -1702 0
-1711 1703 1706 0
1711 -1702 -1706 0
-1712 1703 1707 0
1712 -1702 -1707 0
-1713 1703 1708 0
1713 -1702 -1708 0
-1714 1703 0
1711 -1703 0
-1712 1706 0
1712 -1703 -1706 0
-1713 1707 0
1713 -1703 -1707 0
-1714 1708 0
1714 -1703 -1708 0
-1715 176 177 0
1715 -177 0
-1716 176 0
1715 -176 0
-1716 177 0
1716 -176 -177 0
-1717 175 1715 0
1717 -1715 0
-1718 175 1716 0
1718 -1716 0
-1719 175 0
1717 -175 0
-1718 1715 0
1718 -175 -1715 0
-1719 1716 0
1719 -175 -1716 0
-1720 179 180 0
1720 -180 0
-1721 179 0
1720 -179 0
-1721 180 0
1721 -179 -180 0
-1722 178 1720 0
1722 -1720 0
-1723 178 1721 0
1723 -1721 0
-1724 178 0
1722 -178 0
-1723 1720 0
1723 -178 -1720 0
-1724 1721 0
1724 -178 -1721 0
-1725 1717 1722 0
1725 -1722 0
-1726 1717 1723 0
1726 -1723 0
-1727 1717 1724 0
1727 -1724 0
-1728 1717 0
1725 -1717 0
-1726 1718 1722 0
1726 -1717 -1722 0
-1727 1718 1723 0
1727 -1717 -1723 0
-1728 1718 1724 0
1728 -1717 -1724 0
-1729 1718 0
1726 -1718 0
-1727 1719 1722 0
1727 -1718 -1722 0
-1728 1719 1723 0
1728 -1718 -1723 0
-1729 1719 1724 0
1729 -1718 -1724 0
-1730 1719 0
1727 -1719 0
-1728 1722 0
1728 -1719 -1722 0
-1729 1723 0
1729 -1719 -1723 0
-1730 1724 0
1730 -1719 -1724 0
-1731 1709 1725 0
1731 -1725 0
-1732 1709 1726 0
1732 -1726 0
-1733 1709 1727 0
1733 -1727 0
-1734 1709 1728 0
1734 -1728 0
-1735 1709 1729 0
1735 -1729 0
-1736 1709 1730 0
1736 -1730 0
-1737 1709 0
1731 -1709 0
-1732 1710 1725 0
1732 -1709 -1725 0
-1733 1710 1726 0
1733 -1709 -1726 0
-1734 1710 1727 0
1734 -1709 -1727 0
-1735 1710 1728 0
1735 -1709 -1728 0
-1736 1710 1729 0
1736 -1709 -1729 0
-1737 1710 1730 0
1737 -1709 -1730 0
-1738 1710 0
1732 -1710 0
-1733 1711 1725 0
1733 -1710 -1725 0
-1734 1711 1726 0
1734 -1710 -1726 0
-1735 1711 1727 0
1735 -1710 -1727 0
-1736 1711 1728 0
1736 -1710 -1728 0
-1737 1711 1729 0
1737 -1710 -1729 0
-1738 1711 1730 0
1738 -1710 -1730 0
-1739 1711 0
1733 -1711 0
-1734 1712 1725 0
1734 -1711 -1725 0
-1735 1712 1726 0
1735 -1711 -1726 0
-1736 1712 1727 0
1736 -1711 -1727 0
-1737 1712 1728 0
1737 -1711 -1728 0
-1738 1712 1729 0
1738 -1711 -1729 0
-1739 1712 1730 0
1739 -1711 -1730 0
-1740 1712 0
1734 -1712 0
-1735 1713 1725 0
1735 -1712 -1725 0
-1736 1713 1726 0
1736 -1712 -1726 0
-1737 1713 1727 0
1737 -1712 -1727 0
-1738 1713 1728 0
1738 -1712 -1728 0
-1739 1713 1729 0
1739 -1712 -1729 0
-1740 1713 1730 0
1740 -1712 -1730 0
-1741 1713 0
1735 -1713 0
-1736 1714 1725 0
1736 -1713 -1725 0
-1737 1714 1726 0
1737 -1713 -1726 0
-1738 1714 1727 0
1738 -1713 -1727 0
-1739 1714 1728 0
1739 -1713 -1728 0
-1740 1714 1729 0
1740 -1713 -1729 0
-1741 1714 1730 0
1741 -1713 -1730 0
-1742 1714 0
1736 -1714 0
-1737 1725 0
1737 -1714 -1725 0
-1738 1726 0
1738 -1714 -1726 0
-1739 1727 0
1739 -1714 -1727 0
-1740 1728 0
1740 -1714 -1728 0
-1741 1729 0
1741 -1714 -1729 0
-1742 1730 0
1742 -1714 -1730 0
-1743 1687 1731 0
1743 -1731 0
-1744 1687 1732 0
1744 -1732 0
-1745 1687 1733 0
1745 -1733 0
-1746 1687 1734 0
1746 -1734 0
-1747 1687 1735 0
1747 -1735 0
-1748 1687 1736 0
1748 -1736 0
-1749 1687 1737 0
1749 -1737 0
-1750 1687 1738 0
1750 -1738 0
-1751 1687 1739 0
1751 -1739 0
-1752 1687 1740 0
1752 -1740 0
-1753 1687 1741 0
1753 -1741 0
-1754 1687 1742 0
1754 -1742 0
-1755 1687 0
1743 -1687 0
-1744 1688 1731 0
1744 -1687 -1731 0
-1745 1688 1732 0
1745 -1687 -1732 0
-1746 1688 1733 0
1746 -1687 -1733 0
-1747 1688 1734 0
1747 -1687 -1734 0
-1748 1688 1735 0
1748 -1687 -1735 0
-1749 1688 1736 0
1749 -1687 -1736 0
-1750 1688 1737 0
1750 -1687 -1737 0
-1751 1688 1738 0
1751 -1687 -1738 0
-1752 1688 1739 0
1752 -1687 -1739 0
-1753 1688 1740 0
1753 -1687 -1740 0
-1754 1688 1741 0
1754 -1687 -1741 0
-1755 1688 1742 0
1755 -1687 -1742 0
-1756 1688 0
1744 -1688 0
-1745 1689 1731 0
1745 -1688 -1731 0
-1746 1689 1732 0
1746 -1688 -1732 0
-1747 1689 1733 0
1747 -1688 -1733 0
-1748 1689 1734 0
1748 -1688 -1734 0
-1749 1689 1735 0
1749 -1688 -1735 0
-1750 1689 1736 0
1750 -1688 -1736 0
-1751 1689 1737 0
1751 -1688 -1737 0
-1752 1689 1738 0
1752 -1688 -1738 0
-1753 1689 1739 0
1753 -1688 -1739 0
-1754 1689 1740 0
1754 -1688 -1740 0
-1755 1689 1741 0
1755 -1688 -1741 0
-1756 1689 1742 0
1756 -1688 -1742 0
-1757 1689 0
1745 -1689 0
-1746 1690 1731 0
1746 -1689 -1731 0
-1747 1690 1732 0
1747 -1689 -1732 0
-1748 1690 1733 0
1748 -1689 -1733 0
-1749 1690 1734 0
1749 -1689 -1734 0
-1750 1690 1735 0
1750 -1689 -1735 0
-1751 1690 1736 0
1751 -1689 -1736 0
-1752 1690 1737 0
1752 -1689 -1737 0
-1753 1690 1738 0
1753 -1689 -1738 0
-1754 1690 1739 0
1754 -1689 -1739 0
-1755 1690 1740 0
1755 -1689 -1740 0
-1756 1690 1741 0
1756 -1689 -1741 0
-1757 1690 1742 0
1757 -1689 -1742 0
1746 -1690 0
-1747 1691 1731 0
1747 -1690 -1731 0
-1748 1691 1732 0
1748 -1690 -1732 0
-1749 1691 1733 0
1749 -1690 -1733 0
-1750 1691 1734 0
1750 -1690 -1734 0
-1751 1691 1735 0
1751 -1690 -1735 0
-1752 1691 1736 0
1752 -1690 -1736 0
-1753 1691 1737 0
1753 -1690 -1737 0
-1754 1691 1738 0
1754 -1690 -1738 0
-1755 1691 1739 0
1755 -1690 -1739 0
-1756 1691 1740 0
1756 -1690 -1740 0
-1757 1691 1741 0
1757 -1690 -1741 0
1747 -1691 0
-1748 1692 1731 0
1748 -1691 -1731 0
-1749 1692 1732 0
1749 -1691 -1732 0
-1750 1692 1733 0
1750 -1691 -1733 0
-1751 1692 1734 0
1751 -1691 -1734 0
-1752 1692 1735 0
1752 -1691 -1735 0
-1753 1692 1736 0
1753 -1691 -1736 0
-1754 1692 1737 0
1754 -1691 -1737 0
-1755 1692 1738 0
1755 -1691 -1738 0
-1756 1692 1739 0
1756 -1691 -1739 0
-1757 1692 1740 0
1757 -1691 -1740 0
1748 -1692 0
-1749 1693 1731 0
1749 -1692 -1731 0
-1750 1693 1732 0
1750 -1692 -1732 0
-1751 1693 1733 0
1751 -1692 -1733 0
-1752 1693 1734 0
1752 -1692 -1734 0
-1753 1693 1735 0
1753 -1692 -1735 0
-1754 1693 1736 0
1754 -1692 -1736 0
-1755 1693 1737 0
1755 -1692 -1737 0
-1756 1693 1738 0
1756 -1692 -1738 0
-1757 1693 1739 0
1757 -1692 -1739 0
1749 -1693 0
-1750 1694 1731 0
1750 -1693 -1731 0
-1751 1694 1732 0
1751 -1693 -1732 0
-1752 1694 1733 0
1752 -1693 -1733 0
-1753 1694 1734 0
1753 -1693 -1734 0
-1754 1694 1735 0
1754 -1693 -1735 0
-1755 1694 1736 0
1755 -1693 -1736 0
-1756 1694 1737 0
1756 -1693 -1737 0
-1757 1694 1738 0
1757 -1693 -1738 0
1750 -1694 0
-1751 1695 1731 0
1751 -1694 -1731 0
-1752 1695 1732 0
1752 -1694 -1732 0
-1753 1695 1733 0
1753 -1694 -1733 0
-1754 1695 1734 0
1754 -1694 -1734 0
-1755 1695 1735 0
1755 -1694 -1735 0
-1756 1695 1736 0
1756 -1694 -1736 0
-1757 1695 1737 0
1757 -1694 -1737 0
1751 -1695 0
-1752 1696 1731 0
1752 -1695 -1731 0
-1753 1696 1732 0
1753 -1695 -1732 0
-1754 1696 1733 0
1754 -1695 -1733 0
-1755 1696 1734 0
1755 -1695 -1734 0
-1756 1696 1735 0
1756 -1695 -1735 0
-1757 1696 1736 0
1757 -1695 -1736 0
1752 -1696 0
-1753 1697 1731 0
1753 -1696 -1731 0
-1754 1697 1732 0
1754 -1696 -1732 0
-1755 1697 1733 0
1755 -1696 -1733 0
-1756 1697 1734 0
1756 -1696 -1734 0
-1757 1697 1735 0
1757 -1696 -1735 0
1753 -1697 0
-1754 1698 1731 0
1754 -1697 -1731 0
-1755 1698 1732 0
1755 -1697 -1732 0
-1756 1698 1733 0
1756 -1697 -1733 0
-1757 1698 1734 0
1757 -1697 -1734 0
1754 -1698 0
-1755 1731 0
1755 -1698 -1731 0
-1756 1732 0
1756 -1698 -1732 0
-1757 1733 0
1757 -1698 -1733 0
-1758 38 39 0
1758 -39 0
-1759 38 0
1758 -38 0
-1759 39 0
1759 -38 -39 0
-1760 37 1758 0
1760 -1758 0
-1761 37 1759 0
1761 -1759 0
-1762 37 0
1760 -37 0
-1761 1758 0
1761 -37 -1758 0
-1762 1759 0
1762 -37 -1759 0
-1763 41 42 0
1763 -42 0
-1764 41 0
1763 -41 0
-1764 42 0
1764 -41 -42 0
-1765 40 1763 0
1765 -1763 0
-1766 40 1764 0
1766 -1764 0
-1767 40 0
1765 -40 0
-1766 1763 0
1766 -40 -1763 0
-1767 1764 0
1767 -40 -1764 0
-1768 1760 1765 0
1768 -1765 0
-1769 1760 1766 0
1769 -1766 0
-1770 1760 1767 0
1770 -1767 0
-1771 1760 0
1768 -1760 0
-1769 1761 1765 0
1769 -1760 -1765 0
-1770 1761 1766 0
1770 -1760 -1766 0
-1771 1761 1767 0
1771 -1760 -1767 0
-1772 1761 0
1769 -1761 0
-1770 1762 1765 0
1770 -1761 -1765 0
-1771 1762 1766 0
1771 -1761 -1766 0
-1772 1762 1767 0
1772 -1761 -1767 0
-1773 1762 0
1770 -1762 0
-1771 1765 0
1771 -1762 -1765 0
-1772 1766 0
1772 -1762 -1766 0
-1773 1767 0
1773 -1762 -1767 0
-1774 44 45 0
1774 -45 0
-1775 44 0
1774 -44 0
-1775 45 0
1775 -44 -45 0
-1776 43 1774 0
1776 -1774 0
-1777 43 1775 0
1777 -1775 0
-1778 43 0
1776 -43 0
-1777 1774 0
1777 -43 -1774 0
-1778 1775 0
1778 -43 -1775 0
-1779 47 48 0
1779 -48 0
-1780 47 0
1779 -47 0
-1780 48 0
1780 -47 -48 0
-1781 46 1779 0
1781 -1779 0
-1782 46 1780 0
1782 -1780 0
-1783 46 0
1781 -46 0
-1782 1779 0
1782 -46 -1779 0
-1783 1780 0
1783 -46 -1780 0
-1784 1776 1781 0
1784 -1781 0
-1785 1776 1782 0
1785 -1782 0
-1786 1776 1783 0
1786 -1783 0
-1787 1776 0
1784 -1776 0
-1785 1777 1781 0
1785 -1776 -1781 0
-1786 1777 1782 0
1786 -1776 -1782 0
-1787 1777 1783 0
1787 -1776 -1783 0
-1788 1777 0
1785 -1777 0
-1786 1778 1781 0
1786 -1777 -1781 0
-1787 1778 1782 0
1787 -1777 -1782 0
-1788 1778 1783 0
1788 -1777 -1783 0
-1789 1778 0
1786 -1778 0
-1787 1781 0
1787 -1778 -1781 0
-1788 1782 0
1788 -1778 -1782 0
-1789 1783 0
1789 -1778 -1783 0
-1790 1768 1784 0
1790 -1784 0
-1791 1768 1785 0
1791 -1785 0
-1792 1768 1786 0
1792 -1786 0
-1793 1768 1787 0
1793 -1787 0
-1794 1768 1788 0
1794 -1788 0
-1795 1768 1789 0
1795 -1789 0
-1796 1768 0
1790 -1768 0
-1791 1769 1784 0
1791 -1768 -1784 0
-1792 1769 1785 0
1792 -1768 -1785 0
-1793 1769 1786 0
1793 -1768 -1786 0
-1794 1769 1787 0
1794 -1768 -1787 0
-1795 1769 1788 0
1795 -1768 -1788 0
-1796 1769 1789 0
1796 -1768 -1789 0
-1797 1769 0
1791 -1769 0
-1792 1770 1784 0
1792 -1769 -1784 0
-1793 1770 1785 0
1793 -1769 -1785 0
-1794 1770 1786 0
1794 -1769 -1786 0
-1795 1770 1787 0
1795 -1769 -1787 0
-1796 1770 1788 0
1796 -1769 -1788 0
-1797 1770 1789 0
1797 -1769 -1789 0
-1798 1770 0
1792 -1770 0
-1793 1771 1784 0
1793 -1770 -1784 0
-1794 1771 1785 0
1794 -1770 -1785 0
-1795 1771 1786 0
1795 -1770 -1786 0
-1796 1771 1787 0
1796 -1770 -1787 0
-1797 1771 1788 0
1797 -1770 -1788 0
-1798 1771 1789 0
1798 -1770 -1789 0
-1799 1771 0
1793 -1771 0
-1794 1772 1784 0
1794 -1771 -1784 0
-1795 1772 1785 0
1795 -1771 -1785 0
-1796 1772 1786 0
1796 -1771 -1786 0
-1797 1772 1787 0
1797 -1771 -1787 0
-1798 1772 1788 0
1798 -1771 -1788 0
-1799 1772 1789 0
1799 -1771 -1789 0
-1800 1772 0
1794 -1772 0
-1795 1773 1784 0
1795 -1772 -1784 0
-1796 1773 1785 0
1796 -1772 -1785 0
-1797 1773 1786 0
1797 -1772 -1786 0
-1798 1773 1787 0
1798 -1772 -1787 0
-1799 1773 1788 0
1799 -1772 -1788 0
-1800 1773 1789 0
1800 -1772 -1789 0
-1801 1773 0
1795 -1773 0
-1796 1784 0
1796 -1773 -1784 0
-1797 1785 0
1797 -1773 -1785 0
-1798 1786 0
1798 -1773 -1786 0
-1799 1787 0
1799 -1773 -1787 0
-1800 1788 0
1800 -1773 -1788 0
-1801 1789 0
1801 -1773 -1789 0
-1802 182 183 0
1802 -183 0
-1803 182 0
1802 -182 0
-1803 183 0
1803 -182 -183 0
-1804 181 1802 0
1804 -1802 0
-1805 181 1803 0
1805 -1803 0
-1806 181 0
1804 -181 0
-1805 1802 0
1805 -181 -1802 0
-1806 1803 0
1806 -181 -1803 0
-1807 185 186 0
1807 -186 0
-1808 185 0
1807 -185 0
-1808 186 0
1808 -185 -186 0
-1809 184 1807 0
1809 -1807 0
-1810 184 1808 0
1810 -1808 0
-1811 184 0
1809 -184 0
-1810 1807 0
1810 -184 -1807 0
-1811 1808 0
1811 -184 -1808 0
-1812 1804 1809 0
1812 -1809 0
-1813 1804 1810 0
1813 -1810 0
-1814 1804 1811 0
1814 -1811 0
-1815 1804 0
1812 -1804 0
-1813 1805 1809 0
1813 -1804 -1809 0
-1814 1805 1810 0
1814 -1804 -1810 0
-1815 1805 1811 0
1815 -1804 -1811 0
-1816 1805 0
1813 -1805 0
-1814 1806 1809 0
1814 -1805 -1809 0
-1815 1806 1810 0
1815 -1805 -1810 0
-1816 1806 1811 0
1816 -1805 -1811 0
-1817 1806 0
1814 -1806 0
-1815 1809 0
1815 -1806 -1809 0
-1816 1810 0
1816 -1806 -1810 0
-1817 1811 0
1817 -1806 -1811 0
-1818 188 189 0
1818 -189 0
-1819 188 0
1818 -188 0
-1819 189 0
1819 -188 -189 0
-1820 187 1818 0
1820 -1818 0
-1821 187 1819 0
1821 -1819 0
-1822 187 0
1820 -187 0
-1821 1818 0
1821 -187 -1818 0
-1822 1819 0
1822 -187 -1819 0
-1823 191 192 0
1823 -192 0
-1824 191 0
1823 -191 0
-1824 192 0
1824 -191 -192 0
-1825 190 1823 0
1825 -1823 0
-1826 190 1824 0
1826 -1824 0
-1827 190 0
1825 -190 0
-1826 1823 0
1826 -190 -1823 0
-1827 1824 0
1827 -190 -1824 0
-1828 1820 1825 0
1828 -1825 0
-1829 1820 1826 0
1829 -1826 0
-1830 1820 1827 0
1830 -1827 0
-1831 1820 0
1828 -1820 0
-1829 1821 1825 0
1829 -1820 -1825 0
-1830 1821 1826 0
1830 -1820 -1826 0
-1831 1821 1827 0
1831 -1820 -1827 0
-1832 1821 0
1829 -1821 0
-1830 1822 1825 0
1830 -1821 -1825 0
-1831 1822 1826 0
1831 -1821 -1826 0
-1832 1822 1827 0
1832 -1821 -1827 0
-1833 1822 0
1830 -1822 0
-1831 1825 0
1831 -1822 -1825 0
-1832 1826 0
1832 -1822 -1826 0
-1833 1827 0
1833 -1822 -1827 0
-1834 1812 1828 0
1834 -1828 0
-1835 1812 1829 0
1835 -1829 0
-1836 1812 1830 0
1836 -1830 0
-1837 1812 1831 0
1837 -1831 0
-1838 1812 1832 0
1838 -1832 0
-1839 1812 1833 0
1839 -1833 0
-1840 1812 0
1834 -1812 0
-1835 1813 1828 0
1835 -1812 -1828 0
-1836 1813 1829 0
1836 -1812 -1829 0
-1837 1813 1830 0
1837 -1812 -1830 0
-1838 1813 1831 0
1838 -1812 -1831 0
-1839 1813 1832 0
1839 -1812 -1832 0
-1840 1813 1833 0
1840 -1812 -1833 0
-1841 1813 0
1835 -1813 0
-1836 1814 1828 0
1836 -1813 -1828 0
-1837 1814 1829 0
1837 -1813 -1829 0
-1838 1814 1830 0
1838 -1813 -1830 0
-1839 1814 1831 0
1839 -1813 -1831 0
-1840 1814 1832 0
1840 -1813 -1832 0
-1841 1814 1833 0
1841 -1813 -1833 0
-1842 1814 0
1836 -1814 0
-1837 1815 1828 0
1837 -1814 -1828 0
-1838 1815 1829 0
1838 -1814 -1829 0
-1839 1815 1830 0
1839 -1814 -1830 0
-1840 1815 1831 0
1840 -1814 -1831 0
-1841 1815 1832 0
1841 -1814 -1832 0
-1842 1815 1833 0
1842 -1814 -1833 0
-1843 1815 0
1837 -1815 0
-1838 1816 1828 0
1838 -1815 -1828 0
-1839 1816 1829 0
1839 -1815 -1829 0
-1840 1816 1830 0
1840 -1815 -1830 0
-1841 1816 1831 0
1841 -1815 -1831 0
-1842 1816 1832 0
1842 -1815 -1832 0
-1843 1816 1833 0
1843 -1815 -1833 0
-1844 1816 0
1838 -1816 0
-1839 1817 1828 0
1839 -1816 -1828 0
-1840 1817 1829 0
1840 -1816 -1829 0
-1841 1817 1830 0
1841 -1816 -1830 0
-1842 1817 1831 0
1842 -1816 -1831 0
-1843 1817 1832 0
1843 -1816 -1832 0
-1844 1817 1833 0
1844 -1816 -1833 0
-1845 1817 0
1839 -1817 0
-1840 1828 0
1840 -1817 -1828 0
-1841 1829 0
1841 -1817 -1829 0
-1842 1830 0
1842 -1817 -1830 0
-1843 1831 0
1843 -1817 -1831 0
-1844 1832 0
1844 -1817 -1832 0
-1845 1833 0
1845 -1817 -1833 0
-1846 1790 1834 0
1846 -1834 0
-1847 1790 1835 0
1847 -1835 0
-1848 1790 1836 0
1848 -1836 0
-1849 1790 1837 0
1849 -1837 0
-1850 1790 1838 0
1850 -1838 0
-1851 1790 1839 0
1851 -1839 0
-1852 1790 1840 0
1852 -1840 0
-1853 1790 1841 0
1853 -1841 0
-1854 1790 1842 0
1854 -1842 0
-1855 1790 1843 0
1855 -1843 0
-1856 1790 1844 0
1856 -1844 0
-1857 1790 1845 0
1857 -1845 0
-1858 1790 0
1846 -1790 0
-1847 1791 1834 0
1847 -1790 -1834 0
-1848 1791 1835 0
1848 -1790 -1835 0
-1849 1791 1836 0
1849 -1790 -1836 0
-1850 1791 1837 0
1850 -1790 -1837 0
-1851 1791 1838 0
1851 -1790 -1838 0
-1852 1791 1839 0
1852 -1790 -1839 0
-1853 1791 1840 0
1853 -1790 -1840 0
-1854 1791 1841 0
1854 -1790 -1841 0
-1855 1791 1842 0
1855 -1790 -1842 0
-1856 1791 1843 0
1856 -1790 -1843 0
-1857 1791 1844 0
1857 -1790 -1844 0
-1858 1791 1845 0
1858 -1790 -1845 0
-1859 1791 0
1847 -1791 0
-1848 1792 1834 0
1848 -1791 -1834 0
-1849 1792 1835 0
1849 -1791 -1835 0
-1850 1792 1836 0
1850 -1791 -1836 0
-1851 1792 1837 0
1851 -1791 -1837 0
-1852 1792 1838 0
1852 -1791 -1838 0
-1853 1792 1839 0
1853 -1791 -1839 0
-1854 1792 1840 0
1854 -1791 -1840 0
-1855 1792 1841 0
1855 -1791 -1841 0
-1856 1792 1842 0
1856 -1791 -1842 0
-1857 1792 1843 0
1857 -1791 -1843 0
-1858 1792 1844 0
1858 -1791 -1844 0
-1859 1792 1845 0
1859 -1791 -1845 0
-1860 1792 0
1848 -1792 0
-1849 1793 1834 0
1849 -1792 -1834 0
-1850 1793 1835 0
1850 -1792 -1835 0
-1851 1793 1836 0
1851 -1792 -1836 0
-1852 1793 1837 0
1852 -1792 -1837 0
-1853 1793 1838 0
1853 -1792 -1838 0
-1854 1793 1839 0
1854 -1792 -1839 0
-1855 1793 1840 0
1855 -1792 -1840 0
-1856 1793 1841 0
1856 -1792 -1841 0
-1857 1793 1842 0
1857 -1792 -1842 0
-1858 1793 1843 0
1858 -1792 -1843 0
-1859 1793 1844 0
1859 -1792 -1844 0
-1860 1793 1845 0
1860 -1792 -1845 0
1849 -1793 0
-1850 1794 1834 0
1850 -1793 -1834 0
-1851 1794 1835 0
1851 -1793 -1835 0
-1852 1794 1836 0
1852 -1793 -1836 0
-1853 1794 1837 0
1853 -1793 -1837 0
-1854 1794 1838 0
1854 -1793 -1838 0
-1855 1794 1839 0
1855 -1793 -1839 0
-1856 1794 1840 0
1856 -1793 -1840 0
-1857 1794 1841 0
1857 -1793 -1841 0
-1858 1794 1842 0
1858 -1793 -1842 0
-1859 1794 1843 0
1859 -1793 -1843 0
-1860 1794 1844 0
1860 -1793 -1844 0
1850 -1794 0
-1851 1795 1834 0
1851 -1794 -1834 0
-1852 1795 1835 0
1852 -1794 -1835 0
-1853 1795 1836 0
1853 -1794 -1836 0
-1854 1795 1837 0
1854 -1794 -1837 0
-1855 1795 1838 0
1855 -1794 -1838 0
-1856 1795 1839 0
1856 -1794 -1839 0
-1857 1795 1840 0
1857 -1794 -1840 0
-1858 1795 1841 0
1858 -1794 -1841 0
-1859 1795 1842 0
1859 -1794 -1842 0
-1860 1795 1843 0
1860 -1794 -1843 0
1851 -1795 0
-1852 1796 1834 0
1852 -1795 -1834 0
-1853 1796 1835 0
1853 -1795 -1835 0
-1854 1796 1836 0
1854 -1795 -1836 0
-1855 1796 1837 0
1855 -1795 -1837 0
-1856 1796 1838 0
1856 -1795 -1838 0
-1857 1796 1839 0
1857 -1795 -1839 0
-1858 1796 1840 0
1858 -1795 -1840 0
-1859 1796 1841 0
1859 -1795 -1841 0
-1860 1796 1842 0
1860 -1795 -1842 0
1852 -1796 0
-1853 1797 1834 0
1853 -1796 -1834 0
-1854 1797 1835 0
1854 -1796 -1835 0
-1855 1797 1836 0
1855 -1796 -1836 0
-1856 1797 1837 0
1856 -1796 -1837 0
-1857 1797 1838 0
1857 -1796 -1838 0
-1858 1797 1839 0
1858 -1796 -1839 0
-1859 1797 1840 0
1859 -1796 -1840 0
-1860 1797 1841 0
1860 -1796 -1841 0
1853 -1797 0
-1854 1798 1834 0
1854 -1797 -1834 0
-1855 1798 1835 0
1855 -1797 -1835 0
-1856 1798 1836 0
1856 -1797 -1836 0
-1857 1798 1837 0
1857 -1797 -1837 0
-1858 1798 1838 0
1858 -1797 -1838 0
-1859 1798 1839 0
1859 -1797 -1839 0
-1860 1798 1840 0
1860 -1797 -1840 0
1854 -1798 0
-1855 1799 1834 0
1855 -1798 -1834 0
-1856 1799 1835 0
1856 -1798 -1835 0
-1857 1799 1836 0
1857 -1798 -1836 0
-1858 1799 1837 0
1858 -1798 -1837 0
-1859 1799 1838 0
1859 -1798 -1838 0
-1860 1799 1839 0
1860 -1798 -1839 0
1855 -1799 0
-1856 1800 1834 0
1856 -1799 -1834 0
-1857 1800 1835 0
1857 -1799 -1835 0
-1858 1800 1836 0
1858 -1799 -1836 0
-1859 1800 1837 0
1859 -1799 -1837 0
-1860 1800 1838 0
1860 -1799 -1838 0
1856 -1800 0
-1857 1801 1834 0
1857 -1800 -1834 0
-1858 1801 1835 0
1858 -1800 -1835 0
-1859 1801 1836 0
1859 -1800 -1836 0
-1860 1801 1837 0
1860 -1800 -1837 0
1857 -1801 0
-1858 1834 0
1858 -1801 -1834 0
-1859 1835 0
1859 -1801 -1835 0
-1860 1836 0
1860 -1801 -1836 0
-1861 50 51 0
1861 -51 0
-1862 50 0
1861 -50 0
-1862 51 0
1862 -50 -51 0
-1863 49 1861 0
1863 -1861 0
-1864 49 1862 0
1864 -1862 0
-1865 49 0
1863 -49 0
-1864 1861 0
1864 -49 -1861 0
-1865 1862 0
1865 -49 -1862 0
-1866 53 54 0
1866 -54 0
-1867 53 0
1866 -53 0
-1867 54 0
1867 -53 -54 0
-1868 52 1866 0
1868 -1866 0
-1869 52 1867 0
1869 -1867 0
-1870 52 0
1868 -52 0
-1869 1866 0
1869 -52 -1866 0
-1870 1867 0
1870 -52 -1867 0
-1871 1863 1868 0
1871 -1868 0
-1872 1863 1869 0
1872 -1869 0
-1873 1863 1870 0
1873 -1870 0
-1874 1863 0
1871 -1863 0
-1872 1864 1868 0
1872 -1863 -1868 0
-1873 1864 1869 0
1873 -1863 -1869 0
-1874 1864 1870 0
1874 -1863 -1870 0
-1875 1864 0
1872 -1864 0
-1873 1865 1868 0
1873 -1864 -1868 0
-1874 1865 1869 0
1874 -1864 -1869 0
-1875 1865 1870 0
1875 -1864 -1870 0
-1876 1865 0
1873 -1865 0
-1874 1868 0
1874 -1865 -1868 0
-1875 1869 0
1875 -1865 -1869 0
-1876 1870 0
1876 -1865 -1870 0
-1877 56 57 0
1877 -57 0
-1878 56 0
1877 -56 0
-1878 57 0
1878 -56 -57 0
-1879 55 1877 0
1879 -1877 0
-1880 55 1878 0
1880 -1878 0
-1881 55 0
1879 -55 0
-1880 1877 0
1880 -55 -1877 0
-1881 1878 0
1881 -55 -1878 0
-1882 59 60 0
1882 -60 0
-1883 59 0
1882 -59 0
-1883 60 0
1883 -59 -60 0
-1884 58 1882 0
1884 -1882 0
-1885 58 1883 0
1885 -1883 0
-1886 58 0
1884 -58 0
-1885 1882 0
1885 -58 -1882 0
-1886 1883 0
1886 -58 -1883 0
-1887 1879 1884 0
1887 -1884 0
-1888 1879 1885 0
1888 -1885 0
-1889 1879 1886 0
1889 -1886 0
-1890 1879 0
1887 -1879 0
-1888 1880 1884 0
1888 -1879 -1884 0
-1889 1880 1885 0
1889 -1879 -1885 0
-1890 1880 1886 0
1890 -1879 -1886 0
-1891 1880 0
1888 -1880 0
-1889 1881 1884 0
1889 -1880 -1884 0
-1890 1881 1885 0
1890 -1880 -1885 0
-1891 1881 1886 0
1891 -1880 -1886 0
-1892 1881 0
1889 -1881 0
-1890 1884 0
1890 -1881 -1884 0
-1891 1885 0
1891 -1881 -1885 0
-1892 1886 0
1892 -1881 -1886 0
-1893 1871 1887 0
1893 -1887 0
-1894 1871 1888 0
1894 -1888 0
-1895 1871 1889 0
1895 -1889 0
-1896 1871 1890 0
1896 -1890 0
-1897 1871 1891 0
1897 -1891 0
-1898 1871 1892 0
1898 -1892 0
-1899 1871 0
1893 -1871 0
-1894 1872 1887 0
1894 -1871 -1887 0
-1895 1872 1888 0
1895 -1871 -1888 0
-1896 1872 1889 0
1896 -1871 -1889 0
-1897 1872 1890 0
1897 -1871 -1890 0
-1898 1872 1891 0
1898 -1871 -1891 0
-1899 1872 1892 0
1899 -1871 -1892 0
-1900 1872 0
1894 -1872 0
-1895 1873 1887 0
1895 -1872 -1887 0
-1896 1873 1888 0
1896 -1872 -1888 0
-1897 1873 1889 0
1897 -1872 -1889 0
-1898 1873 1890 0
1898 -1872 -1890 0
-1899 1873 1891 0
1899 -1872 -1891 0
-1900 1873 1892 0
1900 -1872 -1892 0
-1901 1873 0
1895 -1873 0
-1896 1874 1887 0
1896 -1873 -1887 0
-1897 1874 1888 0
1897 -1873 -1888 0
-1898 1874 1889 0
1898 -1873 -1889 0
-1899 1874 1890 0
1899 -1873 -1890 0
-1900 1874 1891 0
1900 -1873 -1891 0
-1901 1874 1892 0
1901 -1873 -1892 0
-1902 1874 0
1896 -1874 0
-1897 1875 1887 0
1897 -1874 -1887 0
-1898 1875 1888 0
1898 -1874 -1888 0
-1899 1875 1889 0
1899 -1874 -1889 0
-1900 1875 1890 0
1900 -1874 -1890 0
-1901 1875 1891 0
1901 -1874 -1891 0
-1902 1875 1892 0
1902 -1874 -1892 0
-1903 1875 0
1897 -1875 0
-1898 1876 1887 0
1898 -1875 -1887 0
-1899 1876 1888 0
1899 -1875 -1888 0
-1900 1876 1889 0
1900 -1875 -1889 0
-1901 1876 1890 0
1901 -1875 -1890 0
-1902 1876 1891 0
1902 -1875 -1891 0
-1903 1876 1892 0
1903 -1875 -1892 0
-1904 1876 0
1898 -1876 0
-1899 1887 0
1899 -1876 -1887 0
-1900 1888 0
1900 -1876 -1888 0
-1901 1889 0
1901 -1876 -1889 0
-1902 1890 0
1902 -1876 -1890 0
-1903 1891 0
1903 -1876 -1891 0
-1904 1892 0
1904 -1876 -1892 0
-1905 194 195 0
1905 -195 0
-1906 194 0
1905 -194 0
-1906 195 0
1906 -194 -195 0
-1907 193 1905 0
1907 -1905 0
-1908 193 1906 0
1908 -1906 0
-1909 193 0
1907 -193 0
-1908 1905 0
1908 -193 -1905 0
-1909 1906 0
1909 -193 -1906 0
-1910 197 198 0
1910 -198 0
-1911 197 0
1910 -197 0
-1911 198 0
1911 -197 -198 0
-1912 196 1910 0
1912 -1910 0
-1913 196 1911 0
1913 -1911 0
-1914 196 0
1912 -196 0
-1913 1910 0
1913 -196 -1910 0
-1914 1911 0
1914 -196 -1911 0
-1915 1907 1912 0
1915 -1912 0
-1916 1907 1913 0
1916 -1913 0
-1917 1907 1914 0
1917 -1914 0
-1918 1907 0
1915 -1907 0
-1916 1908 1912 0
1916 -1907 -1912 0
-1917 1908 1913 0
1917 -1907 -1913 0
-1918 1908 1914 0
1918 -1907 -1914 0
-1919 1908 0
1916 -1908 0
-1917 1909 1912 0
1917 -1908 -1912 0
-1918 1909 1913 0
1918 -1908 -1913 0
-1919 1909 1914 0
1919 -1908 -1914 0
-1920 1909 0
1917 -1909 0
-1918 1912 0
1918 -1909 -1912 0
-1919 1913 0
1919 -1909 -1913 0
-1920 1914 0
1920 -1909 -1914 0
-1921 200 201 0
1921 -201 0
-1922 200 0
1921 -200 0
-1922 201 0
1922 -200 -201 0
-1923 199 1921 0
1923 -1921 0
-1924 199 1922 0
1924 -1922 0
-1925 199 0
1923 -199 0
-1924 1921 0
1924 -199 -1921 0
-1925 1922 0
1925 -199 -1922 0
-1926 203 204 0
1926 -204 0
-1927 203 0
1926 -203 0
-1927 204 0
1927 -203 -204 0
-1928 202 1926 0
1928 -1926 0
-1929 202 1927 0
1929 -1927 0
-1930 202 0
1928 -202 0
-1929 1926 0
1929 -202 -1926 0
-1930 1927 0
1930 -202 -1927 0
-1931 1923 1928 0
1931 -1928 0
-1932 1923 1929 0
1932 -1929 0
-1933 1923 1930 0
1933 -1930 0
-1934 1923 0
1931 -1923 0
-1932 1924 1928 0
1932 -1923 -1928 0
-1933 1924 1929 0
1933 -1923 -1929 0
-1934 1924 1930 0
1934 -1923 -1930 0
-1935 1924 0
1932 -1924 0
-1933 1925 1928 0
1933 -1924 -1928 0
-1934 1925 1929 0
1934 -1924 -1929 0
-1935 1925 1930 0
1935 -1924 -1930 0
-1936 1925 0
1933 -1925 0
-1934 1928 0
1934 -1925 -1928 0
-1935 1929 0
1935 -1925 -1929 0
-1936 1930 0
1936 -1925 -1930 0
-1937 1915 1931 0
1937 -1931 0
-1938 1915 1932 0
1938 -1932 0
-1939 1915 1933 0
1939 -1933 0
-1940 1915 1934 0
1940 -1934 0
-1941 1915 1935 0
1941 -1935 0
-1942 1915 1936 0
1942 -1936 0
-1943 1915 0
1937 -1915 0
-1938 1916 1931 0
1938 -1915 -1931 0
-1939 1916 1932 0
1939 -1915 -1932 0
-1940 1916 1933 0
1940 -1915 -1933 0
-1941 1916 1934 0
1941 -1915 -1934 0
-1942 1916 1935 0
1942 -1915 -1935 0
-1943 1916 1936 0
1943 -1915 -1936 0
-1944 1916 0
1938 -1916 0
-1939 1917 1931 0
1939 -1916 -1931 0
-1940 1917 1932 0
1940 -1916 -1932 0
-1941 1917 1933 0
1941 -1916 -1933 0
-1942 1917 1934 0
1942 -1916 -1934 0
-1943 1917 1935 0
1943 -1916 -1935 0
-1944 1917 1936 0
1944 -1916 -1936 0
-1945 1917 0
1939 -1917 0
-1940 1918 1931 0
1940 -1917 -1931 0
-1941 1918 1932 0
1941 -1917 -1932 0
-1942 1918 1933 0
1942 -1917 -1933 0
-1943 1918 1934 0
1943 -1917 -1934 0
-1944 1918 1935 0
1944 -1917 -1935 0
-1945 1918 1936 0
1945 -1917 -1936 0
-1946 1918 0
1940 -1918 0
-1941 1919 1931 0
1941 -1918 -1931 0
-1942 1919 1932 0
1942 -1918 -1932 0
-1943 1919 1933 0
1943 -1918 -1933 0
-1944 1919 1934 0
1944 -1918 -1934 0
-1945 1919 1935 0
1945 -1918 -1935 0
-1946 1919 1936 0
1946 -1918 -1936 0
-1947 1919 0
1941 -1919 0
-1942 1920 1931 0
1942 -1919 -1931 0
-1943 1920 1932 0
1943 -1919 -1932 0
-1944 1920 1933 0
1944 -1919 -1933 0
-1945 1920 1934 0
1945 -1919 -1934 0
-1946 1920 1935 0
1946 -1919 -1935 0
-1947 1920 1936 0
1947 -1919 -1936 0
-1948 1920 0
1942 -1920 0
-1943 1931 0
1943 -1920 -1931 0
-1944 1932 0
1944 -1920 -1932 0
-1945 1933 0
1945 -1920 -1933 0
-1946 1934 0
1946 -1920 -1934 0
-1947 1935 0
1947 -1920 -1935 0
-1948 1936 0
1948 -1920 -1936 0
-1949 1893 1937 0
1949 -1937 0
-1950 1893 1938 0
1950 -1938 0
-1951 1893 1939 0
1951 -1939 0
-1952 1893 1940 0
1952 -1940 0
-1953 1893 1941 0
1953 -1941 0
-1954 1893 1942 0
1954 -1942 0
-1955 1893 1943 0
1955 -1943 0
-1956 1893 1944 0
1956 -1944 0
-1957 1893 1945 0
1957 -1945 0
-1958 1893 1946 0
1958 -1946 0
-1959 1893 1947 0
1959 -1947 0
-1960 1893 1948 0
1960 -1948 0
-1961 1893 0
1949 -1893 0
-1950 1894 1937 0
1950 -1893 -1937 0
-1951 1894 1938 0
1951 -1893 -1938 0
-1952 1894 1939 0
1952 -1893 -1939 0
-1953 1894 1940 0
1953 -1893 -1940 0
-1954 1894 1941 0
1954 -1893 -1941 0
-1955 1894 1942 0
1955 -1893 -1942 0
-1956 1894 1943 0
1956 -1893 -1943 0
-1957 1894 1944 0
1957 -1893 -1944 0
-1958 1894 1945 0
1958 -1893 -1945 0
-1959 1894 1946 0
1959 -1893 -1946 0
-1960 1894 1947 0
1960 -1893 -1947 0
-1961 1894 1948 0
1961 -1893 -1948 0
-1962 1894 0
1950 -1894 0
-1951 1895 1937 0
1951 -1894 -1937 0
-1952 1895 1938 0
1952 -1894 -1938 0
-1953 1895 1939 0
1953 -1894 -1939 0
-1954 1895 1940 0
1954 -1894 -1940 0
-1955 1895 1941 0
1955 -1894 -1941 0
-1956 1895 1942 0
1956 -1894 -1942 0
-1957 1895 1943 0
1957 -1894 -1943 0
-1958 1895 1944 0
1958 -1894 -1944 0
-1959 1895 1945 0
1959 -1894 -1945 0
-1960 1895 1946 0
1960 -1894 -1946 0
-1961 1895 1947 0
1961 -1894 -1947 0
-1962 1895 1948 0
1962 -1894 -1948 0
-1963 1895 0
1951 -1895 0
-1952 1896 1937 0
1952 -1895 -1937 0
-1953 1896 1938 0
1953 -1895 -1938 0
-1954 1896 1939 0
1954 -1895 -1939 0
-1955 1896 1940 0
1955 -1895 -1940 0
-1956 1896 1941 0
1956 -1895 -1941 0
-1957 1896 1942 0
1957 -1895 -1942 0
-1958 1896 1943 0
1958 -1895 -1943 0
-1959 1896 1944 0
1959 -1895 -1944 0
-1960 1896 1945 0
1960 -1895 -1945 0
-1961 1896 1946 0
1961 -1895 -1946 0
-1962 1896 1947 0
1962 -1895 -1947 0
-1963 1896 1948 0
1963 -1895 -1948 0
1952 -1896 0
-1953 1897 1937 0
1953 -1896 -1937 0
-1954 1897 1938 0
1954 -1896 -1938 0
-1955 1897 1939 0
1955 -1896 -1939 0
-1956 1897 1940 0
1956 -1896 -1940 0
-1957 1897 1941 0
1957 -1896 -1941 0
-1958 1897 1942 0
1958 -1896 -1942 0
-1959 1897 1943 0
1959 -1896 -1943 0
-1960 1897 1944 0
1960 -1896 -1944 0
-1961 1897 1945 0
1961 -1896 -1945 0
-1962 1897 1946 0
1962 -1896 -1946 0
-1963 1897 1947 0
1963 -1896 -1947 0
1953 -1897 0
-1954 1898 1937 0
1954 -1897 -1937 0
-1955 1898 1938 0
1955 -1897 -1938 0
-1956 1898 1939 0
1956 -1897 -1939 0
-1957 1898 1940 0
1957 -1897 -1940 0
-1958 1898 1941 0
1958 -1897 -1941 0
-1959 1898 1942 0
1959 -1897 -1942 0
-1960 1898 1943 0
1960 -1897 -1943 0
-1961 1898 1944 0
1961 -1897 -1944 0
-1962 1898 1945 0
1962 -1897 -1945 0
-1963 1898 1946 0
1963 -1897 -1946 0
1954 -1898 0
-1955 1899 1937 0
1955 -1898 -1937 0
-1956 1899 1938 0
1956 -1898 -1938 0
-1957 1899 1939 0
1957 -1898 -1939 0
-1958 1899 1940 0
1958 -1898 -1940 0
-1959 1899 1941 0
1959 -1898 -1941 0
-1960 1899 1942 0
1960 -1898 -1942 0
-1961 1899 1943 0
1961 -1898 -1943 0
-1962 1899 1944 0
1962 -1898 -1944 0
-1963 1899 1945 0
1963 -1898 -1945 0
1955 -1899 0
-1956 1900 1937 0
1956 -1899 -1937 0
-1957 1900 1938 0
1957 -1899 -1938 0
-1958 1900 1939 0
1958 -1899 -1939 0
-1959 1900 1940 0
1959 -1899 -1940 0
-1960 1900 1941 0
1960 -1899 -1941 0
-1961 1900 1942 0
1961 -1899 -1942 0
-1962 1900 1943 0
1962 -1899 -1943 0
-1963 1900 1944 0
1963 -1899 -1944 0
1956 -1900 0
-1957 1901 1937 0
1957 -1900 -1937 0
-1958 1901 1938 0
1958 -1900 -1938 0
-1959 1901 1939 0
1959 -1900 -1939 0
-1960 1901 1940 0
1960 -1900 -1940 0
-1961 1901 1941 0
1961 -1900 -1941 0
-1962 1901 1942 0
1962 -1900 -1942 0
-1963 1901 1943 0
1963 -1900 -1943 0
1957 -1901 0
-1958 1902 1937 0
1958 -1901 -1937 0
-1959 1902 1938 0
1959 -1901 -1938 0
-1960 1902 1939 0
1960 -1901 -1939 0
-1961 1902 1940 0
1961 -1901 -1940 0
-1962 1902 1941 0
1962 -1901 -1941 0
-1963 1902 1942 0
1963 -1901 -1942 0
1958 -1902 0
-1959 1903 1937 0
1959 -1902 -1937 0
-1960 1903 1938 0
1960 -1902 -1938 0
-1961 1903 1939 0
1961 -1902 -1939 0
-1962 1903 1940 0
1962 -1902 -1940 0
-1963 1903 1941 0
1963 -1902 -1941 0
1959 -1903 0
-1960 1904 1937 0
1960 -1903 -1937 0
-1961 1904 1938 0
1961 -1903 -1938 0
-1962 1904 1939 0
1962 -1903 -1939 0
-1963 1904 1940 0
1963 -1903 -1940 0
1960 -1904 0
-1961 1937 0
1961 -1904 -1937 0
-1962 1938 0
1962 -1904 -1938 0
-1963 1939 0
1963 -1904 -1939 0
-1964 62 63 0
1964 -63 0
-1965 62 0
1964 -62 0
-1965 63 0
1965 -62 -63 0
-1966 61 1964 0
1966 -1964 0
-1967 61 1965 0
1967 -1965 0
-1968 61 0
1966 -61 0
-1967 1964 0
1967 -61 -1964 0
-1968 1965 0
1968 -61 -1965 0
-1969 65 66 0
1969 -66 0
-1970 65 0
1969 -65 0
-1970 66 0
1970 -65 -66 0
-1971 64 1969 0
1971 -1969 0
-1972 64 1970 0
1972 -1970 0
-1973 64 0
1971 -64 0
-1972 1969 0
1972 -64 -1969 0
-1973 1970 0
1973 -64 -1970 0
-1974 1966 1971 0
1974 -1971 0
-1975 1966 1972 0
1975 -1972 0
-1976 1966 1973 0
1976 -1973 0
-1977 1966 0
1974 -1966 0
-1975 1967 1971 0
1975 -1966 -1971 0
-1976 1967 1972 0
1976 -1966 -1972 0
-1977 1967 1973 0
1977 -1966 -1973 0
-1978 1967 0
1975 -1967 0
-1976 1968 1971 0
1976 -1967 -1971 0
-1977 1968 1972 0
1977 -1967 -1972 0
-1978 1968 1973 0
1978 -1967 -1973 0
-1979 1968 0
1976 -1968 0
-1977 1971 0
1977 -1968 -1971 0
-1978 1972 0
1978 -1968 -1972 0
-1979 1973 0
1979 -1968 -1973 0
-1980 68 69 0
1980 -69 0
-1981 68 0
1980 -68 0
-1981 69 0
1981 -68 -69 0
-1982 67 1980 0
1982 -1980 0
-1983 67 1981 0
1983 -1981 0
-1984 67 0
1982 -67 0
-1983 1980 0
1983 -67 -1980 0
-1984 1981 0
1984 -67 -1981 0
-1985 71 72 0
1985 -72 0
-1986 71 0
1985 -71 0
-1986 72 0
1986 -71 -72 0
-1987 70 1985 0
1987 -1985 0
-1988 70 1986 0
1988 -1986 0
-1989 70 0
1987 -70 0
-1988 1985 0
1988 -70 -1985 0
-1989 1986 0
1989 -70 -1986 0
-1990 1982 1987 0
1990 -1987 0
-1991 1982 1988 0
1991 -1988 0
-1992 1982 1989 0
1992 -1989 0
-1993 1982 0
1990 -1982 0
-1991 1983 1987 0
1991 -1982 -1987 0
-1992 1983 1988 0
1992 -1982 -1988 0
-1993 1983 1989 0
1993 -1982 -1989 0
-1994 1983 0
1991 -1983 0
-1992 1984 1987 0
1992 -1983 -1987 0
-1993 1984 1988 0
1993 -1983 -1988 0
-1994 1984 1989 0
1994 -1983 -1989 0
-1995 1984 0
1992 -1984 0
-1993 1987 0
1993 -1984 -1987 0
-1994 1988 0
1994 -1984 -1988 0
-1995 1989 0
1995 -1984 -1989 0
-1996 1974 1990 0
1996 -1990 0
-1997 1974 1991 0
1997 -1991 0
-1998 1974 1992 0
1998 -1992 0
-1999 1974 1993 0
1999 -1993 0
-2000 1974 1994 0
2000 -1994 0
-2001 1974 1995 0
2001 -1995 0
-2002 1974 0
1996 -1974 0
-1997 1975 1990 0
1997 -1974 -1990 0
-1998 1975 1991 0
1998 -1974 -1991 0
-1999 1975 1992 0
1999 -1974 -1992 0
-2000 1975 1993 0
2000 -1974 -1993 0
-2001 1975 1994 0
2001 -1974 -1994 0
-2002 1975 1995 0
2002 -1974 -1995 0
-2003 1975 0
1997 -1975 0
-1998 1976 1990 0
1998 -1975 -1990 0
-1999 1976 1991 0
1999 -1975 -1991 0
-2000 1976 1992 0
2000 -1975 -1992 0
-2001 1976 1993 0
2001 -1975 -1993 0
-2002 1976 1994 0
2002 -1975 -1994 0
-2003 1976 1995 0
2003 -1975 -1995 0
-2004 1976 0
1998 -1976 0
-1999 1977 1990 0
1999 -1976 -1990 0
-2000 1977 1991 0
2000 -1976 -1991 0
-2001 1977 1992 0
2001 -1976 -1992 0
-2002 1977 1993 0
2002 -1976 -1993 0
-2003 1977 1994 0
2003 -1976 -1994 0
-2004 1977 1995 0
2004 -1976 -1995 0
-2005 1977 0
1999 -1977 0
-2000 1978 1990 0
2000 -1977 -1990 0
-2001 1978 1991 0
2001 -1977 -1991 0
-2002 1978 1992 0
2002 -1977 -1992 0
-2003 1978 1993 0
2003 -1977 -1993 0
-2004 1978 1994 0
2004 -1977 -1994 0
-2005 1978 1995 0
2005 -1977 -1995 0
-2006 1978 0
2000 -1978 0
-2001 1979 1990 0
2001 -1978 -1990 0
-2002 1979 1991 0
2002 -1978 -1991 0
-2003 1979 1992 0
2003 -1978 -1992 0
-2004 1979 1993 0
2004 -1978 -1993 0
-2005 1979 1994 0
2005 -1978 -1994 0
-2006 1979 1995 0
2006 -1978 -1995 0
-2007 1979 0
2001 -1979 0
-2002 1990 0
2002 -1979 -1990 0
-2003 1991 0
2003 -1979 -1991 0
-2004 1992 0
2004 -1979 -1992 0
-2005 1993 0
2005 -1979 -1993 0
-2006 1994 0
2006 -1979 -1994 0
-2007 1995 0
2007 -1979 -1995 0
-2008 206 207 0
2008 -207 0
-2009 206 0
2008 -206 0
-2009 207 0
2009 -206 -207 0
-2010 205 2008 0
2010 -2008 0
-2011 205 2009 0
2011 -2009 0
-2012 205 0
2010 -205 0
-2011 2008 0
2011 -205 -2008 0
-2012 2009 0
2012 -205 -2009 0
-2013 209 210 0
2013 -210 0
-2014 209 0
2013 -209 0
-2014 210 0
2014 -209 -210 0
-2015 208 2013 0
2015 -2013 0
-2016 208 2014 0
2016 -2014 0
-2017 208 0
2015 -208 0
-2016 2013 0
2016 -208 -2013 0
-2017 2014 0
2017 -208 -2014 0
-2018 2010 2015 0
2018 -2015 0
-2019 2010 2016 0
2019 -2016 0
-2020 2010 2017 0
2020 -2017 0
-2021 2010 0
2018 -2010 0
-2019 2011 2015 0
2019 -2010 -2015 0
-2020 2011 2016 0
2020 -2010 -2016 0
-2021 2011 2017 0
2021 -2010 -2017 0
-2022 2011 0
2019 -2011 0
-2020 2012 2015 0
2020 -2011 -2015 0
-2021 2012 2016 0
2021 -2011 -2016 0
-2022 2012 2017 0
2022 -2011 -2017 0
-2023 2012 0
2020 -2012 0
-2021 2015 0
2021 -2012 -2015 0
-2022 2016 0
2022 -2012 -2016 0
-2023 2017 0
2023 -2012 -2017 0
-2024 212 213 0
2024 -213 0
-2025 212 0
2024 -212 0
-2025 213 0
2025 -212 -213 0
-2026 211 2024 0
2026 -2024 0
-2027 211 2025 0
2027 -2025 0
-2028 211 0
2026 -211 0
-2027 2024 0
2027 -211 -2024 0
-2028 2025 0
2028 -211 -2025 0
-2029 215 216 0
2029 -216 0
-2030 215 0
2029 -215 0
-2030 216 0
2030 -215 -216 0
-2031 214 2029 0
2031 -2029 0
-2032 214 2030 0
2032 -2030 0
-2033 214 0
2031 -214 0
-2032 2029 0
2032 -214 -2029 0
-2033 2030 0
2033 -214 -2030 0
-2034 2026 2031 0
2034 -2031 0
-2035 2026 2032 0
2035 -2032 0
-2036 2026 2033 0
2036 -2033 0
-2037 2026 0
2034 -2026 0
-2035 2027 2031 0
2035 -2026 -2031 0
-2036 2027 2032 0
2036 -2026 -2032 0
-2037 2027 2033 0
2037 -2026 -2033 0
-2038 2027 0
2035 -2027 0
-2036 2028 2031 0
2036 -2027 -2031 0
-2037 2028 2032 0
2037 -2027 -2032 0
-2038 2028 2033 0
2038 -2027 -2033 0
-2039 2028 0
2036 -2028 0
-2037 2031 0
2037 -2028 -2031 0
-2038 2032 0
2038 -2028 -2032 0
-2039 2033 0
2039 -2028 -2033 0
-2040 2018 2034 0
2040 -2034 0
-2041 2018 2035 0
2041 -2035 0
-2042 2018 2036 0
2042 -2036 0
-2043 2018 2037 0
2043 -2037 0
-2044 2018 2038 0
2044 -2038 0
-2045 2018 2039 0
2045 -2039 0
-2046 2018 0
2040 -2018 0
-2041 2019 2034 0
2041 -2018 -2034 0
-2042 2019 2035 0
2042 -2018 -2035 0
-2043 2019 2036 0
2043 -2018 -2036 0
-2044 2019 2037 0
2044 -2018 -2037 0
-2045 2019 2038 0
2045 -2018 -2038 0
-2046 2019 2039 0
2046 -2018 -2039 0
-2047 2019 0
2041 -2019 0
-2042 2020 2034 0
2042 -2019 -2034 0
-2043 2020 2035 0
2043 -2019 -2035 0
-2044 2020 2036 0
2044 -2019 -2036 0
-2045 2020 2037 0
2045 -2019 -2037 0
-2046 2020 2038 0
2046 -2019 -2038 0
-2047 2020 2039 0
2047 -2019 -2039 0
-2048 2020 0
2042 -2020 0
-2043 2021 2034 0
2043 -2020 -2034 0
-2044 2021 2035 0
2044 -2020 -2035 0
-2045 2021 2036 0
2045 -2020 -2036 0
-2046 2021 2037 0
2046 -2020 -2037 0
-2047 2021 2038 0
2047 -2020 -2038 0
-2048 2021 2039 0
2048 -2020 -2039 0
-2049 2021 0
2043 -2021 0
-2044 2022 2034 0
2044 -2021 -2034 0
-2045 2022 2035 0
2045 -2021 -2035 0
-2046 2022 2036 0
2046 -2021 -2036 0
-2047 2022 2037 0
2047 -2021 -2037 0
-2048 2022 2038 0
2048 -2021 -2038 0
-2049 2022 2039 0
2049 -2021 -2039 0
-2050 2022 0
2044 -2022 0
-2045 2023 2034 0
2045 -2022 -2034 0
-2046 2023 2035 0
2046 -2022 -2035 0
-2047 2023 2036 0
2047 -2022 -2036 0
-2048 2023 2037 0
2048 -2022 -2037 0
-2049 2023 2038 0
2049 -2022 -2038 0
-2050 2023 2039 0
2050 -2022 -2039 0
-2051 2023 0
2045 -2023 0
-2046 2034 0
2046 -2023 -2034 0
-2047 2035 0
2047 -2023 -2035 0
-2048 2036 0
2048 -2023 -2036 0
-2049 2037 0
2049 -2023 -2037 0
-2050 2038 0
2050 -2023 -2038 0
-2051 2039 0
2051 -2023 -2039 0
-2052 1996 2040 0
2052 -2040 0
-2053 1996 2041 0
2053 -2041 0
-2054 1996 2042 0
2054 -2042 0
-2055 1996 2043 0
2055 -2043 0
-2056 1996 2044 0
2056 -2044 0
-2057 1996 2045 0
2057 -2045 0
-2058 1996 2046 0
2058 -2046 0
-2059 1996 2047 0
2059 -2047 0
-2060 1996 2048 0
2060 -2048 0
-2061 1996 2049 0
2061 -2049 0
-2062 1996 2050 0
2062 -2050 0
-2063 1996 2051 0
2063 -2051 0
-2064 1996 0
2052 -1996 0
-2053 1997 2040 0
2053 -1996 -2040 0
-2054 1997 2041 0
2054 -1996 -2041 0
-2055 1997 2042 0
2055 -1996 -2042 0
-2056 1997 2043 0
2056 -1996 -2043 0
-2057 1997 2044 0
2057 -1996 -2044 0
-2058 1997 2045 0
2058 -1996 -2045 0
-2059 1997 2046 0
2059 -1996 -2046 0
-2060 1997 2047 0
2060 -1996 -2047 0
-2061 1997 2048 0
2061 -1996 -2048 0
-2062 1997 2049 0
2062 -1996 -2049 0
-2063 1997 2050 0
2063 -1996 -2050 0
-2064 1997 2051 0
2064 -1996 -2051 0
-2065 1997 0
2053 -1997 0
-2054 1998 2040 0
2054 -1997 -2040 0
-2055 1998 2041 0
2055 -1997 -2041 0
-2056 1998 2042 0
2056 -1997 -2042 0
-2057 1998 2043 0
2057 -1997 -2043 0
-2058 1998 2044 0
2058 -1997 -2044 0
-2059 1998 2045 0
2059 -1997 -2045 0
-2060 1998 2046 0
2060 -1997 -2046 0
-2061 1998 2047 0
2061 -1997 -2047 0
-2062 1998 2048 0
2062 -1997 -2048 0
-2063 1998 2049 0
2063 -1997 -2049 0
-2064 1998 2050 0
2064 -1997 -2050 0
-2065 1998 2051 0
2065 -1997 -2051 0
-2066 1998 0
2054 -1998 0
-2055 1999 2040 0
2055 -1998 -2040 0
-2056 1999 2041 0
2056 -1998 -2041 0
-2057 1999 2042 0
2057 -1998 -2042 0
-2058 1999 2043 0
2058 -1998 -2043 0
-2059 1999 2044 0
2059 -1998 -2044 0
-2060 1999 2045 0
2060 -1998 -2045 0
-2061 1999 2046 0
2061 -1998 -2046 0
-2062 1999 2047 0
2062 -1998 -2047 0
-2063 1999 2048 0
2063 -1998 -2048 0
-2064 1999 2049 0
2064 -1998 -2049 0
-2065 1999 2050 0
2065 -1998 -2050 0
-2066 1999 2051 0
2066 -1998 -2051 0
2055 -1999 0
-2056 2000 2040 0
2056 -1999 -2040 0
-2057 2000 2041 0
2057 -1999 -2041 0
-2058 2000 2042 0
2058 -1999 -2042 0
-2059 2000 2043 0
2059 -1999 -2043 0
-2060 2000 2044 0
2060 -1999 -2044 0
-2061 2000 2045 0
2061 -1999 -2045 0
-2062 2000 2046 0
2062 -1999 -2046 0
-2063 2000 2047 0
2063 -1999 -2047 0
-2064 2000 2048 0
2064 -1999 -2048 0
-2065 2000 2049 0
2065 -1999 -2049 0
-2066 2000 2050 0
2066 -1999 -2050 0
2056 -2000 0
-2057 2001 2040 0
2057 -2000 -2040 0
-2058 2001 2041 0
2058 -2000 -2041 0
-2059 2001 2042 0
2059 -2000 -2042 0
-2060 2001 2043 0
2060 -2000 -2043 0
-2061 2001 2044 0
2061 -2000 -2044 0
-2062 2001 2045 0
2062 -2000 -2045 0
-2063 2001 2046 0
2063 -2000 -2046 0
-2064 2001 2047 0
2064 -2000 -2047 0
-2065 2001 2048 0
2065 -2000 -2048 0
-2066 2001 2049 0
2066 -2000 -2049 0
2057 -2001 0
-2058 2002 2040 0
2058 -2001 -2040 0
-2059 2002 2041 0
2059 -2001 -2041 0
-2060 2002 2042 0
2060 -2001 -2042 0
-2061 2002 2043 0
2061 -2001 -2043 0
-2062 2002 2044 0
2062 -2001 -2044 0
-2063 2002 2045 0
2063 -2001 -2045 0
-2064 2002 2046 0
2064 -2001 -2046 0
-2065 2002 2047 0
2065 -2001 -2047 0
-2066 2002 2048 0
2066 -2001 -2048 0
2058 -2002 0
-2059 2003 2040 0
2059 -2002 -2040 0
-2060 2003 2041 0
2060 -2002 -2041 0
-2061 2003 2042 0
2061 -2002 -2042 0
-2062 2003 2043 0
2062 -2002 -2043 0
-2063 2003 2044 0
2063 -2002 -2044 0
-2064 2003 2045 0
2064 -2002 -2045 0
-2065 2003 2046 0
2065 -2002 -2046 0
-2066 2003 2047 0
2066 -2002 -2047 0
2059 -2003 0
-2060 2004 2040 0
2060 -2003 -2040 0
-2061 2004 2041 0
2061 -2003 -2041 0
-2062 2004 2042 0
2062 -2003 -2042 0
-2063 2004 2043 0
2063 -2003 -2043 0
-2064 2004 2044 0
2064 -2003 -2044 0
-2065 2004 2045 0
2065 -2003 -2045 0
-2066 2004 2046 0
2066 -2003 -2046 0
2060 -2004 0
-2061 2005 2040 0
2061 -2004 -2040 0
-2062 2005 2041 0
2062 -2004 -2041 0
-2063 2005 2042 0
2063 -2004 -2042 0
-2064 2005 2043 0
2064 -2004 -2043 0
-2065 2005 2044 0
2065 -2004 -2044 0
-2066 2005 2045 0
2066 -2004 -2045 0
2061 -2005 0
-2062 2006 2040 0
2062 -2005 -2040 0
-2063 2006 2041 0
2063 -2005 -2041 0
-2064 2006 2042 0
2064 -2005 -2042 0
-2065 2006 2043 0
2065 -2005 -2043 0
-2066 2006 2044 0
2066 -2005 -2044 0
2062 -2006 0
-2063 2007 2040 0
2063 -2006 -2040 0
-2064 2007 2041 0
2064 -2006 -2041 0
-2065 2007 2042 0
2065 -2006 -2042 0
-2066 2007 2043 0
2066 -2006 -2043 0
2063 -2007 0
-2064 2040 0
2064 -2007 -2040 0
-2065 2041 0
2065 -2007 -2041 0
-2066 2042 0
2066 -2007 -2042 0
-2067 74 75 0
2067 -75 0
-2068 74 0
2067 -74 0
-2068 75 0
2068 -74 -75 0
-2069 73 2067 0
2069 -2067 0
-2070 73 2068 0
2070 -2068 0
-2071 73 0
2069 -73 0
-2070 2067 0
2070 -73 -2067 0
-2071 2068 0
2071 -73 -2068 0
-2072 77 78 0
2072 -78 0
-2073 77 0
2072 -77 0
-2073 78 0
2073 -77 -78 0
-2074 76 2072 0
2074 -2072 0
-2075 76 2073 0
2075 -2073 0
-2076 76 0
2074 -76 0
-2075 2072 0
2075 -76 -2072 0
-2076 2073 0
2076 -76 -2073 0
-2077 2069 2074 0
2077 -2074 0
-2078 2069 2075 0
2078 -2075 0
-2079 2069 2076 0
2079 -2076 0
-2080 2069 0
2077 -2069 0
-2078 2070 2074 0
2078 -2069 -2074 0
-2079 2070 2075 0
2079 -2069 -2075 0
-2080 2070 2076 0
2080 -2069 -2076 0
-2081 2070 0
2078 -2070 0
-2079 2071 2074 0
2079 -2070 -2074 0
-2080 2071 2075 0
2080 -2070 -2075 0
-2081 2071 2076 0
2081 -2070 -2076 0
-2082 2071 0
2079 -2071 0
-2080 2074 0
2080 -2071 -2074 0
-2081 2075 0
2081 -2071 -2075 0
-2082 2076 0
2082 -2071 -2076 0
-2083 80 81 0
2083 -81 0
-2084 80 0
2083 -80 0
-2084 81 0
2084 -80 -81 0
-2085 79 2083 0
2085 -2083 0
-2086 79 2084 0
2086 -2084 0
-2087 79 0
2085 -79 0
-2086 2083 0
2086 -79 -2083 0
-2087 2084 0
2087 -79 -2084 0
-2088 83 84 0
2088 -84 0
-2089 83 0
2088 -83 0
-2089 84 0
2089 -83 -84 0
-2090 82 2088 0
2090 -2088 0
-2091 82 2089 0
2091 -2089 0
-2092 82 0
2090 -82 0
-2091 2088 0
2091 -82 -2088 0
-2092 2089 0
2092 -82 -2089 0
-2093 2085 2090 0
2093 -2090 0
-2094 2085 2091 0
2094 -2091 0
-2095 2085 2092 0
2095 -2092 0
-2096 2085 0
2093 -2085 0
-2094 2086 2090 0
2094 -2085 -2090 0
-2095 2086 2091 0
2095 -2085 -2091 0
-2096 2086 2092 0
2096 -2085 -2092 0
-2097 2086 0
2094 -2086 0
-2095 2087 2090 0
2095 -2086 -2090 0
-2096 2087 2091 0
2096 -2086 -2091 0
-2097 2087 2092 0
2097 -2086 -2092 0
-2098 2087 0
2095 -2087 0
-2096 2090 0
2096 -2087 -2090 0
-2097 2091 0
2097 -2087 -2091 0
-2098 2092 0
2098 -2087 -2092 0
-2099 2077 2093 0
2099 -2093 0
-2100 2077 2094 0
2100 -2094 0
-2101 2077 2095 0
2101 -2095 0
-2102 2077 2096 0
2102 -2096 0
-2103 2077 2097 0
2103 -2097 0
-2104 2077 2098 0
2104 -2098 0
-2105 2077 0
2099 -2077 0
-2100 2078 2093 0
2100 -2077 -2093 0
-2101 2078 2094 0
2101 -2077 -2094 0
-2102 2078 2095 0
2102 -2077 -2095 0
-2103 2078 2096 0
2103 -2077 -2096 0
-2104 2078 2097 0
2104 -2077 -2097 0
-2105 2078 2098 0
2105 -2077 -2098 0
-2106 2078 0
2100 -2078 0
-2101 2079 2093 0
2101 -2078 -2093 0
-2102 2079 2094 0
2102 -2078 -2094 0
-2103 2079 2095 0
2103 -2078 -2095 0
-2104 2079 2096 0
2104 -2078 -2096 0
-2105 2079 2097 0
2105 -2078 -2097 0
-2106 2079 2098 0
2106 -2078 -2098 0
-2107 2079 0
2101 -2079 0
-2102 2080 2093 0
2102 -2079 -2093 0
-2103 2080 2094 0
2103 -2079 -2094 0
-2104 2080 2095 0
2104 -2079 -2095 0
-2105 2080 2096 0
2105 -2079 -2096 0
-2106 2080 2097 0
2106 -2079 -2097 0
-2107 2080 2098 0
2107 -2079 -2098 0
-2108 2080 0
2102 -2080 0
-2103 2081 2093 0
2103 -2080 -2093 0
-2104 2081 2094 0
2104 -2080 -2094 0
-2105 2081 2095 0
2105 -2080 -2095 0
-2106 2081 2096 0
2106 -2080 -2096 0
-2107 2081 2097 0
2107 -2080 -2097 0
-2108 2081 2098 0
2108 -2080 -2098 0
-2109 2081 0
2103 -2081 0
-2104 2082 2093 0
2104 -2081 -2093 0
-2105 2082 2094 0
2105 -2081 -2094 0
-2106 2082 2095 0
2106 -2081 -2095 0
-2107 2082 2096 0
2107 -2081 -2096 0
-2108 2082 2097 0
2108 -2081 -2097 0
-2109 2082 2098 0
2109 -2081 -2098 0
-2110 2082 0
2104 -2082 0
-2105 2093 0
2105 -2082 -2093 0
-2106 2094 0
2106 -2082 -2094 0
-2107 2095 0
2107 -2082 -2095 0
-2108 2096 0
2108 -2082 -2096 0
-2109 2097 0
2109 -2082 -2097 0
-2110 2098 0
2110 -2082 -2098 0
-2111 218 219 0
2111 -219 0
-2112 218 0
2111 -218 0
-2112 219 0
2112 -218 -219 0
-2113 217 2111 0
2113 -2111 0
-2114 217 2112 0
2114 -2112 0
-2115 217 0
2113 -217 0
-2114 2111 0
2114 -217 -2111 0
-2115 2112 0
2115 -217 -2112 0
-2116 221 222 0
2116 -222 0
-2117 221 0
2116 -221 0
-2117 222 0
2117 -221 -222 0
-2118 220 2116 0
2118 -2116 0
-2119 220 2117 0
2119 -2117 0
-2120 220 0
2118 -220 0
-2119 2116 0
2119 -220 -2116 0
-2120 2117 0
2120 -220 -2117 0
-2121 2113 2118 0
2121 -2118 0
-2122 2113 2119 0
2122 -2119 0
-2123 2113 2120 0
2123 -2120 0
-2124 2113 0
2121 -2113 0
-2122 2114 2118 0
2122 -2113 -2118 0
-2123 2114 2119 0
2123 -2113 -2119 0
-2124 2114 2120 0
2124 -2113 -2120 0
-2125 2114 0
2122 -2114 0
-2123 2115 2118 0
2123 -2114 -2118 0
-2124 2115 2119 0
2124 -2114 -2119 0
-2125 2115 2120 0
2125 -2114 -2120 0
-2126 2115 0
2123 -2115 0
-2124 2118 0
2124 -2115 -2118 0
-2125 2119 0
2125 -2115 -2119 0
-2126 2120 0
2126 -2115 -2120 0
-2127 224 225 0
2127 -225 0
-2128 224 0
2127 -224 0
-2128 225 0
2128 -224 -225 0
-2129 223 2127 0
2129 -2127 0
-2130 223 2128 0
2130 -2128 0
-2131 223 0
2129 -223 0
-2130 2127 0
2130 -223 -2127 0
-2131 2128 0
2131 -223 -2128 0
-2132 227 228 0
2132 -228 0
-2133 227 0
2132 -227 0
-2133 228 0
2133 -227 -228 0
-2134 226 2132 0
2134 -2132 0
-2135 226 2133 0
2135 -2133 0
-2136 226 0
2134 -226 0
-2135 2132 0
2135 -226 -2132 0
-2136 2133 0
2136 -226 -2133 0
-2137 2129 2134 0
2137 -2134 0
-2138 2129 2135 0
2138 -2135 0
-2139 2129 2136 0
2139 -2136 0
-2140 2129 0
2137 -2129 0
-2138 2130 2134 0
2138 -2129 -2134 0
-2139 2130 2135 0
2139 -2129 -2135 0
-2140 2130 2136 0
2140 -2129 -2136 0
-2141 2130 0
2138 -2130 0
-2139 2131 2134 0
2139 -2130 -2134 0
-2140 2131 2135 0
2140 -2130 -2135 0
-2141 2131 2136 0
2141 -2130 -2136 0
-2142 2131 0
2139 -2131 0
-2140 2134 0
2140 -2131 -2134 0
-2141 2135 0
2141 -2131 -2135 0
-2142 2136 0
2142 -2131 -2136 0
-2143 2121 2137 0
2143 -2137 0
-2144 2121 2138 0
2144 -2138 0
-2145 2121 2139 0
2145 -2139 0
-2146 2121 2140 0
2146 -2140 0
-2147 2121 2141 0
2147 -2141 0
-2148 2121 2142 0
2148 -2142 0
-2149 2121 0
2143 -2121 0
-2144 2122 2137 0
2144 -2121 -2137 0
-2145 2122 2138 0
2145 -2121 -2138 0
-2146 2122 2139 0
2146 -2121 -2139 0
-2147 2122 2140 0
2147 -2121 -2140 0
-2148 2122 2141 0
2148 -2121 -2141 0
-2149 2122 2142 0
2149 -2121 -2142 0
-2150 2122 0
2144 -2122 0
-2145 2123 2137 0
2145 -2122 -2137 0
-2146 2123 2138 0
2146 -2122 -2138 0
-2147 2123 2139 0
2147 -2122 -2139 0
-2148 2123 2140 0
2148 -2122 -2140 0
-2149 2123 2141 0
2149 -2122 -2141 0
-2150 2123 2142 0
2150 -2122 -2142 0
-2151 2123 0
2145 -2123 0
-2146 2124 2137 0
2146 -2123 -2137 0
-2147 2124 2138 0
2147 -2123 -2138 0
-2148 2124 2139 0
2148 -2123 -2139 0
-2149 2124 2140 0
2149 -2123 -2140 0
-2150 2124 2141 0
2150 -2123 -2141 0
-2151 2124 2142 0
2151 -2123 -2142 0
-2152 2124 0
2146 -2124 0
-2147 2125 2137 0
2147 -2124 -2137 0
-2148 2125 2138 0
2148 -2124 -2138 0
-2149 2125 2139 0
2149 -2124 -2139 0
-2150 2125 2140 0
2150 -2124 -2140 0
-2151 2125 2141 0
2151 -2124 -2141 0
-2152 2125 2142 0
2152 -2124 -2142 0
-2153 2125 0
2147 -2125 0
-2148 2126 2137 0
2148 -2125 -2137 0
-2149 2126 2138 0
2149 -2125 -2138 0
-2150 2126 2139 0
2150 -2125 -2139 0
-2151 2126 2140 0
2151 -2125 -2140 0
-2152 2126 2141 0
2152 -2125 -2141 0
-2153 2126 2142 0
2153 -2125 -2142 0
-2154 2126 0
2148 -2126 0
-2149 2137 0
2149 -2126 -2137 0
-2150 2138 0
2150 -2126 -2138 0
-2151 2139 0
2151 -2126 -2139 0
-2152 2140 0
2152 -2126 -2140 0
-2153 2141 0
2153 -2126 -2141 0
-2154 2142 0
2154 -2126 -2142 0
-2155 2099 2143 0
2155 -2143 0
-2156 2099 2144 0
2156 -2144 0
-2157 2099 2145 0
2157 -2145 0
-2158 2099 2146 0
2158 -2146 0
-2159 2099 2147 0
2159 -2147 0
-2160 2099 2148 0
2160 -2148 0
-2161 2099 2149 0
2161 -2149 0
-2162 2099 2150 0
2162 -2150 0
-2163 2099 2151 0
2163 -2151 0
-2164 2099 2152 0
2164 -2152 0
-2165 2099 2153 0
2165 -2153 0
-2166 2099 2154 0
2166 -2154 0
-2167 2099 0
2155 -2099 0
-2156 2100 2143 0
2156 -2099 -2143 0
-2157 2100 2144 0
2157 -2099 -2144 0
-2158 2100 2145 0
2158 -2099 -2145 0
-2159 2100 2146 0
2159 -2099 -2146 0
-2160 2100 2147 0
2160 -2099 -2147 0
-2161 2100 2148 0
2161 -2099 -2148 0
-2162 2100 2149 0
2162 -2099 -2149 0
-2163 2100 2150 0
2163 -2099 -2150 0
-2164 2100 2151 0
2164 -2099 -2151 0
-2165 2100 2152 0
2165 -2099 -2152 0
-2166 2100 2153 0
2166 -2099 -2153 0
-2167 2100 2154 0
2167 -2099 -2154 0
-2168 2100 0
2156 -2100 0
-2157 2101 2143 0
2157 -2100 -2143 0
-2158 2101 2144 0
2158 -2100 -2144 0
-2159 2101 2145 0
2159 -2100 -2145 0
-2160 2101 2146 0
2160 -2100 -2146 0
-2161 2101 2147 0
2161 -2100 -2147 0
-2162 2101 2148 0
2162 -2100 -2148 0
-2163 2101 2149 0
2163 -2100 -2149 0
-2164 2101 2150 0
2164 -2100 -2150 0
-2165 2101 2151 0
2165 -2100 -2151 0
-2166 2101 2152 0
2166 -2100 -2152 0
-2167 2101 2153 0
2167 -2100 -2153 0
-2168 2101 2154 0
2168 -2100 -2154 0
-2169 2101 0
2157 -2101 0
-2158 2102 2143 0
2158 -2101 -2143 0
-2159 2102 2144 0
2159 -2101 -2144 0
-2160 2102 2145 0
2160 -2101 -2145 0
-2161 2102 2146 0
2161 -2101 -2146 0
-2162 2102 2147 0
2162 -2101 -2147 0
-2163 2102 2148 0
2163 -2101 -2148 0
-2164 2102 2149 0
2164 -2101 -2149 0
-2165 2102 2150 0
2165 -2101 -2150 0
-2166 2102 2151 0
2166 -2101 -2151 0
-2167 2102 2152 0
2167 -2101 -2152 0
-2168 2102 2153 0
2168 -2101 -2153 0
-2169 2102 2154 0
2169 -2101 -2154 0
2158 -2102 0
-2159 2103 2143 0
2159 -2102 -2143 0
-2160 2103 2144 0
2160 -2102 -2144 0
-2161 2103 2145 0
2161 -2102 -2145 0
-2162 2103 2146 0
2162 -2102 -2146 0
-2163 2103 2147 0
2163 -2102 -2147 0
-2164 2103 2148 0
2164 -2102 -2148 0
-2165 2103 2149 0
2165 -2102 -2149 0
-2166 2103 2150 0
2166 -2102 -2150 0
-2167 2103 2151 0
2167 -2102 -2151 0
-2168 2103 2152 0
2168 -2102 -2152 0
-2169 2103 2153 0
2169 -2102 -2153 0
2159 -2103 0
-2160 2104 2143 0
2160 -2103 -2143 0
-2161 2104 2144 0
2161 -2103 -2144 0
-2162 2104 2145 0
2162 -2103 -2145 0
-2163 2104 2146 0
2163 -2103 -2146 0
-2164 2104 2147 0
2164 -2103 -2147 0
-2165 2104 2148 0
2165 -2103 -2148 0
-2166 2104 2149 0
2166 -2103 -2149 0
-2167 2104 2150 0
2167 -2103 -2150 0
-2168 2104 2151 0
2168 -2103 -2151 0
-2169 2104 2152 0
2169 -2103 -2152 0
2160 -2104 0
-2161 2105 2143 0
2161 -2104 -2143 0
-2162 2105 2144 0
2162 -2104 -2144 0
-2163 2105 2145 0
2163 -2104 -2145 0
-2164 2105 2146 0
2164 -2104 -2146 0
-2165 2105 2147 0
2165 -2104 -2147 0
-2166 2105 2148 0
2166 -2104 -2148 0
-2167 2105 2149 0
2167 -2104 -2149 0
-2168 2105 2150 0
2168 -2104 -2150 0
-2169 2105 2151 0
2169 -2104 -2151 0
2161 -2105 0
-2162 2106 2143 0
2162 -2105 -2143 0
-2163 2106 2144 0
2163 -2105 -2144 0
-2164 2106 2145 0
2164 -2105 -2145 0
-2165 2106 2146 0
2165 -2105 -2146 0
-2166 2106 2147 0
2166 -2105 -2147 0
-2167 2106 2148 0
2167 -2105 -2148 0
-2168 2106 2149 0
2168 -2105 -2149 0
-2169 2106 2150 0
2169 -2105 -2150 0
2162 -2106 0
-2163 2107 2143 0
2163 -2106 -2143 0
-2164 2107 2144 0
2164 -2106 -2144 0
-2165 2107 2145 0
2165 -2106 -2145 0
-2166 2107 2146 0
2166 -2106 -2146 0
-2167 2107 2147 0
2167 -2106 -2147 0
-2168 2107 2148 0
2168 -2106 -2148 0
-2169 2107 2149 0
2169 -2106 -2149 0
2163 -2107 0
-2164 2108 2143 0
2164 -2107 -2143 0
-2165 2108 2144 0
2165 -2107 -2144 0
-2166 2108 2145 0
2166 -2107 -2145 0
-2167 2108 2146 0
2167 -2107 -2146 0
-2168 2108 2147 0
2168 -2107 -2147 0
-2169 2108 2148 0
2169 -2107 -2148 0
2164 -2108 0
-2165 2109 2143 0
2165 -2108 -2143 0
-2166 2109 2144 0
2166 -2108 -2144 0
-2167 2109 2145 0
2167 -2108 -2145 0
-2168 2109 2146 0
2168 -2108 -2146 0
-2169 2109 2147 0
2169 -2108 -2147 0
2165 -2109 0
-2166 2110 2143 0
2166 -2109 -2143 0
-2167 2110 2144 0
2167 -2109 -2144 0
-2168 2110 2145 0
2168 -2109 -2145 0
-2169 2110 2146 0
2169 -2109 -2146 0
2166 -2110 0
-2167 2143 0
2167 -2110 -2143 0
-2168 2144 0
2168 -2110 -2144 0
-2169 2145 0
2169 -2110 -2145 0
-2170 86 87 0
2170 -87 0
-2171 86 0
2170 -86 0
-2171 87 0
2171 -86 -87 0
-2172 85 2170 0
2172 -2170 0
-2173 85 2171 0
2173 -2171 0
-2174 85 0
2172 -85 0
-2173 2170 0
2173 -85 -2170 0
-2174 2171 0
2174 -85 -2171 0
-2175 89 90 0
2175 -90 0
-2176 89 0
2175 -89 0
-2176 90 0
2176 -89 -90 0
-2177 88 2175 0
2177 -2175 0
-2178 88 2176 0
2178 -2176 0
-2179 88 0
2177 -88 0
-2178 2175 0
2178 -88 -2175 0
-2179 2176 0
2179 -88 -2176 0
-2180 2172 2177 0
2180 -2177 0
-2181 2172 2178 0
2181 -2178 0
-2182 2172 2179 0
2182 -2179 0
-2183 2172 0
2180 -2172 0
-2181 2173 2177 0
2181 -2172 -2177 0
-2182 2173 2178 0
2182 -2172 -2178 0
-2183 2173 2179 0
2183 -2172 -2179 0
-2184 2173 0
2181 -2173 0
-2182 2174 2177 0
2182 -2173 -2177 0
-2183 2174 2178 0
2183 -2173 -2178 0
-2184 2174 2179 0
2184 -2173 -2179 0
-2185 2174 0
2182 -2174 0
-2183 2177 0
2183 -2174 -2177 0
-2184 2178 0
2184 -2174 -2178 0
-2185 2179 0
2185 -2174 -2179 0
-2186 92 93 0
2186 -93 0
-2187 92 0
2186 -92 0
-2187 93 0
2187 -92 -93 0
-2188 91 2186 0
2188 -2186 0
-2189 91 2187 0
2189 -2187 0
-2190 91 0
2188 -91 0
-2189 2186 0
2189 -91 -2186 0
-2190 2187 0
2190 -91 -2187 0
-2191 95 96 0
2191 -96 0
-2192 95 0
2191 -95 0
-2192 96 0
2192 -95 -96 0
-2193 94 2191 0
2193 -2191 0
-2194 94 2192 0
2194 -2192 0
-2195 94 0
2193 -94 0
-2194 2191 0
2194 -94 -2191 0
-2195 2192 0
2195 -94 -2192 0
-2196 2188 2193 0
2196 -2193 0
-2197 2188 2194 0
2197 -2194 0
-2198 2188 2195 0
2198 -2195 0
-2199 2188 0
2196 -2188 0
-2197 2189 2193 0
2197 -2188 -2193 0
-2198 2189 2194 0
2198 -2188 -2194 0
-2199 2189 2195 0
2199 -2188 -2195 0
-2200 2189 0
2197 -2189 0
-2198 2190 2193 0
2198 -2189 -2193 0
-2199 2190 2194 0
2199 -2189 -2194 0
-2200 2190 2195 0
2200 -2189 -2195 0
-2201 2190 0
2198 -2190 0
-2199 2193 0
2199 -2190 -2193 0
-2200 2194 0
2200 -2190 -2194 0
-2201 2195 0
2201 -2190 -2195 0
-2202 2180 2196 0
2202 -2196 0
-2203 2180 2197 0
2203 -2197 0
-2204 2180 2198 0
2204 -2198 0
-2205 2180 2199 0
2205 -2199 0
-2206 2180 2200 0
2206 -2200 0
-2207 2180 2201 0
2207 -2201 0
-2208 2180 0
2202 -2180 0
-2203 2181 2196 0
2203 -2180 -2196 0
-2204 2181 2197 0
2204 -2180 -2197 0
-2205 2181 2198 0
2205 -2180 -2198 0
-2206 2181 2199 0
2206 -2180 -2199 0
-2207 2181 2200 0
2207 -2180 -2200 0
-2208 2181 2201 0
2208 -2180 -2201 0
-2209 2181 0
2203 -2181 0
-2204 2182 2196 0
2204 -2181 -2196 0
-2205 2182 2197 0
2205 -2181 -2197 0
-2206 2182 2198 0
2206 -2181 -2198 0
-2207 2182 2199 0
2207 -2181 -2199 0
-2208 2182 2200 0
2208 -2181 -2200 0
-2209 2182 2201 0
2209 -2181 -2201 0
-2210 2182 0
2204 -2182 0
-2205 2183 2196 0
2205 -2182 -2196 0
-2206 2183 2197 0
2206 -2182 -2197 0
-2207 2183 2198 0
2207 -2182 -2198 0
-2208 2183 2199 0
2208 -2182 -2199 0
-2209 2183 2200 0
2209 -2182 -2200 0
-2210 2183 2201 0
2210 -2182 -2201 0
-2211 2183 0
2205 -2183 0
-2206 2184 2196 0
2206 -2183 -2196 0
-2207 2184 2197 0
2207 -2183 -2197 0
-2208 2184 2198 0
2208 -2183 -2198 0
-2209 2184 2199 0
2209 -2183 -2199 0
-2210 2184 2200 0
2210 -2183 -2200 0
-2211 2184 2201 0
2211 -2183 -2201 0
-2212 2184 0
2206 -2184 0
-2207 2185 2196 0
2207 -2184 -2196 0
-2208 2185 2197 0
2208 -2184 -2197 0
-2209 2185 2198 0
2209 -2184 -2198 0
-2210 2185 2199 0
2210 -2184 -2199 0
-2211 2185 2200 0
2211 -2184 -2200 0
-2212 2185 2201 0
2212 -2184 -2201 0
-2213 2185 0
2207 -2185 0
-2208 2196 0
2208 -2185 -2196 0
-2209 2197 0
2209 -2185 -2197 0
-2210 2198 0
2210 -2185 -2198 0
-2211 2199 0
2211 -2185 -2199 0
-2212 2200 0
2212 -2185 -2200 0
-2213 2201 0
2213 -2185 -2201 0
-2214 230 231 0
2214 -231 0
-2215 230 0
2214 -230 0
-2215 231 0
2215 -230 -231 0
-2216 229 2214 0
2216 -2214 0
-2217 229 2215 0
2217 -2215 0
-2218 229 0
2216 -229 0
-2217 2214 0
2217 -229 -2214 0
-2218 2215 0
2218 -229 -2215 0
-2219 233 234 0
2219 -234 0
-2220 233 0
2219 -233 0
-2220 234 0
2220 -233 -234 0
-2221 232 2219 0
2221 -2219 0
-2222 232 2220 0
2222 -2220 0
-2223 232 0
2221 -232 0
-2222 2219 0
2222 -232 -2219 0
-2223 2220 0
2223 -232 -2220 0
-2224 2216 2221 0
2224 -2221 0
-2225 2216 2222 0
2225 -2222 0
-2226 2216 2223 0
2226 -2223 0
-2227 2216 0
2224 -2216 0
-2225 2217 2221 0
2225 -2216 -2221 0
-2226 2217 2222 0
2226 -2216 -2222 0
-2227 2217 2223 0
2227 -2216 -2223 0
-2228 2217 0
2225 -2217 0
-2226 2218 2221 0
2226 -2217 -2221 0
-2227 2218 2222 0
2227 -2217 -2222 0
-2228 2218 2223 0
2228 -2217 -2223 0
-2229 2218 0
2226 -2218 0
-2227 2221 0
2227 -2218 -2221 0
-2228 2222 0
2228 -2218 -2222 0
-2229 2223 0
2229 -2218 -2223 0
-2230 236 237 0
2230 -237 0
-2231 236 0
2230 -236 0
-2231 237 0
2231 -236 -237 0
-2232 235 2230 0
2232 -2230 0
-2233 235 2231 0
2233 -2231 0
-2234 235 0
2232 -235 0
-2233 2230 0
2233 -235 -2230 0
-2234 2231 0
2234 -235 -2231 0
-2235 239 240 0
2235 -240 0
-2236 239 0
2235 -239 0
-2236 240 0
2236 -239 -240 0
-2237 238 2235 0
2237 -2235 0
-2238 238 2236 0
2238 -2236 0
-2239 238 0
2237 -238 0
-2238 2235 0
2238 -238 -2235 0
-2239 2236 0
2239 -238 -2236 0
-2240 2232 2237 0
2240 -2237 0
-2241 2232 2238 0
2241 -2238 0
-2242 2232 2239 0
2242 -2239 0
-2243 2232 0
2240 -2232 0
-2241 2233 2237 0
2241 -2232 -2237 0
-2242 2233 2238 0
2242 -2232 -2238 0
-2243 2233 2239 0
2243 -2232 -2239 0
-2244 2233 0
2241 -2233 0
-2242 2234 2237 0
2242 -2233 -2237 0
-2243 2234 2238 0
2243 -2233 -2238 0
-2244 2234 2239 0
2244 -2233 -2239 0
-2245 2234 0
2242 -2234 0
-2243 2237 0
2243 -2234 -2237 0
-2244 2238 0
2244 -2234 -2238 0
-2245 2239 0
2245 -2234 -2239 0
-2246 2224 2240 0
2246 -2240 0
-2247 2224 2241 0
2247 -2241 0
-2248 2224 2242 0
2248 -2242 0
-2249 2224 2243 0
2249 -2243 0
-2250 2224 2244 0
2250 -2244 0
-2251 2224 2245 0
2251 -2245 0
-2252 2224 0
2246 -2224 0
-2247 2225 2240 0
2247 -2224 -2240 0
-2248 2225 2241 0
2248 -2224 -2241 0
-2249 2225 2242 0
2249 -2224 -2242 0
-2250 2225 2243 0
2250 -2224 -2243 0
-2251 2225 2244 0
2251 -2224 -2244 0
-2252 2225 2245 0
2252 -2224 -2245 0
-2253 2225 0
2247 -2225 0
-2248 2226 2240 0
2248 -2225 -2240 0
-2249 2226 2241 0
2249 -2225 -2241 0
-2250 2226 2242 0
2250 -2225 -2242 0
-2251 2226 2243 0
2251 -2225 -2243 0
-2252 2226 2244 0
2252 -2225 -2244 0
-2253 2226 2245 0
2253 -2225 -2245 0
-2254 2226 0
2248 -2226 0
-2249 2227 2240 0
2249 -2226 -2240 0
-2250 2227 2241 0
2250 -2226 -2241 0
-2251 2227 2242 0
2251 -2226 -2242 0
-2252 2227 2243 0
2252 -2226 -2243 0
-2253 2227 2244 0
2253 -2226 -2244 0
-2254 2227 2245 0
2254 -2226 -2245 0
-2255 2227 0
2249 -2227 0
-2250 2228 2240 0
2250 -2227 -2240 0
-2251 2228 2241 0
2251 -2227 -2241 0
-2252 2228 2242 0
2252 -2227 -2242 0
-2253 2228 2243 0
2253 -2227 -2243 0
-2254 2228 2244 0
2254 -2227 -2244 0
-2255 2228 2245 0
2255 -2227 -2245 0
-2256 2228 0
2250 -2228 0
-2251 2229 2240 0
2251 -2228 -2240 0
-2252 2229 2241 0
2252 -2228 -2241 0
-2253 2229 2242 0
2253 -2228 -2242 0
-2254 2229 2243 0
2254 -2228 -2243 0
-2255 2229 2244 0
2255 -2228 -2244 0
-2256 2229 2245 0
2256 -2228 -2245 0
-2257 2229 0
2251 -2229 0
-2252 2240 0
2252 -2229 -2240 0
-2253 2241 0
2253 -2229 -2241 0
-2254 2242 0
2254 -2229 -2242 0
-2255 2243 0
2255 -2229 -2243 0
-2256 2244 0
2256 -2229 -2244 0
-2257 2245 0
2257 -2229 -2245 0
-2258 2202 2246 0
2258 -2246 0
-2259 2202 2247 0
2259 -2247 0
-2260 2202 2248 0
2260 -2248 0
-2261 2202 2249 0
2261 -2249 0
-2262 2202 2250 0
2262 -2250 0
-2263 2202 2251 0
2263 -2251 0
-2264 2202 2252 0
2264 -2252 0
-2265 2202 2253 0
2265 -2253 0
-2266 2202 2254 0
2266 -2254 0
-2267 2202 2255 0
2267 -2255 0
-2268 2202 2256 0
2268 -2256 0
-2269 2202 2257 0
2269 -2257 0
-2270 2202 0
2258 -2202 0
-2259 2203 2246 0
2259 -2202 -2246 0
-2260 2203 2247 0
2260 -2202 -2247 0
-2261 2203 2248 0
2261 -2202 -2248 0
-2262 2203 2249 0
2262 -2202 -2249 0
-2263 2203 2250 0
2263 -2202 -2250 0
-2264 2203 2251 0
2264 -2202 -2251 0
-2265 2203 2252 0
2265 -2202 -2252 0
-2266 2203 2253 0
2266 -2202 -2253 0
-2267 2203 2254 0
2267 -2202 -2254 0
-2268 2203 2255 0
2268 -2202 -2255 0
-2269 2203 2256 0
2269 -2202 -2256 0
-2270 2203 2257 0
2270 -2202 -2257 0
-2271 2203 0
2259 -2203 0
-2260 2204 2246 0
2260 -2203 -2246 0
-2261 2204 2247 0
2261 -2203 -2247 0
-2262 2204 2248 0
2262 -2203 -2248 0
-2263 2204 2249 0
2263 -2203 -2249 0
-2264 2204 2250 0
2264 -2203 -2250 0
-2265 2204 2251 0
2265 -2203 -2251 0
-2266 2204 2252 0
2266 -2203 -2252 0
-2267 2204 2253 0
2267 -2203 -2253 0
-2268 2204 2254 0
2268 -2203 -2254 0
-2269 2204 2255 0
2269 -2203 -2255 0
-2270 2204 2256 0
2270 -2203 -2256 0
-2271 2204 2257 0
2271 -2203 -2257 0
-2272 2204 0
2260 -2204 0
-2261 2205 2246 0
2261 -2204 -2246 0
-2262 2205 2247 0
2262 -2204 -2247 0
-2263 2205 2248 0
2263 -2204 -2248 0
-2264 2205 2249 0
2264 -2204 -2249 0
-2265 2205 2250 0
2265 -2204 -2250 0
-2266 2205 2251 0
2266 -2204 -2251 0
-2267 2205 2252 0
2267 -2204 -2252 0
-2268 2205 2253 0
2268 -2204 -2253 0
-2269 2205 2254 0
2269 -2204 -2254 0
-2270 2205 2255 0
2270 -2204 -2255 0
-2271 2205 2256 0
2271 -2204 -2256 0
-2272 2205 2257 0
2272 -2204 -2257 0
2261 -2205 0
-2262 2206 2246 0
2262 -2205 -2246 0
-2263 2206 2247 0
2263 -2205 -2247 0
-2264 2206 2248 0
2264 -2205 -2248 0
-2265 2206 2249 0
2265 -2205 -2249 0
-2266 2206 2250 0
2266 -2205 -2250 0
-2267 2206 2251 0
2267 -2205 -2251 0
-2268 2206 2252 0
2268 -2205 -2252 0
-2269 2206 2253 0
2269 -2205 -2253 0
-2270 2206 2254 0
2270 -2205 -2254 0
-2271 2206 2255 0
2271 -2205 -2255 0
-2272 2206 2256 0
2272 -2205 -2256 0
2262 -2206 0
-2263 2207 2246 0
2263 -2206 -2246 0
-2264 2207 2247 0
2264 -2206 -2247 0
-2265 2207 2248 0
2265 -2206 -2248 0
-2266 2207 2249 0
2266 -2206 -2249 0
-2267 2207 2250 0
2267 -2206 -2250 0
-2268 2207 2251 0
2268 -2206 -2251 0
-2269 2207 2252 0
2269 -2206 -2252 0
-2270 2207 2253 0
2270 -2206 -2253 0
-2271 2207 2254 0
2271 -2206 -2254 0
-2272 2207 2255 0
2272 -2206 -2255 0
2263 -2207 0
-2264 2208 2246 0
2264 -2207 -2246 0
-2265 2208 2247 0
2265 -2207 -2247 0
-2266 2208 2248 0
2266 -2207 -2248 0
-2267 2208 2249 0
2267 -2207 -2249 0
-2268 2208 2250 0
2268 -2207 -2250 0
-2269 2208 2251 0
2269 -2207 -2251 0
-2270 2208 2252 0
2270 -2207 -2252 0
-2271 2208 2253 0
2271 -2207 -2253 0
-2272 2208 2254 0
2272 -2207 -2254 0
2264 -2208 0
-2265 2209 2246 0
2265 -2208 -2246 0
-2266 2209 2247 0
2266 -2208 -2247 0
-2267 2209 2248 0
2267 -2208 -2248 0
-2268 2209 2249 0
2268 -2208 -2249 0
-2269 2209 2250 0
2269 -2208 -2250 0
-2270 2209 2251 0
2270 -2208 -2251 0
-2271 2209 2252 0
2271 -2208 -2252 0
-2272 2209 2253 0
2272 -2208 -2253 0
2265 -2209 0
-2266 2210 2246 0
2266 -2209 -2246 0
-2267 2210 2247 0
2267 -2209 -2247 0
-2268 2210 2248 0
2268 -2209 -2248 0
-2269 2210 2249 0
2269 -2209 -2249 0
-2270 2210 2250 0
2270 -2209 -2250 0
-2271 2210 2251 0
2271 -2209 -2251 0
-2272 2210 2252 0
2272 -2209 -2252 0
2266 -2210 0
-2267 2211 2246 0
2267 -2210 -2246 0
-2268 2211 2247 0
2268 -2210 -2247 0
-2269 2211 2248 0
2269 -2210 -2248 0
-2270 2211 2249 0
2270 -2210 -2249 0
-2271 2211 2250 0
2271 -2210 -2250 0
-2272 2211 2251 0
2272 -2210 -2251 0
2267 -2211 0
-2268 2212 2246 0
2268 -2211 -2246 0
-2269 2212 2247 0
2269 -2211 -2247 0
-2270 2212 2248 0
2270 -2211 -2248 0
-2271 2212 2249 0
2271 -2211 -2249 0
-2272 2212 2250 0
2272 -2211 -2250 0
2268 -2212 0
-2269 2213 2246 0
2269 -2212 -2246 0
-2270 2213 2247 0
2270 -2212 -2247 0
-2271 2213 2248 0
2271 -2212 -2248 0
-2272 2213 2249 0
2272 -2212 -2249 0
2269 -2213 0
-2270 2246 0
2270 -2213 -2246 0
-2271 2247 0
2271 -2213 -2247 0
-2272 2248 0
2272 -2213 -2248 0
-2273 98 99 0
2273 -99 0
-2274 98 0
2273 -98 0
-2274 99 0
2274 -98 -99 0
-2275 97 2273 0
2275 -2273 0
-2276 97 2274 0
2276 -2274 0
-2277 97 0
2275 -97 0
-2276 2273 0
2276 -97 -2273 0
-2277 2274 0
2277 -97 -2274 0
-2278 101 102 0
2278 -102 0
-2279 101 0
2278 -101 0
-2279 102 0
2279 -101 -102 0
-2280 100 2278 0
2280 -2278 0
-2281 100 2279 0
2281 -2279 0
-2282 100 0
2280 -100 0
-2281 2278 0
2281 -100 -2278 0
-2282 2279 0
2282 -100 -2279 0
-2283 2275 2280 0
2283 -2280 0
-2284 2275 2281 0
2284 -2281 0
-2285 2275 2282 0
2285 -2282 0
-2286 2275 0
2283 -2275 0
-2284 2276 2280 0
2284 -2275 -2280 0
-2285 2276 2281 0
2285 -2275 -2281 0
-2286 2276 2282 0
2286 -2275 -2282 0
-2287 2276 0
2284 -2276 0
-2285 2277 2280 0
2285 -2276 -2280 0
-2286 2277 2281 0
2286 -2276 -2281 0
-2287 2277 2282 0
2287 -2276 -2282 0
-2288 2277 0
2285 -2277 0
-2286 2280 0
2286 -2277 -2280 0
-2287 2281 0
2287 -2277 -2281 0
-2288 2282 0
2288 -2277 -2282 0
-2289 104 105 0
2289 -105 0
-2290 104 0
2289 -104 0
-2290 105 0
2290 -104 -105 0
-2291 103 2289 0
2291 -2289 0
-2292 103 2290 0
2292 -2290 0
-2293 103 0
2291 -103 0
-2292 2289 0
2292 -103 -2289 0
-2293 2290 0
2293 -103 -2290 0
-2294 107 108 0
2294 -108 0
-2295 107 0
2294 -107 0
-2295 108 0
2295 -107 -108 0
-2296 106 2294 0
2296 -2294 0
-2297 106 2295 0
2297 -2295 0
-2298 106 0
2296 -106 0
-2297 2294 0
2297 -106 -2294 0
-2298 2295 0
2298 -106 -2295 0
-2299 2291 2296 0
2299 -2296 0
-2300 2291 2297 0
2300 -2297 0
-2301 2291 2298 0
2301 -2298 0
-2302 2291 0
2299 -2291 0
-2300 2292 2296 0
2300 -2291 -2296 0
-2301 2292 2297 0
2301 -2291 -2297 0
-2302 2292 2298 0
2302 -2291 -2298 0
-2303 2292 0
2300 -2292 0
-2301 2293 2296 0
2301 -2292 -2296 0
-2302 2293 2297 0
2302 -2292 -2297 0
-2303 2293 2298 0
2303 -2292 -2298 0
-2304 2293 0
2301 -2293 0
-2302 2296 0
2302 -2293 -2296 0
-2303 2297 0
2303 -2293 -2297 0
-2304 2298 0
2304 -2293 -2298 0
-2305 2283 2299 0
2305 -2299 0
-2306 2283 2300 0
2306 -2300 0
-2307 2283 2301 0
2307 -2301 0
-2308 2283 2302 0
2308 -2302 0
-2309 2283 2303 0
2309 -2303 0
-2310 2283 2304 0
2310 -2304 0
-2311 2283 0
2305 -2283 0
-2306 2284 2299 0
2306 -2283 -2299 0
-2307 2284 2300 0
2307 -2283 -2300 0
-2308 2284 2301 0
2308 -2283 -2301 0
-2309 2284 2302 0
2309 -2283 -2302 0
-2310 2284 2303 0
2310 -2283 -2303 0
-2311 2284 2304 0
2311 -2283 -2304 0
-2312 2284 0
2306 -2284 0
-2307 2285 2299 0
2307 -2284 -2299 0
-2308 2285 2300 0
2308 -2284 -2300 0
-2309 2285 2301 0
2309 -2284 -2301 0
-2310 2285 2302 0
2310 -2284 -2302 0
-2311 2285 2303 0
2311 -2284 -2303 0
-2312 2285 2304 0
2312 -2284 -2304 0
-2313 2285 0
2307 -2285 0
-2308 2286 2299 0
2308 -2285 -2299 0
-2309 2286 2300 0
2309 -2285 -2300 0
-2310 2286 2301 0
2310 -2285 -2301 0
-2311 2286 2302 0
2311 -2285 -2302 0
-2312 2286 2303 0
2312 -2285 -2303 0
-2313 2286 2304 0
2313 -2285 -2304 0
-2314 2286 0
2308 -2286 0
-2309 2287 2299 0
2309 -2286 -2299 0
-2310 2287 2300 0
2310 -2286 -2300 0
-2311 2287 2301 0
2311 -2286 -2301 0
-2312 2287 2302 0
2312 -2286 -2302 0
-2313 2287 2303 0
2313 -2286 -2303 0
-2314 2287 2304 0
2314 -2286 -2304 0
-2315 2287 0
2309 -2287 0
-2310 2288 2299 0
2310 -2287 -2299 0
-2311 2288 2300 0
2311 -2287 -2300 0
-2312 2288 2301 0
2312 -2287 -2301 0
-2313 2288 2302 0
2313 -2287 -2302 0
-2314 2288 2303 0
2314 -2287 -2303 0
-2315 2288 2304 0
2315 -2287 -2304 0
-2316 2288 0
2310 -2288 0
-2311 2299 0
2311 -2288 -2299 0
-2312 2300 0
2312 -2288 -2300 0
-2313 2301 0
2313 -2288 -2301 0
-2314 2302 0
2314 -2288 -2302 0
-2315 2303 0
2315 -2288 -2303 0
-2316 2304 0
2316 -2288 -2304 0
-2317 242 243 0
2317 -243 0
-2318 242 0
2317 -242 0
-2318 243 0
2318 -242 -243 0
-2319 241 2317 0
2319 -2317 0
-2320 241 2318 0
2320 -2318 0
-2321 241 0
2319 -241 0
-2320 2317 0
2320 -241 -2317 0
-2321 2318 0
2321 -241 -2318 0
-2322 245 246 0
2322 -246 0
-2323 245 0
2322 -245 0
-2323 246 0
2323 -245 -246 0
-2324 244 2322 0
2324 -2322 0
-2325 244 2323 0
2325 -2323 0
-2326 244 0
2324 -244 0
-2325 2322 0
2325 -244 -2322 0
-2326 2323 0
2326 -244 -2323 0
-2327 2319 2324 0
2327 -2324 0
-2328 2319 2325 0
2328 -2325 0
-2329 2319 2326 0
2329 -2326 0
-2330 2319 0
2327 -2319 0
-2328 2320 2324 0
2328 -2319 -2324 0
-2329 2320 2325 0
2329 -2319 -2325 0
-2330 2320 2326 0
2330 -2319 -2326 0
-2331 2320 0
2328 -2320 0
-2329 2321 2324 0
2329 -2320 -2324 0
-2330 2321 2325 0
2330 -2320 -2325 0
-2331 2321 2326 0
2331 -2320 -2326 0
-2332 2321 0
2329 -2321 0
-2330 2324 0
2330 -2321 -2324 0
-2331 2325 0
2331 -2321 -2325 0
-2332 2326 0
2332 -2321 -2326 0
-2333 248 249 0
2333 -249 0
-2334 248 0
2333 -248 0
-2334 249 0
2334 -248 -249 0
-2335 247 2333 0
2335 -2333 0
-2336 247 2334 0
2336 -2334 0
-2337 247 0
2335 -247 0
-2336 2333 0
2336 -247 -2333 0
-2337 2334 0
2337 -247 -2334 0
-2338 251 252 0
2338 -252 0
-2339 251 0
2338 -251 0
-2339 252 0
2339 -251 -252 0
-2340 250 2338 0
2340 -2338 0
-2341 250 2339 0
2341 -2339 0
-2342 250 0
2340 -250 0
-2341 2338 0
2341 -250 -2338 0
-2342 2339 0
2342 -250 -2339 0
-2343 2335 2340 0
2343 -2340 0
-2344 2335 2341 0
2344 -2341 0
-2345 2335 2342 0
2345 -2342 0
-2346 2335 0
2343 -2335 0
-2344 2336 2340 0
2344 -2335 -2340 0
-2345 2336 2341 0
2345 -2335 -2341 0
-2346 2336 2342 0
2346 -2335 -2342 0
-2347 2336 0
2344 -2336 0
-2345 2337 2340 0
2345 -2336 -2340 0
-2346 2337 2341 0
2346 -2336 -2341 0
-2347 2337 2342 0
2347 -2336 -2342 0
-2348 2337 0
2345 -2337 0
-2346 2340 0
2346 -2337 -2340 0
-2347 2341 0
2347 -2337 -2341 0
-2348 2342 0
2348 -2337 -2342 0
-2349 2327 2343 0
2349 -2343 0
-2350 2327 2344 0
2350 -2344 0
-2351 2327 2345 0
2351 -2345 0
-2352 2327 2346 0
2352 -2346 0
-2353 2327 2347 0
2353 -2347 0
-2354 2327 2348 0
2354 -2348 0
-2355 2327 0
2349 -2327 0
-2350 2328 2343 0
2350 -2327 -2343 0
-2351 2328 2344 0
2351 -2327 -2344 0
-2352 2328 2345 0
2352 -2327 -2345 0
-2353 2328 2346 0
2353 -2327 -2346 0
-2354 2328 2347 0
2354 -2327 -2347 0
-2355 2328 2348 0
2355 -2327 -2348 0
-2356 2328 0
2350 -2328 0
-2351 2329 2343 0
2351 -2328 -2343 0
-2352 2329 2344 0
2352 -2328 -2344 0
-2353 2329 2345 0
2353 -2328 -2345 0
-2354 2329 2346 0
2354 -2328 -2346 0
-2355 2329 2347 0
2355 -2328 -2347 0
-2356 2329 2348 0
2356 -2328 -2348 0
-2357 2329 0
2351 -2329 0
-2352 2330 2343 0
2352 -2329 -2343 0
-2353 2330 2344 0
2353 -2329 -2344 0
-2354 2330 2345 0
2354 -2329 -2345 0
-2355 2330 2346 0
2355 -2329 -2346 0
-2356 2330 2347 0
2356 -2329 -2347 0
-2357 2330 2348 0
2357 -2329 -2348 0
-2358 2330 0
2352 -2330 0
-2353 2331 2343 0
2353 -2330 -2343 0
-2354 2331 2344 0
2354 -2330 -2344 0
-2355 2331 2345 0
2355 -2330 -2345 0
-2356 2331 2346 0
2356 -2330 -2346 0
-2357 2331 2347 0
2357 -2330 -2347 0
-2358 2331 2348 0
2358 -2330 -2348 0
-2359 2331 0
2353 -2331 0
-2354 2332 2343 0
2354 -2331 -2343 0
-2355 2332 2344 0
2355 -2331 -2344 0
-2356 2332 2345 0
2356 -2331 -2345 0
-2357 2332 2346 0
2357 -2331 -2346 0
-2358 2332 2347 0
2358 -2331 -2347 0
-2359 2332 2348 0
2359 -2331 -2348 0
-2360 2332 0
2354 -2332 0
-2355 2343 0
2355 -2332 -2343 0
-2356 2344 0
2356 -2332 -2344 0
-2357 2345 0
2357 -2332 -2345 0
-2358 2346 0
2358 -2332 -2346 0
-2359 2347 0
2359 -2332 -2347 0
-2360 2348 0
2360 -2332 -2348 0
-2361 2305 2349 0
2361 -2349 0
-2362 2305 2350 0
2362 -2350 0
-2363 2305 2351 0
2363 -2351 0
-2364 2305 2352 0
2364 -2352 0
-2365 2305 2353 0
2365 -2353 0
-2366 2305 2354 0
2366 -2354 0
-2367 2305 2355 0
2367 -2355 0
-2368 2305 2356 0
2368 -2356 0
-2369 2305 2357 0
2369 -2357 0
-2370 2305 2358 0
2370 -2358 0
-2371 2305 2359 0
2371 -2359 0
-2372 2305 2360 0
2372 -2360 0
-2373 2305 0
2361 -2305 0
-2362 2306 2349 0
2362 -2305 -2349 0
-2363 2306 2350 0
2363 -2305 -2350 0
-2364 2306 2351 0
2364 -2305 -2351 0
-2365 2306 2352 0
2365 -2305 -2352 0
-2366 2306 2353 0
2366 -2305 -2353 0
-2367 2306 2354 0
2367 -2305 -2354 0
-2368 2306 2355 0
2368 -2305 -2355 0
-2369 2306 2356 0
2369 -2305 -2356 0
-2370 2306 2357 0
2370 -2305 -2357 0
-2371 2306 2358 0
2371 -2305 -2358 0
-2372 2306 2359 0
2372 -2305 -2359 0
-2373 2306 2360 0
2373 -2305 -2360 0
-2374 2306 0
2362 -2306 0
-2363 2307 2349 0
2363 -2306 -2349 0
-2364 2307 2350 0
2364 -2306 -2350 0
-2365 2307 2351 0
2365 -2306 -2351 0
-2366 2307 2352 0
2366 -2306 -2352 0
-2367 2307 2353 0
2367 -2306 -2353 0
-2368 2307 2354 0
2368 -2306 -2354 0
-2369 2307 2355 0
2369 -2306 -2355 0
-2370 2307 2356 0
2370 -2306 -2356 0
-2371 2307 2357 0
2371 -2306 -2357 0
-2372 2307 2358 0
2372 -2306 -2358 0
-2373 2307 2359 0
2373 -2306 -2359 0
-2374 2307 2360 0
2374 -2306 -2360 0
-2375 2307 0
2363 -2307 0
-2364 2308 2349 0
2364 -2307 -2349 0
-2365 2308 2350 0
2365 -2307 -2350 0
-2366 2308 2351 0
2366 -2307 -2351 0
-2367 2308 2352 0
2367 -2307 -2352 0
-2368 2308 2353 0
2368 -2307 -2353 0
-2369 2308 2354 0
2369 -2307 -2354 0
-2370 2308 2355 0
2370 -2307 -2355 0
-2371 2308 2356 0
2371 -2307 -2356 0
-2372 2308 2357 0
2372 -2307 -2357 0
-2373 2308 2358 0
2373 -2307 -2358 0
-2374 2308 2359 0
2374 -2307 -2359 0
-2375 2308 2360 0
2375 -2307 -2360 0
2364 -2308 0
-2365 2309 2349 0
2365 -2308 -2349 0
-2366 2309 2350 0
2366 -2308 -2350 0
-2367 2309 2351 0
2367 -2308 -2351 0
-2368 2309 2352 0
2368 -2308 -2352 0
-2369 2309 2353 0
2369 -2308 -2353 0
-2370 2309 2354 0
2370 -2308 -2354 0
-2371 2309 2355 0
2371 -2308 -2355 0
-2372 2309 2356 0
2372 -2308 -2356 0
-2373 2309 2357 0
2373 -2308 -2357 0
-2374 2309 2358 0
2374 -2308 -2358 0
-2375 2309 2359 0
2375 -2308 -2359 0
2365 -2309 0
-2366 2310 2349 0
2366 -2309 -2349 0
-2367 2310 2350 0
2367 -2309 -2350 0
-2368 2310 2351 0
2368 -2309 -2351 0
-2369 2310 2352 0
2369 -2309 -2352 0
-2370 2310 2353 0
2370 -2309 -2353 0
-2371 2310 2354 0
2371 -2309 -2354 0
-2372 2310 2355 0
2372 -2309 -2355 0
-2373 2310 2356 0
2373 -2309 -2356 0
-2374 2310 2357 0
2374 -2309 -2357 0
-2375 2310 2358 0
2375 -2309 -2358 0
2366 -2310 0
-2367 2311 2349 0
2367 -2310 -2349 0
-2368 2311 2350 0
2368 -2310 -2350 0
-2369 2311 2351 0
2369 -2310 -2351 0
-2370 2311 2352 0
2370 -2310 -2352 0
-2371 2311 2353 0
2371 -2310 -2353 0
-2372 2311 2354 0
2372 -2310 -2354 0
-2373 2311 2355 0
2373 -2310 -2355 0
-2374 2311 2356 0
2374 -2310 -2356 0
-2375 2311 2357 0
2375 -2310 -2357 0
2367 -2311 0
-2368 2312 2349 0
2368 -2311 -2349 0
-2369 2312 2350 0
2369 -2311 -2350 0
-2370 2312 2351 0
2370 -2311 -2351 0
-2371 2312 2352 0
2371 -2311 -2352 0
-2372 2312 2353 0
2372 -2311 -2353 0
-2373 2312 2354 0
2373 -2311 -2354 0
-2374 2312 2355 0
2374 -2311 -2355 0
-2375 2312 2356 0
2375 -2311 -2356 0
2368 -2312 0
-2369 2313 2349 0
2369 -2312 -2349 0
-2370 2313 2350 0
2370 -2312 -2350 0
-2371 2313 2351 0
2371 -2312 -2351 0
-2372 2313 2352 0
2372 -2312 -2352 0
-2373 2313 2353 0
2373 -2312 -2353 0
-2374 2313 2354 0
2374 -2312 -2354 0
-2375 2313 2355 0
2375 -2312 -2355 0
2369 -2313 0
-2370 2314 2349 0
2370 -2313 -2349 0
-2371 2314 2350 0
2371 -2313 -2350 0
-2372 2314 2351 0
2372 -2313 -2351 0
-2373 2314 2352 0
2373 -2313 -2352 0
-2374 2314 2353 0
2374 -2313 -2353 0
-2375 2314 2354 0
2375 -2313 -2354 0
2370 -2314 0
-2371 2315 2349 0
2371 -2314 -2349 0
-2372 2315 2350 0
2372 -2314 -2350 0
-2373 2315 2351 0
2373 -2314 -2351 0
-2374 2315 2352 0
2374 -2314 -2352 0
-2375 2315 2353 0
2375 -2314 -2353 0
2371 -2315 0
-2372 2316 2349 0
2372 -2315 -2349 0
-2373 2316 2350 0
2373 -2315 -2350 0
-2374 2316 2351 0
2374 -2315 -2351 0
-2375 2316 2352 0
2375 -2315 -2352 0
2372 -2316 0
-2373 2349 0
2373 -2316 -2349 0
-2374 2350 0
2374 -2316 -2350 0
-2375 2351 0
2375 -2316 -2351 0
-2376 110 111 0
2376 -111 0
-2377 110 0
2376 -110 0
-2377 111 0
2377 -110 -111 0
-2378 109 2376 0
2378 -2376 0
-2379 109 2377 0
2379 -2377 0
-2380 109 0
2378 -109 0
-2379 2376 0
2379 -109 -2376 0
-2380 2377 0
2380 -109 -2377 0
-2381 113 114 0
2381 -114 0
-2382 113 0
2381 -113 0
-2382 114 0
2382 -113 -114 0
-2383 112 2381 0
2383 -2381 0
-2384 112 2382 0
2384 -2382 0
-2385 112 0
2383 -112 0
-2384 2381 0
2384 -112 -2381 0
-2385 2382 0
2385 -112 -2382 0
-2386 2378 2383 0
2386 -2383 0
-2387 2378 2384 0
2387 -2384 0
-2388 2378 2385 0
2388 -2385 0
-2389 2378 0
2386 -2378 0
-2387 2379 2383 0
2387 -2378 -2383 0
-2388 2379 2384 0
2388 -2378 -2384 0
-2389 2379 2385 0
2389 -2378 -2385 0
-2390 2379 0
2387 -2379 0
-2388 2380 2383 0
2388 -2379 -2383 0
-2389 2380 2384 0
2389 -2379 -2384 0
-2390 2380 2385 0
2390 -2379 -2385 0
-2391 2380 0
2388 -2380 0
-2389 2383 0
2389 -2380 -2383 0
-2390 2384 0
2390 -2380 -2384 0
-2391 2385 0
2391 -2380 -2385 0
-2392 116 117 0
2392 -117 0
-2393 116 0
2392 -116 0
-2393 117 0
2393 -116 -117 0
-2394 115 2392 0
2394 -2392 0
-2395 115 2393 0
2395 -2393 0
-2396 115 0
2394 -115 0
-2395 2392 0
2395 -115 -2392 0
-2396 2393 0
2396 -115 -2393 0
-2397 119 120 0
2397 -120 0
-2398 119 0
2397 -119 0
-2398 120 0
2398 -119 -120 0
-2399 118 2397 0
2399 -2397 0
-2400 118 2398 0
2400 -2398 0
-2401 118 0
2399 -118 0
-2400 2397 0
2400 -118 -2397 0
-2401 2398 0
2401 -118 -2398 0
-2402 2394 2399 0
2402 -2399 0
-2403 2394 2400 0
2403 -2400 0
-2404 2394 2401 0
2404 -2401 0
-2405 2394 0
2402 -2394 0
-2403 2395 2399 0
2403 -2394 -2399 0
-2404 2395 2400 0
2404 -2394 -2400 0
-2405 2395 2401 0
2405 -2394 -2401 0
-2406 2395 0
2403 -2395 0
-2404 2396 2399 0
2404 -2395 -2399 0
-2405 2396 2400 0
2405 -2395 -2400 0
-2406 2396 2401 0
2406 -2395 -2401 0
-2407 2396 0
2404 -2396 0
-2405 2399 0
2405 -2396 -2399 0
-2406 2400 0
2406 -2396 -2400 0
-2407 2401 0
2407 -2396 -2401 0
-2408 2386 2402 0
2408 -2402 0
-2409 2386 2403 0
2409 -2403 0
-2410 2386 2404 0
2410 -2404 0
-2411 2386 2405 0
2411 -2405 0
-2412 2386 2406 0
2412 -2406 0
-2413 2386 2407 0
2413 -2407 0
-2414 2386 0
2408 -2386 0
-2409 2387 2402 0
2409 -2386 -2402 0
-2410 2387 2403 0
2410 -2386 -2403 0
-2411 2387 2404 0
2411 -2386 -2404 0
-2412 2387 2405 0
2412 -2386 -2405 0
-2413 2387 2406 0
2413 -2386 -2406 0
-2414 2387 2407 0
2414 -2386 -2407 0
-2415 2387 0
2409 -2387 0
-2410 2388 2402 0
2410 -2387 -2402 0
-2411 2388 2403 0
2411 -2387 -2403 0
-2412 2388 2404 0
2412 -2387 -2404 0
-2413 2388 2405 0
2413 -2387 -2405 0
-2414 2388 2406 0
2414 -2387 -2406 0
-2415 2388 2407 0
2415 -2387 -2407 0
-2416 2388 0
2410 -2388 0
-2411 2389 2402 0
2411 -2388 -2402 0
-2412 2389 2403 0
2412 -2388 -2403 0
-2413 2389 2404 0
2413 -2388 -2404 0
-2414 2389 2405 0
2414 -2388 -2405 0
-2415 2389 2406 0
2415 -2388 -2406 0
-2416 2389 2407 0
2416 -2388 -2407 0
-2417 2389 0
2411 -2389 0
-2412 2390 2402 0
2412 -2389 -2402 0
-2413 2390 2403 0
2413 -2389 -2403 0
-2414 2390 2404 0
2414 -2389 -2404 0
-2415 2390 2405 0
2415 -2389 -2405 0
-2416 2390 2406 0
2416 -2389 -2406 0
-2417 2390 2407 0
2417 -2389 -2407 0
-2418 2390 0
2412 -2390 0
-2413 2391 2402 0
2413 -2390 -2402 0
-2414 2391 2403 0
2414 -2390 -2403 0
-2415 2391 2404 0
2415 -2390 -2404 0
-2416 2391 2405 0
2416 -2390 -2405 0
-2417 2391 2406 0
2417 -2390 -2406 0
-2418 2391 2407 0
2418 -2390 -2407 0
-2419 2391 0
2413 -2391 0
-2414 2402 0
2414 -2391 -2402 0
-2415 2403 0
2415 -2391 -2403 0
-2416 2404 0
2416 -2391 -2404 0
-2417 2405 0
2417 -2391 -2405 0
-2418 2406 0
2418 -2391 -2406 0
-2419 2407 0
2419 -2391 -2407 0
-2420 254 255 0
2420 -255 0
-2421 254 0
2420 -254 0
-2421 255 0
2421 -254 -255 0
-2422 253 2420 0
2422 -2420 0
-2423 253 2421 0
2423 -2421 0
-2424 253 0
2422 -253 0
-2423 2420 0
2423 -253 -2420 0
-2424 2421 0
2424 -253 -2421 0
-2425 257 258 0
2425 -258 0
-2426 257 0
2425 -257 0
-2426 258 0
2426 -257 -258 0
-2427 256 2425 0
2427 -2425 0
-2428 256 2426 0
2428 -2426 0
-2429 256 0
2427 -256 0
-2428 2425 0
2428 -256 -2425 0
-2429 2426 0
2429 -256 -2426 0
-2430 2422 2427 0
2430 -2427 0
-2431 2422 2428 0
2431 -2428 0
-2432 2422 2429 0
2432 -2429 0
-2433 2422 0
2430 -2422 0
-2431 2423 2427 0
2431 -2422 -2427 0
-2432 2423 2428 0
2432 -2422 -2428 0
-2433 2423 2429 0
2433 -2422 -2429 0
-2434 2423 0
2431 -2423 0
-2432 2424 2427 0
2432 -2423 -2427 0
-2433 2424 2428 0
2433 -2423 -2428 0
-2434 2424 2429 0
2434 -2423 -2429 0
-2435 2424 0
2432 -2424 0
-2433 2427 0
2433 -2424 -2427 0
-2434 2428 0
2434 -2424 -2428 0
-2435 2429 0
2435 -2424 -2429 0
-2436 260 261 0
2436 -261 0
-2437 260 0
2436 -260 0
-2437 261 0
2437 -260 -261 0
-2438 259 2436 0
2438 -2436 0
-2439 259 2437 0
2439 -2437 0
-2440 259 0
2438 -259 0
-2439 2436 0
2439 -259 -2436 0
-2440 2437 0
2440 -259 -2437 0
-2441 263 264 0
2441 -264 0
-2442 263 0
2441 -263 0
-2442 264 0
2442 -263 -264 0
-2443 262 2441 0
2443 -2441 0
-2444 262 2442 0
2444 -2442 0
-2445 262 0
2443 -262 0
-2444 2441 0
2444 -262 -2441 0
-2445 2442 0
2445 -262 -2442 0
-2446 2438 2443 0
2446 -2443 0
-2447 2438 2444 0
2447 -2444 0
-2448 2438 2445 0
2448 -2445 0
-2449 2438 0
2446 -2438 0
-2447 2439 2443 0
2447 -2438 -2443 0
-2448 2439 2444 0
2448 -2438 -2444 0
-2449 2439 2445 0
2449 -2438 -2445 0
-2450 2439 0
2447 -2439 0
-2448 2440 2443 0
2448 -2439 -2443 0
-2449 2440 2444 0
2449 -2439 -2444 0
-2450 2440 2445 0
2450 -2439 -2445 0
-2451 2440 0
2448 -2440 0
-2449 2443 0
2449 -2440 -2443 0
-2450 2444 0
2450 -2440 -2444 0
-2451 2445 0
2451 -2440 -2445 0
-2452 2430 2446 0
2452 -2446 0
-2453 2430 2447 0
2453 -2447 0
-2454 2430 2448 0
2454 -2448 0
-2455 2430 2449 0
2455 -2449 0
-2456 2430 2450 0
2456 -2450 0
-2457 2430 2451 0
2457 -2451 0
-2458 2430 0
2452 -2430 0
-2453 2431 2446 0
2453 -2430 -2446 0
-2454 2431 2447 0
2454 -2430 -2447 0
-2455 2431 2448 0
2455 -2430 -2448 0
-2456 2431 2449 0
2456 -2430 -2449 0
-2457 2431 2450 0
2457 -2430 -2450 0
-2458 2431 2451 0
2458 -2430 -2451 0
-2459 2431 0
2453 -2431 0
-2454 2432 2446 0
2454 -2431 -2446 0
-2455 2432 2447 0
2455 -2431 -2447 0
-2456 2432 2448 0
2456 -2431 -2448 0
-2457 2432 2449 0
2457 -2431 -2449 0
-2458 2432 2450 0
2458 -2431 -2450 0
-2459 2432 2451 0
2459 -2431 -2451 0
-2460 2432 0
2454 -2432 0
-2455 2433 2446 0
2455 -2432 -2446 0
-2456 2433 2447 0
2456 -2432 -2447 0
-2457 2433 2448 0
2457 -2432 -2448 0
-2458 2433 2449 0
2458 -2432 -2449 0
-2459 2433 2450 0
2459 -2432 -2450 0
-2460 2433 2451 0
2460 -2432 -2451 0
-2461 2433 0
2455 -2433 0
-2456 2434 2446 0
2456 -2433 -2446 0
-2457 2434 2447 0
2457 -2433 -2447 0
-2458 2434 2448 0
2458 -2433 -2448 0
-2459 2434 2449 0
2459 -2433 -2449 0
-2460 2434 2450 0
2460 -2433 -2450 0
-2461 2434 2451 0
2461 -2433 -2451 0
-2462 2434 0
2456 -2434 0
-2457 2435 2446 0
2457 -2434 -2446 0
-2458 2435 2447 0
2458 -2434 -2447 0
-2459 2435 2448 0
2459 -2434 -2448 0
-2460 2435 2449 0
2460 -2434 -2449 0
-2461 2435 2450 0
2461 -2434 -2450 0
-2462 2435 2451 0
2462 -2434 -2451 0
-2463 2435 0
2457 -2435 0
-2458 2446 0
2458 -2435 -2446 0
-2459 2447 0
2459 -2435 -2447 0
-2460 2448 0
2460 -2435 -2448 0
-2461 2449 0
2461 -2435 -2449 0
-2462 2450 0
2462 -2435 -2450 0
-2463 2451 0
2463 -2435 -2451 0
-2464 2408 2452 0
2464 -2452 0
-2465 2408 2453 0
2465 -2453 0
-2466 2408 2454 0
2466 -2454 0
-2467 2408 2455 0
2467 -2455 0
-2468 2408 2456 0
2468 -2456 0
-2469 2408 2457 0
2469 -2457 0
-2470 2408 2458 0
2470 -2458 0
-2471 2408 2459 0
2471 -2459 0
-2472 2408 2460 0
2472 -2460 0
-2473 2408 2461 0
2473 -2461 0
-2474 2408 2462 0
2474 -2462 0
-2475 2408 2463 0
2475 -2463 0
-2476 2408 0
2464 -2408 0
-2465 2409 2452 0
2465 -2408 -2452 0
-2466 2409 2453 0
2466 -2408 -2453 0
-2467 2409 2454 0
2467 -2408 -2454 0
-2468 2409 2455 0
2468 -2408 -2455 0
-2469 2409 2456 0
2469 -2408 -2456 0
-2470 2409 2457 0
2470 -2408 -2457 0
-2471 2409 2458 0
2471 -2408 -2458 0
-2472 2409 2459 0
2472 -2408 -2459 0
-2473 2409 2460 0
2473 -2408 -2460 0
-2474 2409 2461 0
2474 -2408 -2461 0
-2475 2409 2462 0
2475 -2408 -2462 0
-2476 2409 2463 0
2476 -2408 -2463 0
-2477 2409 0
2465 -2409 0
-2466 2410 2452 0
2466 -2409 -2452 0
-2467 2410 2453 0
2467 -2409 -2453 0
-2468 2410 2454 0
2468 -2409 -2454 0
-2469 2410 2455 0
2469 -2409 -2455 0
-2470 2410 2456 0
2470 -2409 -2456 0
-2471 2410 2457 0
2471 -2409 -2457 0
-2472 2410 2458 0
2472 -2409 -2458 0
-2473 2410 2459 0
2473 -2409 -2459 0
-2474 2410 2460 0
2474 -2409 -2460 0
-2475 2410 2461 0
2475 -2409 -2461 0
-2476 2410 2462 0
2476 -2409 -2462 0
-2477 2410 2463 0
2477 -2409 -2463 0
-2478 2410 0
2466 -2410 0
-2467 2411 2452 0
2467 -2410 -2452 0
-2468 2411 2453 0
2468 -2410 -2453 0
-2469 2411 2454 0
2469 -2410 -2454 0
-2470 2411 2455 0
2470 -2410 -2455 0
-2471 2411 2456 0
2471 -2410 -2456 0
-2472 2411 2457 0
2472 -2410 -2457 0
-2473 2411 2458 0
2473 -2410 -2458 0
-2474 2411 2459 0
2474 -2410 -2459 0
-2475 2411 2460 0
2475 -2410 -2460 0
-2476 2411 2461 0
2476 -2410 -2461 0
-2477 2411 2462 0
2477 -2410 -2462 0
-2478 2411 2463 0
2478 -2410 -2463 0
2467 -2411 0
-2468 2412 2452 0
2468 -2411 -2452 0
-2469 2412 2453 0
2469 -2411 -2453 0
-2470 2412 2454 0
2470 -2411 -2454 0
-2471 2412 2455 0
2471 -2411 -2455 0
-2472 2412 2456 0
2472 -2411 -2456 0
-2473 2412 2457 0
2473 -2411 -2457 0
-2474 2412 2458 0
2474 -2411 -2458 0
-2475 2412 2459 0
2475 -2411 -2459 0
-2476 2412 2460 0
2476 -2411 -2460 0
-2477 2412 2461 0
2477 -2411 -2461 0
-2478 2412 2462 0
2478 -2411 -2462 0
2468 -2412 0
-2469 2413 2452 0
2469 -2412 -2452 0
-2470 2413 2453 0
2470 -2412 -2453 0
-2471 2413 2454 0
2471 -2412 -2454 0
-2472 2413 2455 0
2472 -2412 -2455 0
-2473 2413 2456 0
2473 -2412 -2456 0
-2474 2413 2457 0
2474 -2412 -2457 0
-2475 2413 2458 0
2475 -2412 -2458 0
-2476 2413 2459 0
2476 -2412 -2459 0
-2477 2413 2460 0
2477 -2412 -2460 0
-2478 2413 2461 0
2478 -2412 -2461 0
2469 -2413 0
-2470 2414 2452 0
2470 -2413 -2452 0
-2471 2414 2453 0
2471 -2413 -2453 0
-2472 2414 2454 0
2472 -2413 -2454 0
-2473 2414 2455 0
2473 -2413 -2455 0
-2474 2414 2456 0
2474 -2413 -2456 0
-2475 2414 2457 0
2475 -2413 -2457 0
-2476 2414 2458 0
2476 -2413 -2458 0
-2477 2414 2459 0
2477 -2413 -2459 0
-2478 2414 2460 0
2478 -2413 -2460 0
2470 -2414 0
-2471 2415 2452 0
2471 -2414 -2452 0
-2472 2415 2453 0
2472 -2414 -2453 0
-2473 2415 2454 0
2473 -2414 -2454 0
-2474 2415 2455 0
2474 -2414 -2455 0
-2475 2415 2456 0
2475 -2414 -2456 0
-2476 2415 2457 0
2476 -2414 -2457 0
-2477 2415 2458 0
2477 -2414 -2458 0
-2478 2415 2459 0
2478 -2414 -2459 0
2471 -2415 0
-2472 2416 2452 0
2472 -2415 -2452 0
-2473 2416 2453 0
2473 -2415 -2453 0
-2474 2416 2454 0
2474 -2415 -2454 0
-2475 2416 2455 0
2475 -2415 -2455 0
-2476 2416 2456 0
2476 -2415 -2456 0
-2477 2416 2457 0
2477 -2415 -2457 0
-2478 2416 2458 0
2478 -2415 -2458 0
2472 -2416 0
-2473 2417 2452 0
2473 -2416 -2452 0
-2474 2417 2453 0
2474 -2416 -2453 0
-2475 2417 2454 0
2475 -2416 -2454 0
-2476 2417 2455 0
2476 -2416 -2455 0
-2477 2417 2456 0
2477 -2416 -2456 0
-2478 2417 2457 0
2478 -2416 -2457 0
2473 -2417 0
-2474 2418 2452 0
2474 -2417 -2452 0
-2475 2418 2453 0
2475 -2417 -2453 0
-2476 2418 2454 0
2476 -2417 -2454 0
-2477 2418 2455 0
2477 -2417 -2455 0
-2478 2418 2456 0
2478 -2417 -2456 0
2474 -2418 0
-2475 2419 2452 0
2475 -2418 -2452 0
-2476 2419 2453 0
2476 -2418 -2453 0
-2477 2419 2454 0
2477 -2418 -2454 0
-2478 2419 2455 0
2478 -2418 -2455 0
2475 -2419 0
-2476 2452 0
2476 -2419 -2452 0
-2477 2453 0
2477 -2419 -2453 0
-2478 2454 0
2478 -2419 -2454 0
-2479 122 123 0
2479 -123 0
-2480 122 0
2479 -122 0
-2480 123 0
2480 -122 -123 0
-2481 121 2479 0
2481 -2479 0
-2482 121 2480 0
2482 -2480 0
-2483 121 0
2481 -121 0
-2482 2479 0
2482 -121 -2479 0
-2483 2480 0
2483 -121 -2480 0
-2484 125 126 0
2484 -126 0
-2485 125 0
2484 -125 0
-2485 126 0
2485 -125 -126 0
-2486 124 2484 0
2486 -2484 0
-2487 124 2485 0
2487 -2485 0
-2488 124 0
2486 -124 0
-2487 2484 0
2487 -124 -2484 0
-2488 2485 0
2488 -124 -2485 0
-2489 2481 2486 0
2489 -2486 0
-2490 2481 2487 0
2490 -2487 0
-2491 2481 2488 0
2491 -2488 0
-2492 2481 0
2489 -2481 0
-2490 2482 2486 0
2490 -2481 -2486 0
-2491 2482 2487 0
2491 -2481 -2487 0
-2492 2482 2488 0
2492 -2481 -2488 0
-2493 2482 0
2490 -2482 0
-2491 2483 2486 0
2491 -2482 -2486 0
-2492 2483 2487 0
2492 -2482 -2487 0
-2493 2483 2488 0
2493 -2482 -2488 0
-2494 2483 0
2491 -2483 0
-2492 2486 0
2492 -2483 -2486 0
-2493 2487 0
2493 -2483 -2487 0
-2494 2488 0
2494 -2483 -2488 0
-2495 128 129 0
2495 -129 0
-2496 128 0
2495 -128 0
-2496 129 0
2496 -128 -129 0
-2497 127 2495 0
2497 -2495 0
-2498 127 2496 0
2498 -2496 0
-2499 127 0
2497 -127 0
-2498 2495 0
2498 -127 -2495 0
-2499 2496 0
2499 -127 -2496 0
-2500 131 132 0
2500 -132 0
-2501 131 0
2500 -131 0
-2501 132 0
2501 -131 -132 0
-2502 130 2500 0
2502 -2500 0
-2503 130 2501 0
2503 -2501 0
-2504 130 0
2502 -130 0
-2503 2500 0
2503 -130 -2500 0
-2504 2501 0
2504 -130 -2501 0
-2505 2497 2502 0
2505 -2502 0
-2506 2497 2503 0
2506 -2503 0
-2507 2497 2504 0
2507 -2504 0
-2508 2497 0
2505 -2497 0
-2506 2498 2502 0
2506 -2497 -2502 0
-2507 2498 2503 0
2507 -2497 -2503 0
-2508 2498 2504 0
2508 -2497 -2504 0
-2509 2498 0
2506 -2498 0
-2507 2499 2502 0
2507 -2498 -2502 0
-2508 2499 2503 0
2508 -2498 -2503 0
-2509 2499 2504 0
2509 -2498 -2504 0
-2510 2499 0
2507 -2499 0
-2508 2502 0
2508 -2499 -2502 0
-2509 2503 0
2509 -2499 -2503 0
-2510 2504 0
2510 -2499 -2504 0
-2511 2489 2505 0
2511 -2505 0
-2512 2489 2506 0
2512 -2506 0
-2513 2489 2507 0
2513 -2507 0
-2514 2489 2508 0
2514 -2508 0
-2515 2489 2509 0
2515 -2509 0
-2516 2489 2510 0
2516 -2510 0
-2517 2489 0
2511 -2489 0
-2512 2490 2505 0
2512 -2489 -2505 0
-2513 2490 2506 0
2513 -2489 -2506 0
-2514 2490 2507 0
2514 -2489 -2507 0
-2515 2490 2508 0
2515 -2489 -2508 0
-2516 2490 2509 0
2516 -2489 -2509 0
-2517 2490 2510 0
2517 -2489 -2510 0
-2518 2490 0
2512 -2490 0
-2513 2491 2505 0
2513 -2490 -2505 0
-2514 2491 2506 0
2514 -2490 -2506 0
-2515 2491 2507 0
2515 -2490 -2507 0
-2516 2491 2508 0
2516 -2490 -2508 0
-2517 2491 2509 0
2517 -2490 -2509 0
-2518 2491 2510 0
2518 -2490 -2510 0
-2519 2491 0
2513 -2491 0
-2514 2492 2505 0
2514 -2491 -2505 0
-2515 2492 2506 0
2515 -2491 -2506 0
-2516 2492 2507 0
2516 -2491 -2507 0
-2517 2492 2508 0
2517 -2491 -2508 0
-2518 2492 2509 0
2518 -2491 -2509 0
-2519 2492 2510 0
2519 -2491 -2510 0
-2520 2492 0
2514 -2492 0
-2515 2493 2505 0
2515 -2492 -2505 0
-2516 2493 2506 0
2516 -2492 -2506 0
-2517 2493 2507 0
2517 -2492 -2507 0
-2518 2493 2508 0
2518 -2492 -2508 0
-2519 2493 2509 0
2519 -2492 -2509 0
-2520 2493 2510 0
2520 -2492 -2510 0
-2521 2493 0
2515 -2493 0
-2516 2494 2505 0
2516 -2493 -2505 0
-2517 2494 2506 0
2517 -2493 -2506 0
-2518 2494 2507 0
2518 -2493 -2507 0
-2519 2494 2508 0
2519 -2493 -2508 0
-2520 2494 2509 0
2520 -2493 -2509 0
-2521 2494 2510 0
2521 -2493 -2510 0
-2522 2494 0
2516 -2494 0
-2517 2505 0
2517 -2494 -2505 0
-2518 2506 0
2518 -2494 -2506 0
-2519 2507 0
2519 -2494 -2507 0
-2520 2508 0
2520 -2494 -2508 0
-2521 2509 0
2521 -2494 -2509 0
-2522 2510 0
2522 -2494 -2510 0
-2523 266 267 0
2523 -267 0
-2524 266 0
2523 -266 0
-2524 267 0
2524 -266 -267 0
-2525 265 2523 0
2525 -2523 0
-2526 265 2524 0
2526 -2524 0
-2527 265 0
2525 -265 0
-2526 2523 0
2526 -265 -2523 0
-2527 2524 0
2527 -265 -2524 0
-2528 269 270 0
2528 -270 0
-2529 269 0
2528 -269 0
-2529 270 0
2529 -269 -270 0
-2530 268 2528 0
2530 -2528 0
-2531 268 2529 0
2531 -2529 0
-2532 268 0
2530 -268 0
-2531 2528 0
2531 -268 -2528 0
-2532 2529 0
2532 -268 -2529 0
-2533 2525 2530 0
2533 -2530 0
-2534 2525 2531 0
2534 -2531 0
-2535 2525 2532 0
2535 -2532 0
-2536 2525 0
2533 -2525 0
-2534 2526 2530 0
2534 -2525 -2530 0
-2535 2526 2531 0
2535 -2525 -2531 0
-2536 2526 2532 0
2536 -2525 -2532 0
-2537 2526 0
2534 -2526 0
-2535 2527 2530 0
2535 -2526 -2530 0
-2536 2527 2531 0
2536 -2526 -2531 0
-2537 2527 2532 0
2537 -2526 -2532 0
-2538 2527 0
2535 -2527 0
-2536 2530 0
2536 -2527 -2530 0
-2537 2531 0
2537 -2527 -2531 0
-2538 2532 0
2538 -2527 -2532 0
-2539 272 273 0
2539 -273 0
-2540 272 0
2539 -272 0
-2540 273 0
2540 -272 -273 0
-2541 271 2539 0
2541 -2539 0
-2542 271 2540 0
2542 -2540 0
-2543 271 0
2541 -271 0
-2542 2539 0
2542 -271 -2539 0
-2543 2540 0
2543 -271 -2540 0
-2544 275 276 0
2544 -276 0
-2545 275 0
2544 -275 0
-2545 276 0
2545 -275 -276 0
-2546 274 2544 0
2546 -2544 0
-2547 274 2545 0
2547 -2545 0
-2548 274 0
2546 -274 0
-2547 2544 0
2547 -274 -2544 0
-2548 2545 0
2548 -274 -2545 0
-2549 2541 2546 0
2549 -2546 0
-2550 2541 2547 0
2550 -2547 0
-2551 2541 2548 0
2551 -2548 0
-2552 2541 0
2549 -2541 0
-2550 2542 2546 0
2550 -2541 -2546 0
-2551 2542 2547 0
2551 -2541 -2547 0
-2552 2542 2548 0
2552 -2541 -2548 0
-2553 2542 0
2550 -2542 0
-2551 2543 2546 0
2551 -2542 -2546 0
-2552 2543 2547 0
2552 -2542 -2547 0
-2553 2543 2548 0
2553 -2542 -2548 0
-2554 2543 0
2551 -2543 0
-2552 2546 0
2552 -2543 -2546 0
-2553 2547 0
2553 -2543 -2547 0
-2554 2548 0
2554 -2543 -2548 0
-2555 2533 2549 0
2555 -2549 0
-2556 2533 2550 0
2556 -2550 0
-2557 2533 2551 0
2557 -2551 0
-2558 2533 2552 0
2558 -2552 0
-2559 2533 2553 0
2559 -2553 0
-2560 2533 2554 0
2560 -2554 0
-2561 2533 0
2555 -2533 0
-2556 2534 2549 0
2556 -2533 -2549 0
-2557 2534 2550 0
2557 -2533 -2550 0
-2558 2534 2551 0
2558 -2533 -2551 0
-2559 2534 2552 0
2559 -2533 -2552 0
-2560 2534 2553 0
2560 -2533 -2553 0
-2561 2534 2554 0
2561 -2533 -2554 0
-2562 2534 0
2556 -2534 0
-2557 2535 2549 0
2557 -2534 -2549 0
-2558 2535 2550 0
2558 -2534 -2550 0
-2559 2535 2551 0
2559 -2534 -2551 0
-2560 2535 2552 0
2560 -2534 -2552 0
-2561 2535 2553 0
2561 -2534 -2553 0
-2562 2535 2554 0
2562 -2534 -2554 0
-2563 2535 0
2557 -2535 0
-2558 2536 2549 0
2558 -2535 -2549 0
-2559 2536 2550 0
2559 -2535 -2550 0
-2560 2536 2551 0
2560 -2535 -2551 0
-2561 2536 2552 0
2561 -2535 -2552 0
-2562 2536 2553 0
2562 -2535 -2553 0
-2563 2536 2554 0
2563 -2535 -2554 0
-2564 2536 0
2558 -2536 0
-2559 2537 2549 0
2559 -2536 -2549 0
-2560 2537 2550 0
2560 -2536 -2550 0
-2561 2537 2551 0
2561 -2536 -2551 0
-2562 2537 2552 0
2562 -2536 -2552 0
-2563 2537 2553 0
2563 -2536 -2553 0
-2564 2537 2554 0
2564 -2536 -2554 0
-2565 2537 0
2559 -2537 0
-2560 2538 2549 0
2560 -2537 -2549 0
-2561 2538 2550 0
2561 -2537 -2550 0
-2562 2538 2551 0
2562 -2537 -2551 0
-2563 2538 2552 0
2563 -2537 -2552 0
-2564 2538 2553 0
2564 -2537 -2553 0
-2565 2538 2554 0
2565 -2537 -2554 0
-2566 2538 0
2560 -2538 0
-2561 2549 0
2561 -2538 -2549 0
-2562 2550 0
2562 -2538 -2550 0
-2563 2551 0
2563 -2538 -2551 0
-2564 2552 0
2564 -2538 -2552 0
-2565 2553 0
2565 -2538 -2553 0
-2566 2554 0
2566 -2538 -2554 0
-2567 2511 2555 0
2567 -2555 0
-2568 2511 2556 0
2568 -2556 0
-2569 2511 2557 0
2569 -2557 0
-2570 2511 2558 0
2570 -2558 0
-2571 2511 2559 0
2571 -2559 0
-2572 2511 2560 0
2572 -2560 0
-2573 2511 2561 0
2573 -2561 0
-2574 2511 2562 0
2574 -2562 0
-2575 2511 2563 0
2575 -2563 0
-2576 2511 2564 0
2576 -2564 0
-2577 2511 2565 0
2577 -2565 0
-2578 2511 2566 0
2578 -2566 0
-2579 2511 0
2567 -2511 0
-2568 2512 2555 0
2568 -2511 -2555 0
-2569 2512 2556 0
2569 -2511 -2556 0
-2570 2512 2557 0
2570 -2511 -2557 0
-2571 2512 2558 0
2571 -2511 -2558 0
-2572 2512 2559 0
2572 -2511 -2559 0
-2573 2512 2560 0
2573 -2511 -2560 0
-2574 2512 2561 0
2574 -2511 -2561 0
-2575 2512 2562 0
2575 -2511 -2562 0
-2576 2512 2563 0
2576 -2511 -2563 0
-2577 2512 2564 0
2577 -2511 -2564 0
-2578 2512 2565 0
2578 -2511 -2565 0
-2579 2512 2566 0
2579 -2511 -2566 0
-2580 2512 0
2568 -2512 0
-2569 2513 2555 0
2569 -2512 -2555 0
-2570 2513 2556 0
2570 -2512 -2556 0
-2571 2513 2557 0
2571 -2512 -2557 0
-2572 2513 2558 0
2572 -2512 -2558 0
-2573 2513 2559 0
2573 -2512 -2559 0
-2574 2513 2560 0
2574 -2512 -2560 0
-2575 2513 2561 0
2575 -2512 -2561 0
-2576 2513 2562 0
2576 -2512 -2562 0
-2577 2513 2563 0
2577 -2512 -2563 0
-2578 2513 2564 0
2578 -2512 -2564 0
-2579 2513 2565 0
2579 -2512 -2565 0
-2580 2513 2566 0
2580 -2512 -2566 0
-2581 2513 0
2569 -2513 0
-2570 2514 2555 0
2570 -2513 -2555 0
-2571 2514 2556 0
2571 -2513 -2556 0
-2572 2514 2557 0
2572 -2513 -2557 0
-2573 2514 2558 0
2573 -2513 -2558 0
-2574 2514 2559 0
2574 -2513 -2559 0
-2575 2514 2560 0
2575 -2513 -2560 0
-2576 2514 2561 0
2576 -2513 -2561 0
-2577 2514 2562 0
2577 -2513 -2562 0
-2578 2514 2563 0
2578 -2513 -2563 0
-2579 2514 2564 0
2579 -2513 -2564 0
-2580 2514 2565 0
2580 -2513 -2565 0
-2581 2514 2566 0
2581 -2513 -2566 0
2570 -2514 0
-2571 2515 2555 0
2571 -2514 -2555 0
-2572 2515 2556 0
2572 -2514 -2556 0
-2573 2515 2557 0
2573 -2514 -2557 0
-2574 2515 2558 0
2574 -2514 -2558 0
-2575 2515 2559 0
2575 -2514 -2559 0
-2576 2515 2560 0
2576 -2514 -2560 0
-2577 2515 2561 0
2577 -2514 -2561 0
-2578 2515 2562 0
2578 -2514 -2562 0
-2579 2515 2563 0
2579 -2514 -2563 0
-2580 2515 2564 0
2580 -2514 -2564 0
-2581 2515 2565 0
2581 -2514 -2565 0
2571 -2515 0
-2572 2516 2555 0
2572 -2515 -2555 0
-2573 2516 2556 0
2573 -2515 -2556 0
-2574 2516 2557 0
2574 -2515 -2557 0
-2575 2516 2558 0
2575 -2515 -2558 0
-2576 2516 2559 0
2576 -2515 -2559 0
-2577 2516 2560 0
2577 -2515 -2560 0
-2578 2516 2561 0
2578 -2515 -2561 0
-2579 2516 2562 0
2579 -2515 -2562 0
-2580 2516 2563 0
2580 -2515 -2563 0
-2581 2516 2564 0
2581 -2515 -2564 0
2572 -2516 0
-2573 2517 2555 0
2573 -2516 -2555 0
-2574 2517 2556 0
2574 -2516 -2556 0
-2575 2517 2557 0
2575 -2516 -2557 0
-2576 2517 2558 0
2576 -2516 -2558 0
-2577 2517 2559 0
2577 -2516 -2559 0
-2578 2517 2560 0
2578 -2516 -2560 0
-2579 2517 2561 0
2579 -2516 -2561 0
-2580 2517 2562 0
2580 -2516 -2562 0
-2581 2517 2563 0
2581 -2516 -2563 0
2573 -2517 0
-2574 2518 2555 0
2574 -2517 -2555 0
-2575 2518 2556 0
2575 -2517 -2556 0
-2576 2518 2557 0
2576 -2517 -2557 0
-2577 2518 2558 0
2577 -2517 -2558 0
-2578 2518 2559 0
2578 -2517 -2559 0
-2579 2518 2560 0
2579 -2517 -2560 0
-2580 2518 2561 0
2580 -2517 -2561 0
-2581 2518 2562 0
2581 -2517 -2562 0
2574 -2518 0
-2575 2519 2555 0
2575 -2518 -2555 0
-2576 2519 2556 0
2576 -2518 -2556 0
-2577 2519 2557 0
2577 -2518 -2557 0
-2578 2519 2558 0
2578 -2518 -2558 0
-2579 2519 2559 0
2579 -2518 -2559 0
-2580 2519 2560 0
2580 -2518 -2560 0
-2581 2519 2561 0
2581 -2518 -2561 0
2575 -2519 0
-2576 2520 2555 0
2576 -2519 -2555 0
-2577 2520 2556 0
2577 -2519 -2556 0
-2578 2520 2557 0
2578 -2519 -2557 0
-2579 2520 2558 0
2579 -2519 -2558 0
-2580 2520 2559 0
2580 -2519 -2559 0
-2581 2520 2560 0
2581 -2519 -2560 0
2576 -2520 0
-2577 2521 2555 0
2577 -2520 -2555 0
-2578 2521 2556 0
2578 -2520 -2556 0
-2579 2521 2557 0
2579 -2520 -2557 0
-2580 2521 2558 0
2580 -2520 -2558 0
-2581 2521 2559 0
2581 -2520 -2559 0
2577 -2521 0
-2578 2522 2555 0
2578 -2521 -2555 0
-2579 2522 2556 0
2579 -2521 -2556 0
-2580 2522 2557 0
2580 -2521 -2557 0
-2581 2522 2558 0
2581 -2521 -2558 0
2578 -2522 0
-2579 2555 0
2579 -2522 -2555 0
-2580 2556 0
2580 -2522 -2556 0
-2581 2557 0
2581 -2522 -2557 0
-2582 134 135 0
2582 -135 0
-2583 134 0
2582 -134 0
-2583 135 0
2583 -134 -135 0
-2584 133 2582 0
2584 -2582 0
-2585 133 2583 0
2585 -2583 0
-2586 133 0
2584 -133 0
-2585 2582 0
2585 -133 -2582 0
-2586 2583 0
2586 -133 -2583 0
-2587 137 138 0
2587 -138 0
-2588 137 0
2587 -137 0
-2588 138 0
2588 -137 -138 0
-2589 136 2587 0
2589 -2587 0
-2590 136 2588 0
2590 -2588 0
-2591 136 0
2589 -136 0
-2590 2587 0
2590 -136 -2587 0
-2591 2588 0
2591 -136 -2588 0
-2592 2584 2589 0
2592 -2589 0
-2593 2584 2590 0
2593 -2590 0
-2594 2584 2591 0
2594 -2591 0
-2595 2584 0
2592 -2584 0
-2593 2585 2589 0
2593 -2584 -2589 0
-2594 2585 2590 0
2594 -2584 -2590 0
-2595 2585 2591 0
2595 -2584 -2591 0
-2596 2585 0
2593 -2585 0
-2594 2586 2589 0
2594 -2585 -2589 0
-2595 2586 2590 0
2595 -2585 -2590 0
-2596 2586 2591 0
2596 -2585 -2591 0
-2597 2586 0
2594 -2586 0
-2595 2589 0
2595 -2586 -2589 0
-2596 2590 0
2596 -2586 -2590 0
-2597 2591 0
2597 -2586 -2591 0
-2598 140 141 0
2598 -141 0
-2599 140 0
2598 -140 0
-2599 141 0
2599 -140 -141 0
-2600 139 2598 0
2600 -2598 0
-2601 139 2599 0
2601 -2599 0
-2602 139 0
2600 -139 0
-2601 2598 0
2601 -139 -2598 0
-2602 2599 0
2602 -139 -2599 0
-2603 143 144 0
2603 -144 0
-2604 143 0
2603 -143 0
-2604 144 0
2604 -143 -144 0
-2605 142 2603 0
2605 -2603 0
-2606 142 2604 0
2606 -2604 0
-2607 142 0
2605 -142 0
-2606 2603 0
2606 -142 -2603 0
-2607 2604 0
2607 -142 -2604 0
-2608 2600 2605 0
2608 -2605 0
-2609 2600 2606 0
2609 -2606 0
-2610 2600 2607 0
2610 -2607 0
-2611 2600 0
2608 -2600 0
-2609 2601 2605 0
2609 -2600 -2605 0
-2610 2601 2606 0
2610 -2600 -2606 0
-2611 2601 2607 0
2611 -2600 -2607 0
-2612 2601 0
2609 -2601 0
-2610 2602 2605 0
2610 -2601 -2605 0
-2611 2602 2606 0
2611 -2601 -2606 0
-2612 2602 2607 0
2612 -2601 -2607 0
-2613 2602 0
2610 -2602 0
-2611 2605 0
2611 -2602 -2605 0
-2612 2606 0
2612 -2602 -2606 0
-2613 2607 0
2613 -2602 -2607 0
-2614 2592 2608 0
2614 -2608 0
-2615 2592 2609 0
2615 -2609 0
-2616 2592 2610 0
2616 -2610 0
-2617 2592 2611 0
2617 -2611 0
-2618 2592 2612 0
2618 -2612 0
-2619 2592 2613 0
2619 -2613 0
-2620 2592 0
2614 -2592 0
-2615 2593 2608 0
2615 -2592 -2608 0
-2616 2593 2609 0
2616 -2592 -2609 0
-2617 2593 2610 0
2617 -2592 -2610 0
-2618 2593 2611 0
2618 -2592 -2611 0
-2619 2593 2612 0
2619 -2592 -2612 0
-2620 2593 2613 0
2620 -2592 -2613 0
-2621 2593 0
2615 -2593 0
-2616 2594 2608 0
2616 -2593 -2608 0
-2617 2594 2609 0
2617 -2593 -2609 0
-2618 2594 2610 0
2618 -2593 -2610 0
-2619 2594 2611 0
2619 -2593 -2611 0
-2620 2594 2612 0
2620 -2593 -2612 0
-2621 2594 2613 0
2621 -2593 -2613 0
-2622 2594 0
2616 -2594 0
-2617 2595 2608 0
2617 -2594 -2608 0
-2618 2595 2609 0
2618 -2594 -2609 0
-2619 2595 2610 0
2619 -2594 -2610 0
-2620 2595 2611 0
2620 -2594 -2611 0
-2621 2595 2612 0
2621 -2594 -2612 0
-2622 2595 2613 0
2622 -2594 -2613 0
-2623 2595 0
2617 -2595 0
-2618 2596 2608 0
2618 -2595 -2608 0
-2619 2596 2609 0
2619 -2595 -2609 0
-2620 2596 2610 0
2620 -2595 -2610 0
-2621 2596 2611 0
2621 -2595 -2611 0
-2622 2596 2612 0
2622 -2595 -2612 0
-2623 2596 2613 0
2623 -2595 -2613 0
-2624 2596 0
2618 -2596 0
-2619 2597 2608 0
2619 -2596 -2608 0
-2620 2597 2609 0
2620 -2596 -2609 0
-2621 2597 2610 0
2621 -2596 -2610 0
-2622 2597 2611 0
2622 -2596 -2611 0
-2623 2597 2612 0
2623 -2596 -2612 0
-2624 2597 2613 0
2624 -2596 -2613 0
-2625 2597 0
2619 -2597 0
-2620 2608 0
2620 -2597 -2608 0
-2621 2609 0
2621 -2597 -2609 0
-2622 2610 0
2622 -2597 -2610 0
-2623 2611 0
2623 -2597 -2611 0
-2624 2612 0
2624 -2597 -2612 0
-2625 2613 0
2625 -2597 -2613 0
-2626 278 279 0
2626 -279 0
-2627 278 0
2626 -278 0
-2627 279 0
2627 -278 -279 0
-2628 277 2626 0
2628 -2626 0
-2629 277 2627 0
2629 -2627 0
-2630 277 0
2628 -277 0
-2629 2626 0
2629 -277 -2626 0
-2630 2627 0
2630 -277 -2627 0
-2631 281 282 0
2631 -282 0
-2632 281 0
2631 -281 0
-2632 282 0
2632 -281 -282 0
-2633 280 2631 0
2633 -2631 0
-2634 280 2632 0
2634 -2632 0
-2635 280 0
2633 -280 0
-2634 2631 0
2634 -280 -2631 0
-2635 2632 0
2635 -280 -2632 0
-2636 2628 2633 0
2636 -2633 0
-2637 2628 2634 0
2637 -2634 0
-2638 2628 2635 0
2638 -2635 0
-2639 2628 0
2636 -2628 0
-2637 2629 2633 0
2637 -2628 -2633 0
-2638 2629 2634 0
2638 -2628 -2634 0
-2639 2629 2635 0
2639 -2628 -2635 0
-2640 2629 0
2637 -2629 0
-2638 2630 2633 0
2638 -2629 -2633 0
-2639 2630 2634 0
2639 -2629 -2634 0
-2640 2630 2635 0
2640 -2629 -2635 0
-2641 2630 0
2638 -2630 0
-2639 2633 0
2639 -2630 -2633 0
-2640 2634 0
2640 -2630 -2634 0
-2641 2635 0
2641 -2630 -2635 0
-2642 284 285 0
2642 -285 0
-2643 284 0
2642 -284 0
-2643 285 0
2643 -284 -285 0
-2644 283 2642 0
2644 -2642 0
-2645 283 2643 0
2645 -2643 0
-2646 283 0
2644 -283 0
-2645 2642 0
2645 -283 -2642 0
-2646 2643 0
2646 -283 -2643 0
-2647 287 288 0
2647 -288 0
-2648 287 0
2647 -287 0
-2648 288 0
2648 -287 -288 0
-2649 286 2647 0
2649 -2647 0
-2650 286 2648 0
2650 -2648 0
-2651 286 0
2649 -286 0
-2650 2647 0
2650 -286 -2647 0
-2651 2648 0
2651 -286 -2648 0
-2652 2644 2649 0
2652 -2649 0
-2653 2644 2650 0
2653 -2650 0
-2654 2644 2651 0
2654 -2651 0
-2655 2644 0
2652 -2644 0
-2653 2645 2649 0
2653 -2644 -2649 0
-2654 2645 2650 0
2654 -2644 -2650 0
-2655 2645 2651 0
2655 -2644 -2651 0
-2656 2645 0
2653 -2645 0
-2654 2646 2649 0
2654 -2645 -2649 0
-2655 2646 2650 0
2655 -2645 -2650 0
-2656 2646 2651 0
2656 -2645 -2651 0
-2657 2646 0
2654 -2646 0
-2655 2649 0
2655 -2646 -2649 0
-2656 2650 0
2656 -2646 -2650 0
-2657 2651 0
2657 -2646 -2651 0
-2658 2636 2652 0
2658 -2652 0
-2659 2636 2653 0
2659 -2653 0
-2660 2636 2654 0
2660 -2654 0
-2661 2636 2655 0
2661 -2655 0
-2662 2636 2656 0
2662 -2656 0
-2663 2636 2657 0
2663 -2657 0
-2664 2636 0
2658 -2636 0
-2659 2637 2652 0
2659 -2636 -2652 0
-2660 2637 2653 0
2660 -2636 -2653 0
-2661 2637 2654 0
2661 -2636 -2654 0
-2662 2637 2655 0
2662 -2636 -2655 0
-2663 2637 2656 0
2663 -2636 -2656 0
-2664 2637 2657 0
2664 -2636 -2657 0
-2665 2637 0
2659 -2637 0
-2660 2638 2652 0
2660 -2637 -2652 0
-2661 2638 2653 0
2661 -2637 -2653 0
-2662 2638 2654 0
2662 -2637 -2654 0
-2663 2638 2655 0
2663 -2637 -2655 0
-2664 2638 2656 0
2664 -2637 -2656 0
-2665 2638 2657 0
2665 -2637 -2657 0
-2666 2638 0
2660 -2638 0
-2661 2639 2652 0
2661 -2638 -2652 0
-2662 2639 2653 0
2662 -2638 -2653 0
-2663 2639 2654 0
2663 -2638 -2654 0
-2664 2639 2655 0
2664 -2638 -2655 0
-2665 2639 2656 0
2665 -2638 -2656 0
-2666 2639 2657 0
2666 -2638 -2657 0
-2667 2639 0
2661 -2639 0
-2662 2640 2652 0
2662 -2639 -2652 0
-2663 2640 2653 0
2663 -2639 -2653 0
-2664 2640 2654 0
2664 -2639 -2654 0
-2665 2640 2655 0
2665 -2639 -2655 0
-2666 2640 2656 0
2666 -2639 -2656 0
-2667 2640 2657 0
2667 -2639 -2657 0
-2668 2640 0
2662 -2640 0
-2663 2641 2652 0
2663 -2640 -2652 0
-2664 2641 2653 0
2664 -2640 -2653 0
-2665 2641 2654 0
2665 -2640 -2654 0
-2666 2641 2655 0
2666 -2640 -2655 0
-2667 2641 2656 0
2667 -2640 -2656 0
-2668 2641 2657 0
2668 -2640 -2657 0
-2669 2641 0
2663 -2641 0
-2664 2652 0
2664 -2641 -2652 0
-2665 2653 0
2665 -2641 -2653 0
-2666 2654 0
2666 -2641 -2654 0
-2667 2655 0
2667 -2641 -2655 0
-2668 2656 0
2668 -2641 -2656 0
-2669 2657 0
2669 -2641 -2657 0
-2670 2614 2658 0
2670 -2658 0
-2671 2614 2659 0
2671 -2659 0
-2672 2614 2660 0
2672 -2660 0
-2673 2614 2661 0
2673 -2661 0
-2674 2614 2662 0
2674 -2662 0
-2675 2614 2663 0
2675 -2663 0
-2676 2614 2664 0
2676 -2664 0
-2677 2614 2665 0
2677 -2665 0
-2678 2614 2666 0
2678 -2666 0
-2679 2614 2667 0
2679 -2667 0
-2680 2614 2668 0
2680 -2668 0
-2681 2614 2669 0
2681 -2669 0
-2682 2614 0
2670 -2614 0
-2671 2615 2658 0
2671 -2614 -2658 0
-2672 2615 2659 0
2672 -2614 -2659 0
-2673 2615 2660 0
2673 -2614 -2660 0
-2674 2615 2661 0
2674 -2614 -2661 0
-2675 2615 2662 0
2675 -2614 -2662 0
-2676 2615 2663 0
2676 -2614 -2663 0
-2677 2615 2664 0
2677 -2614 -2664 0
-2678 2615 2665 0
2678 -2614 -2665 0
-2679 2615 2666 0
2679 -2614 -2666 0
-2680 2615 2667 0
2680 -2614 -2667 0
-2681 2615 2668 0
2681 -2614 -2668 0
-2682 2615 2669 0
2682 -2614 -2669 0
-2683 2615 0
2671 -2615 0
-2672 2616 2658 0
2672 -2615 -2658 0
-2673 2616 2659 0
2673 -2615 -2659 0
-2674 2616 2660 0
2674 -2615 -2660 0
-2675 2616 2661 0
2675 -2615 -2661 0
-2676 2616 2662 0
2676 -2615 -2662 0
-2677 2616 2663 0
2677 -2615 -2663 0
-2678 2616 2664 0
2678 -2615 -2664 0
-2679 2616 2665 0
2679 -2615 -2665 0
-2680 2616 2666 0
2680 -2615 -2666 0
-2681 2616 2667 0
2681 -2615 -2667 0
-2682 2616 2668 0
2682 -2615 -2668 0
-2683 2616 2669 0
2683 -2615 -2669 0
-2684 2616 0
2672 -2616 0
-2673 2617 2658 0
2673 -2616 -2658 0
-2674 2617 2659 0
2674 -2616 -2659 0
-2675 2617 2660 0
2675 -2616 -2660 0
-2676 2617 2661 0
2676 -2616 -2661 0
-2677 2617 2662 0
2677 -2616 -2662 0
-2678 2617 2663 0
2678 -2616 -2663 0
-2679 2617 2664 0
2679 -2616 -2664 0
-2680 2617 2665 0
2680 -2616 -2665 0
-2681 2617 2666 0
2681 -2616 -2666 0
-2682 2617 2667 0
2682 -2616 -2667 0
-2683 2617 2668 0
2683 -2616 -2668 0
-2684 2617 2669 0
2684 -2616 -2669 0
2673 -2617 0
-2674 2618 2658 0
2674 -2617 -2658 0
-2675 2618 2659 0
2675 -2617 -2659 0
-2676 2618 2660 0
2676 -2617 -2660 0
-2677 2618 2661 0
2677 -2617 -2661 0
-2678 2618 2662 0
2678 -2617 -2662 0
-2679 2618 2663 0
2679 -2617 -2663 0
-2680 2618 2664 0
2680 -2617 -2664 0
-2681 2618 2665 0
2681 -2617 -2665 0
-2682 2618 2666 0
2682 -2617 -2666 0
-2683 2618 2667 0
2683 -2617 -2667 0
-2684 2618 2668 0
2684 -2617 -2668 0
2674 -2618 0
-2675 2619 2658 0
2675 -2618 -2658 0
-2676 2619 2659 0
2676 -2618 -2659 0
-2677 2619 2660 0
2677 -2618 -2660 0
-2678 2619 2661 0
2678 -2618 -2661 0
-2679 2619 2662 0
2679 -2618 -2662 0
-2680 2619 2663 0
2680 -2618 -2663 0
-2681 2619 2664 0
2681 -2618 -2664 0
-2682 2619 2665 0
2682 -2618 -2665 0
-2683 2619 2666 0
2683 -2618 -2666 0
-2684 2619 2667 0
2684 -2618 -2667 0
2675 -2619 0
-2676 2620 2658 0
2676 -2619 -2658 0
-2677 2620 2659 0
2677 -2619 -2659 0
-2678 2620 2660 0
2678 -2619 -2660 0
-2679 2620 2661 0
2679 -2619 -2661 0
-2680 2620 2662 0
2680 -2619 -2662 0
-2681 2620 2663 0
2681 -2619 -2663 0
-2682 2620 2664 0
2682 -2619 -2664 0
-2683 2620 2665 0
2683 -2619 -2665 0
-2684 2620 2666 0
2684 -2619 -2666 0
2676 -2620 0
-2677 2621 2658 0
2677 -2620 -2658 0
-2678 2621 2659 0
2678 -2620 -2659 0
-2679 2621 2660 0
2679 -2620 -2660 0
-2680 2621 2661 0
2680 -2620 -2661 0
-2681 2621 2662 0
2681 -2620 -2662 0
-2682 2621 2663 0
2682 -2620 -2663 0
-2683 2621 2664 0
2683 -2620 -2664 0
-2684 2621 2665 0
2684 -2620 -2665 0
2677 -2621 0
-2678 2622 2658 0
2678 -2621 -2658 0
-2679 2622 2659 0
2679 -2621 -2659 0
-2680 2622 2660 0
2680 -2621 -2660 0
-2681 2622 2661 0
2681 -2621 -2661 0
-2682 2622 2662 0
2682 -2621 -2662 0
-2683 2622 2663 0
2683 -2621 -2663 0
-2684 2622 2664 0
2684 -2621 -2664 0
2678 -2622 0
-2679 2623 2658 0
2679 -2622 -2658 0
-2680 2623 2659 0
2680 -2622 -2659 0
-2681 2623 2660 0
2681 -2622 -2660 0
-2682 2623 2661 0
2682 -2622 -2661 0
-2683 2623 2662 0
2683 -2622 -2662 0
-2684 2623 2663 0
2684 -2622 -2663 0
2679 -2623 0
-2680 2624 2658 0
2680 -2623 -2658 0
-2681 2624 2659 0
2681 -2623 -2659 0
-2682 2624 2660 0
2682 -2623 -2660 0
-2683 2624 2661 0
2683 -2623 -2661 0
-2684 2624 2662 0
2684 -2623 -2662 0
2680 -2624 0
-2681 2625 2658 0
2681 -2624 -2658 0
-2682 2625 2659 0
2682 -2624 -2659 0
-2683 2625 2660 0
2683 -2624 -2660 0
-2684 2625 2661 0
2684 -2624 -2661 0
2681 -2625 0
-2682 2658 0
2682 -2625 -2658 0
-2683 2659 0
2683 -2625 -2659 0
-2684 2660 0
2684 -2625 -2660 0
2685 -1640 0
2686 -1641 0
2687 -1642 0
2688 -1643 0
2689 -1644 0
2690 -1645 0
2691 -1646 0
2692 -1647 0
2693 -1648 0
2694 -1649 0
2695 -1650 0
2696 -1651 0
2697 -1652 0
2698 -1653 0
2699 -1654 0
2685 -1537 0
2686 -1537 -1640 0
2687 -1537 -1641 0
2688 -1537 -1642 0
2689 -1537 -1643 0
2690 -1537 -1644 0
2691 -1537 -1645 0
2692 -1537 -1646 0
2693 -1537 -1647 0
2694 -1537 -1648 0
2695 -1537 -1649 0
2696 -1537 -1650 0
2697 -1537 -1651 0
2698 -1537 -1652 0
2699 -1537 -1653 0
2686 -1538 0
2687 -1538 -1640 0
2688 -1538 -1641 0
2689 -1538 -1642 0
2690 -1538 -1643 0
2691 -1538 -1644 0
2692 -1538 -1645 0
2693 -1538 -1646 0
2694 -1538 -1647 0
2695 -1538 -1648 0
2696 -1538 -1649 0
2697 -1538 -1650 0
2698 -1538 -1651 0
2699 -1538 -1652 0
2687 -1539 0
2688 -1539 -1640 0
2689 -1539 -1641 0
2690 -1539 -1642 0
2691 -1539 -1643 0
2692 -1539 -1644 0
2693 -1539 -1645 0
2694 -1539 -1646 0
2695 -1539 -1647 0
2696 -1539 -1648 0
2697 -1539 -1649 0
2698 -1539 -1650 0
2699 -1539 -1651 0
2688 -1540 0
2689 -1540 -1640 0
2690 -1540 -1641 0
2691 -1540 -1642 0
2692 -1540 -1643 0
2693 -1540 -1644 0
2694 -1540 -1645 0
2695 -1540 -1646 0
2696 -1540 -1647 0
2697 -1540 -1648 0
2698 -1540 -1649 0
2699 -1540 -1650 0
2689 -1541 0
2690 -1541 -1640 0
2691 -1541 -1641 0
2692 -1541 -1642 0
2693 -1541 -1643 0
2694 -1541 -1644 0
2695 -1541 -1645 0
2696 -1541 -1646 0
2697 -1541 -1647 0
2698 -1541 -1648 0
2699 -1541 -1649 0
2690 -1542 0
2691 -1542 -1640 0
2692 -1542 -1641 0
2693 -1542 -1642 0
2694 -1542 -1643 0
2695 -1542 -1644 0
2696 -1542 -1645 0
2697 -1542 -1646 0
2698 -1542 -1647 0
2699 -1542 -1648 0
2691 -1543 0
2692 -1543 -1640 0
2693 -1543 -1641 0
2694 -1543 -1642 0
2695 -1543 -1643 0
2696 -1543 -1644 0
2697 -1543 -1645 0
2698 -1543 -1646 0
2699 -1543 -1647 0
2692 -1544 0
2693 -1544 -1640 0
2694 -1544 -1641 0
2695 -1544 -1642 0
2696 -1544 -1643 0
2697 -1544 -1644 0
2698 -1544 -1645 0
2699 -1544 -1646 0
2693 -1545 0
2694 -1545 -1640 0
2695 -1545 -1641 0
2696 -1545 -1642 0
2697 -1545 -1643 0
2698 -1545 -1644 0
2699 -1545 -1645 0
2694 -1546 0
2695 -1546 -1640 0
2696 -1546 -1641 0
2697 -1546 -1642 0
2698 -1546 -1643 0
2699 -1546 -1644 0
2695 -1547 0
2696 -1547 -1640 0
2697 -1547 -1641 0
2698 -1547 -1642 0
2699 -1547 -1643 0
2696 -1548 0
2697 -1548 -1640 0
2698 -1548 -1641 0
2699 -1548 -1642 0
2697 -1549 0
2698 -1549 -1640 0
2699 -1549 -1641 0
2698 -1550 0
2699 -1550 -1640 0
2699 -1551 0
2700 -1846 0
2701 -1847 0
2702 -1848 0
2703 -1849 0
2704 -1850 0
2705 -1851 0
2706 -1852 0
2707 -1853 0
2708 -1854 0
2709 -1855 0
2710 -1856 0
2711 -1857 0
2712 -1858 0
2713 -1859 0
2714 -1860 0
2700 -1743 0
2701 -1743 -1846 0
2702 -1743 -1847 0
2703 -1743 -1848 0
2704 -1743 -1849 0
2705 -1743 -1850 0
2706 -1743 -1851 0
2707 -1743 -1852 0
2708 -1743 -1853 0
2709 -1743 -1854 0
2710 -1743 -1855 0
2711 -1743 -1856 0
2712 -1743 -1857 0
2713 -1743 -1858 0
2714 -1743 -1859 0
2701 -1744 0
2702 -1744 -1846 0
2703 -1744 -1847 0
2704 -1744 -1848 0
2705 -1744 -1849 0
2706 -1744 -1850 0
2707 -1744 -1851 0
2708 -1744 -1852 0
2709 -1744 -1853 0
2710 -1744 -1854 0
2711 -1744 -1855 0
2712 -1744 -1856 0
2713 -1744 -1857 0
2714 -1744 -1858 0
2702 -1745 0
2703 -1745 -1846 0
2704 -1745 -1847 0
2705 -1745 -1848 0
2706 -1745 -1849 0
2707 -1745 -1850 0
2708 -1745 -1851 0
2709 -1745 -1852 0
2710 -1745 -1853 0
2711 -1745 -1854 0
2712 -1745 -1855 0
2713 -1745 -1856 0
2714 -1745 -1857 0
2703 -1746 0
2704 -1746 -1846 0
2705 -1746 -1847 0
2706 -1746 -1848 0
2707 -1746 -1849 0
2708 -1746 -1850 0
2709 -1746 -1851 0
2710 -1746 -1852 0
2711 -1746 -1853 0
2712 -1746 -1854 0
2713 -1746 -1855 0
2714 -1746 -1856 0
2704 -1747 0
2705 -1747 -1846 0
2706 -1747 -1847 0
2707 -1747 -1848 0
2708 -1747 -1849 0
2709 -1747 -1850 0
2710 -1747 -1851 0
2711 -1747 -1852 0
2712 -1747 -1853 0
2713 -1747 -1854 0
2714 -1747 -1855 0
2705 -1748 0
2706 -1748 -1846 0
2707 -1748 -1847 0
2708 -1748 -1848 0
2709 -1748 -1849 0
2710 -1748 -1850 0
2711 -1748 -1851 0
2712 -1748 -1852 0
2713 -1748 -1853 0
2714 -1748 -1854 0
2706 -1749 0
2707 -1749 -1846 0
2708 -1749 -1847 0
2709 -1749 -1848 0
2710 -1749 -1849 0
2711 -1749 -1850 0
2712 -1749 -1851 0
2713 -1749 -1852 0
2714 -1749 -1853 0
2707 -1750 0
2708 -1750 -1846 0
2709 -1750 -1847 0
2710 -1750 -1848 0
2711 -1750 -1849 0
2712 -1750 -1850 0
2713 -1750 -1851 0
2714 -1750 -1852 0
2708 -1751 0
2709 -1751 -1846 0
2710 -1751 -1847 0
2711 -1751 -1848 0
2712 -1751 -1849 0
2713 -1751 -1850 0
2714 -1751 -1851 0
2709 -1752 0
2710 -1752 -1846 0
2711 -1752 -1847 0
2712 -1752 -1848 0
2713 -1752 -1849 0
2714 -1752 -1850 0
2710 -1753 0
2711 -1753 -1846 0
2712 -1753 -1847 0
2713 -1753 -1848 0
2714 -1753 -1849 0
2711 -1754 0
2712 -1754 -1846 0
2713 -1754 -1847 0
2714 -1754 -1848 0
2712 -1755 0
2713 -1755 -1846 0
2714 -1755 -1847 0
2713 -1756 0
2714 -1756 -1846 0
2714 -1757 0
2715 -2052 0
2716 -2053 0
2717 -2054 0
2718 -2055 0
2719 -2056 0
2720 -2057 0
2721 -2058 0
2722 -2059 0
2723 -2060 0
2724 -2061 0
2725 -2062 0
2726 -2063 0
2727 -2064 0
2728 -2065 0
2729 -2066 0
2715 -1949 0
2716 -1949 -2052 0
2717 -1949 -2053 0
2718 -1949 -2054 0
2719 -1949 -2055 0
2720 -1949 -2056 0
2721 -1949 -2057 0
2722 -1949 -2058 0
2723 -1949 -2059 0
2724 -1949 -2060 0
2725 -1949 -2061 0
2726 -1949 -2062 0
2727 -1949 -2063 0
2728 -1949 -2064 0
2729 -1949 -2065 0
2716 -1950 0
2717 -1950 -2052 0
2718 -1950 -2053 0
2719 -1950 -2054 0
2720 -1950 -2055 0
2721 -1950 -2056 0
2722 -1950 -2057 0
2723 -1950 -2058 0
2724 -1950 -2059 0
2725 -1950 -2060 0
2726 -1950 -2061 0
2727 -1950 -2062 0
2728 -1950 -2063 0
2729 -1950 -2064 0
2717 -1951 0
2718 -1951 -2052 0
2719 -1951 -2053 0
2720 -1951 -2054 0
2721 -1951 -2055 0
2722 -1951 -2056 0
2723 -1951 -2057 0
2724 -1951 -2058 0
2725 -1951 -2059 0
2726 -1951 -2060 0
2727 -1951 -2061 0
2728 -1951 -2062 0
2729 -1951 -2063 0
2718 -1952 0
2719 -1952 -2052 0
2720 -1952 -2053 0
2721 -1952 -2054 0
2722 -1952 -2055 0
2723 -1952 -2056 0
2724 -1952 -2057 0
2725 -1952 -2058 0
2726 -1952 -2059 0
2727 -1952 -2060 0
2728 -1952 -2061 0
2729 -1952 -2062 0
2719 -1953 0
2720 -1953 -2052 0
2721 -1953 -2053 0
2722 -1953 -2054 0
2723 -1953 -2055 0
2724 -1953 -2056 0
2725 -1953 -2057 0
2726 -1953 -2058 0
2727 -1953 -2059 0
2728 -1953 -2060 0
2729 -1953 -2061 0
2720 -1954 0
2721 -1954 -2052 0
2722 -1954 -2053 0
2723 -1954 -2054 0
2724 -1954 -2055 0
2725 -1954 -2056 0
2726 -1954 -2057 0
2727 -1954 -2058 0
2728 -1954 -2059 0
2729 -1954 -2060 0
2721 -1955 0
2722 -1955 -2052 0
2723 -1955 -2053 0
2724 -1955 -2054 0
2725 -1955 -2055 0
2726 -1955 -2056 0
2727 -1955 -2057 0
2728 -1955 -2058 0
2729 -1955 -2059 0
2722 -1956 0
2723 -1956 -2052 0
2724 -1956 -2053 0
2725 -1956 -2054 0
2726 -1956 -2055 0
2727 -1956 -2056 0
2728 -1956 -2057 0
2729 -1956 -2058 0
2723 -1957 0
2724 -1957 -2052 0
2725 -1957 -2053 0
2726 -1957 -2054 0
2727 -1957 -2055 0
2728 -1957 -2056 0
2729 -1957 -2057 0
2724 -1958 0
2725 -1958 -2052 0
2726 -1958 -2053 0
2727 -1958 -2054 0
2728 -1958 -2055 0
2729 -1958 -2056 0
2725 -1959 0
2726 -1959 -2052 0
2727 -1959 -2053 0
2728 -1959 -2054 0
2729 -1959 -2055 0
2726 -1960 0
2727 -1960 -2052 0
2728 -1960 -2053 0
2729 -1960 -2054 0
2727 -1961 0
2728 -1961 -2052 0
2729 -1961 -2053 0
2728 -1962 0
2729 -1962 -2052 0
2729 -1963 0
2730 -2258 0
2731 -2259 0
2732 -2260 0
2733 -2261 0
2734 -2262 0
2735 -2263 0
2736 -2264 0
2737 -2265 0
2738 -2266 0
2739 -2267 0
2740 -2268 0
2741 -2269 0
2742 -2270 0
2743 -2271 0
2744 -2272 0
2730 -2155 0
2731 -2155 -2258 0
2732 -2155 -2259 0
2733 -2155 -2260 0
2734 -2155 -2261 0
2735 -2155 -2262 0
2736 -2155 -2263 0
2737 -2155 -2264 0
2738 -2155 -2265 0
2739 -2155 -2266 0
2740 -2155 -2267 0
2741 -2155 -2268 0
2742 -2155 -2269 0
2743 -2155 -2270 0
2744 -2155 -2271 0
2731 -2156 0
2732 -2156 -2258 0
2733 -2156 -2259 0
2734 -2156 -2260 0
2735 -2156 -2261 0
2736 -2156 -2262 0
2737 -2156 -2263 0
2738 -2156 -2264 0
2739 -2156 -2265 0
2740 -2156 -2266 0
2741 -2156 -2267 0
2742 -2156 -2268 0
2743 -2156 -2269 0
2744 -2156 -2270 0
2732 -2157 0
2733 -2157 -2258 0
2734 -2157 -2259 0
2735 -2157 -2260 0
2736 -2157 -2261 0
2737 -2157 -2262 0
2738 -2157 -2263 0
2739 -2157 -2264 0
2740 -2157 -2265 0
2741 -2157 -2266 0
2742 -2157 -2267 0
2743 -2157 -2268 0
2744 -2157 -2269 0
2733 -2158 0
2734 -2158 -2258 0
2735 -2158 -2259 0
2736 -2158 -2260 0
2737 -2158 -2261 0
2738 -2158 -2262 0
2739 -2158 -2263 0
2740 -2158 -2264 0
2741 -2158 -2265 0
2742 -2158 -2266 0
2743 -2158 -2267 0
2744 -2158 -2268 0
2734 -2159 0
2735 -2159 -2258 0
2736 -2159 -2259 0
2737 -2159 -2260 0
2738 -2159 -2261 0
2739 -2159 -2262 0
2740 -2159 -2263 0
2741 -2159 -2264 0
2742 -2159 -2265 0
2743 -2159 -2266 0
2744 -2159 -2267 0
2735 -2160 0
2736 -2160 -2258 0
2737 -2160 -2259 0
2738 -2160 -2260 0
2739 -2160 -2261 0
2740 -2160 -2262 0
2741 -2160 -2263 0
2742 -2160 -2264 0
2743 -2160 -2265 0
2744 -2160 -2266 0
2736 -2161 0
2737 -2161 -2258 0
2738 -2161 -2259 0
2739 -2161 -2260 0
2740 -2161 -2261 0
2741 -2161 -2262 0
2742 -2161 -2263 0
2743 -2161 -2264 0
2744 -2161 -2265 0
2737 -2162 0
2738 -2162 -2258 0
2739 -2162 -2259 0
2740 -2162 -2260 0
2741 -2162 -2261 0
2742 -2162 -2262 0
2743 -2162 -2263 0
2744 -2162 -2264 0
2738 -2163 0
2739 -2163 -2258 0
2740 -2163 -2259 0
2741 -2163 -2260 0
2742 -2163 -2261 0
2743 -2163 -2262 0
2744 -2163 -2263 0
2739 -2164 0
2740 -2164 -2258 0
2741 -2164 -2259 0
2742 -2164 -2260 0
2743 -2164 -2261 0
2744 -2164 -2262 0
2740 -2165 0
2741 -2165 -2258 0
2742 -2165 -2259 0
2743 -2165 -2260 0
2744 -2165 -2261 0
2741 -2166 0
2742 -2166 -2258 0
2743 -2166 -2259 0
2744 -2166 -2260 0
2742 -2167 0
2743 -2167 -2258 0
2744 -2167 -2259 0
2743 -2168 0
2744 -2168 -2258 0
2744 -2169 0
2745 -2464 0
2746 -2465 0
2747 -2466 0
2748 -2467 0
2749 -2468 0
2750 -2469 0
2751 -2470 0
2752 -2471 0
2753 -2472 0
2754 -2473 0
2755 -2474 0
2756 -2475 0
2757 -2476 0
2758 -2477 0
2759 -2478 0
2745 -2361 0
2746 -2361 -2464 0
2747 -2361 -2465 0
2748 -2361 -2466 0
2749 -2361 -2467 0
2750 -2361 -2468 0
2751 -2361 -2469 0
2752 -2361 -2470 0
2753 -2361 -2471 0
2754 -2361 -2472 0
2755 -2361 -2473 0
2756 -2361 -2474 0
2757 -2361 -2475 0
2758 -2361 -2476 0
2759 -2361 -2477 0
2746 -2362 0
2747 -2362 -2464 0
2748 -2362 -2465 0
2749 -2362 -2466 0
2750 -2362 -2467 0
2751 -2362 -2468 0
2752 -2362 -2469 0
2753 -2362 -2470 0
2754 -2362 -2471 0
2755 -2362 -2472 0
2756 -2362 -2473 0
2757 -2362 -2474 0
2758 -2362 -2475 0
2759 -2362 -2476 0
2747 -2363 0
2748 -2363 -2464 0
2749 -2363 -2465 0
2750 -2363 -2466 0
2751 -2363 -2467 0
2752 -2363 -2468 0
2753 -2363 -2469 0
2754 -2363 -2470 0
2755 -2363 -2471 0
2756 -2363 -2472 0
2757 -2363 -2473 0
2758 -2363 -2474 0
2759 -2363 -2475 0
2748 -2364 0
2749 -2364 -2464 0
2750 -2364 -2465 0
2751 -2364 -2466 0
2752 -2364 -2467 0
2753 -2364 -2468 0
2754 -2364 -2469 0
2755 -2364 -2470 0
2756 -2364 -2471 0
2757 -2364 -2472 0
2758 -2364 -2473 0
2759 -2364 -2474 0
2749 -2365 0
2750 -2365 -2464 0
2751 -2365 -2465 0
2752 -2365 -2466 0
2753 -2365 -2467 0
2754 -2365 -2468 0
2755 -2365 -2469 0
2756 -2365 -2470 0
2757 -2365 -2471 0
2758 -2365 -2472 0
2759 -2365 -2473 0
2750 -2366 0
2751 -2366 -2464 0
2752 -2366 -2465 0
2753 -2366 -2466 0
2754 -2366 -2467 0
2755 -2366 -2468 0
2756 -2366 -2469 0
2757 -2366 -2470 0
2758 -2366 -2471 0
2759 -2366 -2472 0
2751 -2367 0
2752 -2367 -2464 0
2753 -2367 -2465 0
2754 -2367 -2466 0
2755 -2367 -2467 0
2756 -2367 -2468 0
2757 -2367 -2469 0
2758 -2367 -2470 0
2759 -2367 -2471 0
2752 -2368 0
2753 -2368 -2464 0
2754 -2368 -2465 0
2755 -2368 -2466 0
2756 -2368 -2467 0
2757 -2368 -2468 0
2758 -2368 -2469 0
2759 -2368 -2470 0
2753 -2369 0
2754 -2369 -2464 0
2755 -2369 -2465 0
2756 -2369 -2466 0
2757 -2369 -2467 0
2758 -2369 -2468 0
2759 -2369 -2469 0
2754 -2370 0
2755 -2370 -2464 0
2756 -2370 -2465 0
2757 -2370 -2466 0
2758 -2370 -2467 0
2759 -2370 -2468 0
2755 -2371 0
2756 -2371 -2464 0
2757 -2371 -2465 0
2758 -2371 -2466 0
2759 -2371 -2467 0
2756 -2372 0
2757 -2372 -2464 0
2758 -2372 -2465 0
2759 -2372 -2466 0
2757 -2373 0
2758 -2373 -2464 0
2759 -2373 -2465 0
2758 -2374 0
2759 -2374 -2464 0
2759 -2375 0
2760 -2670 0
2761 -2671 0
2762 -2672 0
2763 -2673 0
2764 -2674 0
2765 -2675 0
2766 -2676 0
2767 -2677 0
2768 -2678 0
2769 -2679 0
2770 -2680 0
2771 -2681 0
2772 -2682 0
2773 -2683 0
2774 -2684 0
2760 -2567 0
2761 -2567 -2670 0
2762 -2567 -2671 0
2763 -2567 -2672 0
2764 -2567 -2673 0
2765 -2567 -2674 0
2766 -2567 -2675 0
2767 -2567 -2676 0
2768 -2567 -2677 0
2769 -2567 -2678 0
2770 -2567 -2679 0
2771 -2567 -2680 0
2772 -2567 -2681 0
2773 -2567 -2682 0
2774 -2567 -2683 0
2761 -2568 0
2762 -2568 -2670 0
2763 -2568 -2671 0
2764 -2568 -2672 0
2765 -2568 -2673 0
2766 -2568 -2674 0
2767 -2568 -2675 0
2768 -2568 -2676 0
2769 -2568 -2677 0
2770 -2568 -2678 0
2771 -2568 -2679 0
2772 -2568 -2680 0
2773 -2568 -2681 0
2774 -2568 -2682 0
2762 -2569 0
2763 -2569 -2670 0
2764 -2569 -2671 0
2765 -2569 -2672 0
2766 -2569 -2673 0
2767 -2569 -2674 0
2768 -2569 -2675 0
2769 -2569 -2676 0
2770 -2569 -2677 0
2771 -2569 -2678 0
2772 -2569 -2679 0
2773 -2569 -2680 0
2774 -2569 -2681 0
2763 -2570 0
2764 -2570 -2670 0
2765 -2570 -2671 0
2766 -2570 -2672 0
2767 -2570 -2673 0
2768 -2570 -2674 0
2769 -2570 -2675 0
2770 -2570 -2676 0
2771 -2570 -2677 0
2772 -2570 -2678 0
2773 -2570 -2679 0
2774 -2570 -2680 0
2764 -2571 0
2765 -2571 -2670 0
2766 -2571 -2671 0
2767 -2571 -2672 0
2768 -2571 -2673 0
2769 -2571 -2674 0
2770 -2571 -2675 0
2771 -2571 -2676 0
2772 -2571 -2677 0
2773 -2571 -2678 0
2774 -2571 -2679 0
2765 -2572 0
2766 -2572 -2670 0
2767 -2572 -2671 0
2768 -2572 -2672 0
2769 -2572 -2673 0
2770 -2572 -2674 0
2771 -2572 -2675 0
2772 -2572 -2676 0
2773 -2572 -2677 0
2774 -2572 -2678 0
2766 -2573 0
2767 -2573 -2670 0
2768 -2573 -2671 0
2769 -2573 -2672 0
2770 -2573 -2673 0
2771 -2573 -2674 0
2772 -2573 -2675 0
2773 -2573 -2676 0
2774 -2573 -2677 0
2767 -2574 0
2768 -2574 -2670 0
2769 -2574 -2671 0
2770 -2574 -2672 0
2771 -2574 -2673 0
2772 -2574 -2674 0
2773 -2574 -2675 0
2774 -2574 -2676 0
2768 -2575 0
2769 -2575 -2670 0
2770 -2575 -2671 0
2771 -2575 -2672 0
2772 -2575 -2673 0
2773 -2575 -2674 0
2774 -2575 -2675 0
2769 -2576 0
2770 -2576 -2670 0
2771 -2576 -2671 0
2772 -2576 -2672 0
2773 -2576 -2673 0
2774 -2576 -2674 0
2770 -2577 0
2771 -2577 -2670 0
2772 -2577 -2671 0
2773 -2577 -2672 0
2774 -2577 -2673 0
2771 -2578 0
2772 -2578 -2670 0
2773 -2578 -2671 0
2774 -2578 -2672 0
2772 -2579 0
2773 -2579 -2670 0
2774 -2579 -2671 0
2773 -2580 0
2774 -2580 -2670 0
2774 -2581 0
2775 -2700 0
2776 -2701 0
2777 -2702 0
2778 -2703 0
2779 -2704 0
2780 -2705 0
2781 -2706 0
2782 -2707 0
2783 -2708 0
2784 -2709 0
2785 -2710 0
2786 -2711 0
2787 -2712 0
2788 -2713 0
2789 -2714 0
2775 -2685 0
2776 -2685 -2700 0
2777 -2685 -2701 0
2778 -2685 -2702 0
2779 -2685 -2703 0
2780 -2685 -2704 0
2781 -2685 -2705 0
2782 -2685 -2706 0
2783 -2685 -2707 0
2784 -2685 -2708 0
2785 -2685 -2709 0
2786 -2685 -2710 0
2787 -2685 -2711 0
2788 -2685 -2712 0
2789 -2685 -2713 0
2776 -2686 0
2777 -2686 -2700 0
2778 -2686 -2701 0
2779 -2686 -2702 0
2780 -2686 -2703 0
2781 -2686 -2704 0
2782 -2686 -2705 0
2783 -2686 -2706 0
2784 -2686 -2707 0
2785 -2686 -2708 0
2786 -2686 -2709 0
2787 -2686 -2710 0
2788 -2686 -2711 0
2789 -2686 -2712 0
2777 -2687 0
2778 -2687 -2700 0
2779 -2687 -2701 0
2780 -2687 -2702 0
2781 -2687 -2703 0
2782 -2687 -2704 0
2783 -2687 -2705 0
2784 -2687 -2706 0
2785 -2687 -2707 0
2786 -2687 -2708 0
2787 -2687 -2709 0
2788 -2687 -2710 0
2789 -2687 -2711 0
2778 -2688 0
2779 -2688 -2700 0
2780 -2688 -2701 0
2781 -2688 -2702 0
2782 -2688 -2703 0
2783 -2688 -2704 0
2784 -2688 -2705 0
2785 -2688 -2706 0
2786 -2688 -2707 0
2787 -2688 -2708 0
2788 -2688 -2709 0
2789 -2688 -2710 0
2779 -2689 0
2780 -2689 -2700 0
2781 -2689 -2701 0
2782 -2689 -2702 0
2783 -2689 -2703 0
2784 -2689 -2704 0
2785 -2689 -2705 0
2786 -2689 -2706 0
2787 -2689 -2707 0
2788 -2689 -2708 0
2789 -2689 -2709 0
2780 -2690 0
2781 -2690 -2700 0
2782 -2690 -2701 0
2783 -2690 -2702 0
2784 -2690 -2703 0
2785 -2690 -2704 0
2786 -2690 -2705 0
2787 -2690 -2706 0
2788 -2690 -2707 0
2789 -2690 -2708 0
2781 -2691 0
2782 -2691 -2700 0
2783 -2691 -2701 0
2784 -2691 -2702 0
2785 -2691 -2703 0
2786 -2691 -2704 0
2787 -2691 -2705 0
2788 -2691 -2706 0
2789 -2691 -2707 0
2782 -2692 0
2783 -2692 -2700 0
2784 -2692 -2701 0
2785 -2692 -2702 0
2786 -2692 -2703 0
2787 -2692 -2704 0
2788 -2692 -2705 0
2789 -2692 -2706 0
2783 -2693 0
2784 -2693 -2700 0
2785 -2693 -2701 0
2786 -2693 -2702 0
2787 -2693 -2703 0
2788 -2693 -2704 0
2789 -2693 -2705 0
2784 -2694 0
2785 -2694 -2700 0
2786 -2694 -2701 0
2787 -2694 -2702 0
2788 -2694 -2703 0
2789 -2694 -2704 0
2785 -2695 0
2786 -2695 -2700 0
2787 -2695 -2701 0
2788 -2695 -2702 0
2789 -2695 -2703 0
2786 -2696 0
2787 -2696 -2700 0
2788 -2696 -2701 0
2789 -2696 -2702 0
2787 -2697 0
2788 -2697 -2700 0
2789 -2697 -2701 0
2788 -2698 0
2789 -2698 -2700 0
2789 -2699 0
2790 -2730 0
2791 -2731 0
2792 -2732 0
2793 -2733 0
2794 -2734 0
2795 -2735 0
2796 -2736 0
2797 -2737 0
2798 -2738 0
2799 -2739 0
2800 -2740 0
2801 -2741 0
2802 -2742 0
2803 -2743 0
2804 -2744 0
2790 -2715 0
2791 -2715 -2730 0
2792 -2715 -2731 0
2793 -2715 -2732 0
2794 -2715 -2733 0
2795 -2715 -2734 0
2796 -2715 -2735 0
2797 -2715 -2736 0
2798 -2715 -2737 0
2799 -2715 -2738 0
2800 -2715 -2739 0
2801 -2715 -2740 0
2802 -2715 -2741 0
2803 -2715 -2742 0
2804 -2715 -2743 0
2791 -2716 0
2792 -2716 -2730 0
2793 -2716 -2731 0
2794 -2716 -2732 0
2795 -2716 -2733 0
2796 -2716 -2734 0
2797 -2716 -2735 0
2798 -2716 -2736 0
2799 -2716 -2737 0
2800 -2716 -2738 0
2801 -2716 -2739 0
2802 -2716 -2740 0
2803 -2716 -2741 0
2804 -2716 -2742 0
2792 -2717 0
2793 -2717 -2730 0
2794 -2717 -2731 0
2795 -2717 -2732 0
2796 -2717 -2733 0
2797 -2717 -2734 0
2798 -2717 -2735 0
2799 -2717 -2736 0
2800 -2717 -2737 0
2801 -2717 -2738 0
2802 -2717 -2739 0
2803 -2717 -2740 0
2804 -2717 -2741 0
2793 -2718 0
2794 -2718 -2730 0
2795 -2718 -2731 0
2796 -2718 -2732 0
2797 -2718 -2733 0
2798 -2718 -2734 0
2799 -2718 -2735 0
2800 -2718 -2736 0
2801 -2718 -2737 0
2802 -2718 -2738 0
2803 -2718 -2739 0
2804 -2718 -2740 0
2794 -2719 0
2795 -2719 -2730 0
2796 -2719 -2731 0
2797 -2719 -2732 0
2798 -2719 -2733 0
2799 -2719 -2734 0
2800 -2719 -2735 0
2801 -2719 -2736 0
2802 -2719 -2737 0
2803 -2719 -2738 0
2804 -2719 -2739 0
2795 -2720 0
2796 -2720 -2730 0
2797 -2720 -2731 0
2798 -2720 -2732 0
2799 -2720 -2733 0
2800 -2720 -2734 0
2801 -2720 -2735 0
2802 -2720 -2736 0
2803 -2720 -2737 0
2804 -2720 -2738 0
2796 -2721 0
2797 -2721 -2730 0
2798 -2721 -2731 0
2799 -2721 -2732 0
2800 -2721 -2733 0
2801 -2721 -2734 0
2802 -2721 -2735 0
2803 -2721 -2736 0
2804 -2721 -2737 0
2797 -2722 0
2798 -2722 -2730 0
2799 -2722 -2731 0
2800 -2722 -2732 0
2801 -2722 -2733 0
2802 -2722 -2734 0
2803 -2722 -2735 0
2804 -2722 -2736 0
2798 -2723 0
2799 -2723 -2730 0
2800 -2723 -2731 0
2801 -2723 -2732 0
2802 -2723 -2733 0
2803 -2723 -2734 0
2804 -2723 -2735 0
2799 -2724 0
2800 -2724 -2730 0
2801 -2724 -2731 0
2802 -2724 -2732 0
2803 -2724 -2733 0
2804 -2724 -2734 0
2800 -2725 0
2801 -2725 -2730 0
2802 -2725 -2731 0
2803 -2725 -2732 0
2804 -2725 -2733 0
2801 -2726 0
2802 -2726 -2730 0
2803 -2726 -2731 0
2804 -2726 -2732 0
2802 -2727 0
2803 -2727 -2730 0
2804 -2727 -2731 0
2803 -2728 0
2804 -2728 -2730 0
2804 -2729 0
2805 -2760 0
2806 -2761 0
2807 -2762 0
2808 -2763 0
2809 -2764 0
2810 -2765 0
2811 -2766 0
2812 -2767 0
2813 -2768 0
2814 -2769 0
2815 -2770 0
2816 -2771 0
2817 -2772 0
2818 -2773 0
2819 -2774 0
2805 -2745 0
2806 -2745 -2760 0
2807 -2745 -2761 0
2808 -2745 -2762 0
2809 -2745 -2763 0
2810 -2745 -2764 0
2811 -2745 -2765 0
2812 -2745 -2766 0
2813 -2745 -2767 0
2814 -2745 -2768 0
2815 -2745 -2769 0
2816 -2745 -2770 0
2817 -2745 -2771 0
2818 -2745 -2772 0
2819 -2745 -2773 0
2806 -2746 0
2807 -2746 -2760 0
2808 -2746 -2761 0
2809 -2746 -2762 0
2810 -2746 -2763 0
2811 -2746 -2764 0
2812 -2746 -2765 0
2813 -2746 -2766 0
2814 -2746 -2767 0
2815 -2746 -2768 0
2816 -2746 -2769 0
2817 -2746 -2770 0
2818 -2746 -2771 0
2819 -2746 -2772 0
2807 -2747 0
2808 -2747 -2760 0
2809 -2747 -2761 0
2810 -2747 -2762 0
2811 -2747 -2763 0
2812 -2747 -2764 0
2813 -2747 -2765 0
2814 -2747 -2766 0
2815 -2747 -2767 0
2816 -2747 -2768 0
2817 -2747 -2769 0
2818 -2747 -2770 0
2819 -2747 -2771 0
2808 -2748 0
2809 -2748 -2760 0
2810 -2748 -2761 0
2811 -2748 -2762 0
2812 -2748 -2763 0
2813 -2748 -2764 0
2814 -2748 -2765 0
2815 -2748 -2766 0
2816 -2748 -2767 0
2817 -2748 -2768 0
2818 -2748 -2769 0
2819 -2748 -2770 0
2809 -2749 0
2810 -2749 -2760 0
2811 -2749 -2761 0
2812 -2749 -2762 0
2813 -2749 -2763 0
2814 -2749 -2764 0
2815 -2749 -2765 0
2816 -2749 -2766 0
2817 -2749 -2767 0
2818 -2749 -2768 0
2819 -2749 -2769 0
2810 -2750 0
2811 -2750 -2760 0
2812 -2750 -2761 0
2813 -2750 -2762 0
2814 -2750 -2763 0
2815 -2750 -2764 0
2816 -2750 -2765 0
2817 -2750 -2766 0
2818 -2750 -2767 0
2819 -2750 -2768 0
2811 -2751 0
2812 -2751 -2760 0
2813 -2751 -2761 0
2814 -2751 -2762 0
2815 -2751 -2763 0
2816 -2751 -2764 0
2817 -2751 -2765 0
2818 -2751 -2766 0
2819 -2751 -2767 0
2812 -2752 0
2813 -2752 -2760 0
2814 -2752 -2761 0
2815 -2752 -2762 0
2816 -2752 -2763 0
2817 -2752 -2764 0
2818 -2752 -2765 0
2819 -2752 -2766 0
2813 -2753 0
2814 -2753 -2760 0
2815 -2753 -2761 0
2816 -2753 -2762 0
2817 -2753 -2763 0
2818 -2753 -2764 0
2819 -2753 -2765 0
2814 -2754 0
2815 -2754 -2760 0
2816 -2754 -2761 0
2817 -2754 -2762 0
2818 -2754 -2763 0
2819 -2754 -2764 0
2815 -2755 0
2816 -2755 -2760 0
2817 -2755 -2761 0
2818 -2755 -2762 0
2819 -2755 -2763 0
2816 -2756 0
2817 -2756 -2760 0
2818 -2756 -2761 0
2819 -2756 -2762 0
2817 -2757 0
2818 -2757 -2760 0
2819 -2757 -2761 0
2818 -2758 0
2819 -2758 -2760 0
2819 -2759 0
2820 -2790 0
2821 -2791 0
2822 -2792 0
2823 -2793 0
2824 -2794 0
2825 -2795 0
2826 -2796 0
2827 -2797 0
2828 -2798 0
2829 -2799 0
2830 -2800 0
2831 -2801 0
2832 -2802 0
2833 -2803 0
2834 -2804 0
2820 -2775 0
2821 -2775 -2790 0
2822 -2775 -2791 0
2823 -2775 -2792 0
2824 -2775 -2793 0
2825 -2775 -2794 0
2826 -2775 -2795 0
2827 -2775 -2796 0
2828 -2775 -2797 0
2829 -2775 -2798 0
2830 -2775 -2799 0
2831 -2775 -2800 0
2832 -2775 -2801 0
2833 -2775 -2802 0
2834 -2775 -2803 0
2821 -2776 0
2822 -2776 -2790 0
2823 -2776 -2791 0
2824 -2776 -2792 0
2825 -2776 -2793 0
2826 -2776 -2794 0
2827 -2776 -2795 0
2828 -2776 -2796 0
2829 -2776 -2797 0
2830 -2776 -2798 0
2831 -2776 -2799 0
2832 -2776 -2800 0
2833 -2776 -2801 0
2834 -2776 -2802 0
2822 -2777 0
2823 -2777 -2790 0
2824 -2777 -2791 0
2825 -2777 -2792 0
2826 -2777 -2793 0
2827 -2777 -2794 0
2828 -2777 -2795 0
2829 -2777 -2796 0
2830 -2777 -2797 0
2831 -2777 -2798 0
2832 -2777 -2799 0
2833 -2777 -2800 0
2834 -2777 -2801 0
2823 -2778 0
2824 -2778 -2790 0
2825 -2778 -2791 0
2826 -2778 -2792 0
2827 -2778 -2793 0
2828 -2778 -2794 0
2829 -2778 -2795 0
2830 -2778 -2796 0
2831 -2778 -2797 0
2832 -2778 -2798 0
2833 -2778 -2799 0
2834 -2778 -2800 0
2824 -2779 0
2825 -2779 -2790 0
2826 -2779 -2791 0
2827 -2779 -2792 0
2828 -2779 -2793 0
2829 -2779 -2794 0
2830 -2779 -2795 0
2831 -2779 -2796 0
2832 -2779 -2797 0
2833 -2779 -2798 0
2834 -2779 -2799 0
2825 -2780 0
2826 -2780 -2790 0
2827 -2780 -2791 0
2828 -2780 -2792 0
2829 -2780 -2793 0
2830 -2780 -2794 0
2831 -2780 -2795 0
2832 -2780 -2796 0
2833 -2780 -2797 0
2834 -2780 -2798 0
2826 -2781 0
2827 -2781 -2790 0
2828 -2781 -2791 0
2829 -2781 -2792 0
2830 -2781 -2793 0
2831 -2781 -2794 0
2832 -2781 -2795 0
2833 -2781 -2796 0
2834 -2781 -2797 0
2827 -2782 0
2828 -2782 -2790 0
2829 -2782 -2791 0
2830 -2782 -2792 0
2831 -2782 -2793 0
2832 -2782 -2794 0
2833 -2782 -2795 0
2834 -2782 -2796 0
2828 -2783 0
2829 -2783 -2790 0
2830 -2783 -2791 0
2831 -2783 -2792 0
2832 -2783 -2793 0
2833 -2783 -2794 0
2834 -2783 -2795 0
2829 -2784 0
2830 -2784 -2790 0
2831 -2784 -2791 0
2832 -2784 -2792 0
2833 -2784 -2793 0
2834 -2784 -2794 0
2830 -2785 0
2831 -2785 -2790 0
2832 -2785 -2791 0
2833 -2785 -2792 0
2834 -2785 -2793 0
2831 -2786 0
2832 -2786 -2790 0
2833 -2786 -2791 0
2834 -2786 -2792 0
2832 -2787 0
2833 -2787 -2790 0
2834 -2787 -2791 0
2833 -2788 0
2834 -2788 -2790 0
2834 -2789 0
2835 -2805 0
2836 -2806 0
2837 -2807 0
2838 -2808 0
2839 -2809 0
2840 -2810 0
2841 -2811 0
2842 -2812 0
2843 -2813 0
2844 -2814 0
2845 -2815 0
2846 -2816 0
2847 -2817 0
2848 -2818 0
2849 -2819 0
2835 -2820 0
2836 -2820 -2805 0
2837 -2820 -2806 0
2838 -2820 -2807 0
2839 -2820 -2808 0
2840 -2820 -2809 0
2841 -2820 -2810 0
2842 -2820 -2811 0
2843 -2820 -2812 0
2844 -2820 -2813 0
2845 -2820 -2814 0
2846 -2820 -2815 0
2847 -2820 -2816 0
2848 -2820 -2817 0
2849 -2820 -2818 0
2836 -2821 0
2837 -2821 -2805 0
2838 -2821 -2806 0
2839 -2821 -2807 0
2840 -2821 -2808 0
2841 -2821 -2809 0
2842 -2821 -2810 0
2843 -2821 -2811 0
2844 -2821 -2812 0
2845 -2821 -2813 0
2846 -2821 -2814 0
2847 -2821 -2815 0
2848 -2821 -2816 0
2849 -2821 -2817 0
2837 -2822 0
2838 -2822 -2805 0
2839 -2822 -2806 0
2840 -2822 -2807 0
2841 -2822 -2808 0
2842 -2822 -2809 0
2843 -2822 -2810 0
2844 -2822 -2811 0
2845 -2822 -2812 0
2846 -2822 -2813 0
2847 -2822 -2814 0
2848 -2822 -2815 0
2849 -2822 -2816 0
2838 -2823 0
2839 -2823 -2805 0
2840 -2823 -2806 0
2841 -2823 -2807 0
2842 -2823 -2808 0
2843 -2823 -2809 0
2844 -2823 -2810 0
2845 -2823 -2811 0
2846 -2823 -2812 0
2847 -2823 -2813 0
2848 -2823 -2814 0
2849 -2823 -2815 0
2839 -2824 0
2840 -2824 -2805 0
2841 -2824 -2806 0
2842 -2824 -2807 0
2843 -2824 -2808 0
2844 -2824 -2809 0
2845 -2824 -2810 0
2846 -2824 -2811 0
2847 -2824 -2812 0
2848 -2824 -2813 0
2849 -2824 -2814 0
2840 -2825 0
2841 -2825 -2805 0
2842 -2825 -2806 0
2843 -2825 -2807 0
2844 -2825 -2808 0
2845 -2825 -2809 0
2846 -2825 -2810 0
2847 -2825 -2811 0
2848 -2825 -2812 0
2849 -2825 -2813 0
2841 -2826 0
2842 -2826 -2805 0
2843 -2826 -2806 0
2844 -2826 -2807 0
2845 -2826 -2808 0
2846 -2826 -2809 0
2847 -2826 -2810 0
2848 -2826 -2811 0
2849 -2826 -2812 0
2842 -2827 0
2843 -2827 -2805 0
2844 -2827 -2806 0
2845 -2827 -2807 0
2846 -2827 -2808 0
2847 -2827 -2809 0
2848 -2827 -2810 0
2849 -2827 -2811 0
2843 -2828 0
2844 -2828 -2805 0
2845 -2828 -2806 0
2846 -2828 -2807 0
2847 -2828 -2808 0
2848 -2828 -2809 0
2849 -2828 -2810 0
2844 -2829 0
2845 -2829 -2805 0
2846 -2829 -2806 0
2847 -2829 -2807 0
2848 -2829 -2808 0
2849 -2829 -2809 0
2845 -2830 0
2846 -2830 -2805 0
2847 -2830 -2806 0
2848 -2830 -2807 0
2849 -2830 -2808 0
2846 -2831 0
2847 -2831 -2805 0
2848 -2831 -2806 0
2849 -2831 -2807 0
2847 -2832 0
2848 -2832 -2805 0
2849 -2832 -2806 0
2848 -2833 0
2849 -2833 -2805 0
2849 -2834 0
-2849 0
1537 -1640 0
-2850 -1537 1640 0
-2850 1537 -1640 0
2850 1537 1640 0
2850 -1537 -1640 0
-2850 1538 -1641 0
-2851 2850 0
-2851 -1538 1641 0
-2851 1538 -1641 0
2851 -2850 1538 1641 0
2851 -2850 -1538 -1641 0
-2851 1539 -1642 0
-2852 2851 0
-2852 -1539 1642 0
-2852 1539 -1642 0
2852 -2851 1539 1642 0
2852 -2851 -1539 -1642 0
-2852 1540 -1643 0
-2853 2852 0
-2853 -1540 1643 0
-2853 1540 -1643 0
2853 -2852 1540 1643 0
2853 -2852 -1540 -1643 0
-2853 1541 -1644 0
-2854 2853 0
-2854 -1541 1644 0
-2854 1541 -1644 0
2854 -2853 1541 1644 0
2854 -2853 -1541 -1644 0
-2854 1542 -1645 0
-2855 2854 0
-2855 -1542 1645 0
-2855 1542 -1645 0
2855 -2854 1542 1645 0
2855 -2854 -1542 -1645 0
-2855 1543 -1646 0
-2856 2855 0
-2856 -1543 1646 0
-2856 1543 -1646 0
2856 -2855 1543 1646 0
2856 -2855 -1543 -1646 0
-2856 1544 -1647 0
-2857 2856 0
-2857 -1544 1647 0
-2857 1544 -1647 0
2857 -2856 1544 1647 0
2857 -2856 -1544 -1647 0
-2857 1545 -1648 0
-2858 2857 0
-2858 -1545 1648 0
-2858 1545 -1648 0
2858 -2857 1545 1648 0
2858 -2857 -1545 -1648 0
-2858 1546 -1649 0
-2859 2858 0
-2859 -1546 1649 0
-2859 1546 -1649 0
2859 -2858 1546 1649 0
2859 -2858 -1546 -1649 0
-2859 1547 -1650 0
-2860 2859 0
-2860 -1547 1650 0
-2860 1547 -1650 0
2860 -2859 1547 1650 0
2860 -2859 -1547 -1650 0
-2860 1548 -1651 0
-2861 2860 0
-2861 -1548 1651 0
-2861 1548 -1651 0
2861 -2860 1548 1651 0
2861 -2860 -1548 -1651 0
-2861 1549 -1652 0
-2862 2861 0
-2862 -1549 1652 0
-2862 1549 -1652 0
2862 -2861 1549 1652 0
2862 -2861 -1549 -1652 0
-2862 1550 -1653 0
-2863 2862 0
-2863 -1550 1653 0
-2863 1550 -1653 0
2863 -2862 1550 1653 0
2863 -2862 -1550 -1653 0
-2863 1640 -1743 0
-2864 2863 0
-2864 -1640 1743 0
-2864 1640 -1743 0
2864 -2863 1640 1743 0
2864 -2863 -1640 -1743 0
-2864 1641 -1744 0
-2865 2864 0
-2865 -1641 1744 0
-2865 1641 -1744 0
2865 -2864 1641 1744 0
2865 -2864 -1641 -1744 0
-2865 1642 -1745 0
-2866 2865 0
-2866 -1642 1745 0
-2866 1642 -1745 0
2866 -2865 1642 1745 0
2866 -2865 -1642 -1745 0
-2866 1643 -1746 0
-2867 2866 0
-2867 -1643 1746 0
-2867 1643 -1746 0
2867 -2866 1643 1746 0
2867 -2866 -1643 -1746 0
-2867 1644 -1747 0
-2868 2867 0
-2868 -1644 1747 0
-2868 1644 -1747 0
2868 -2867 1644 1747 0
2868 -2867 -1644 -1747 0
-2868 1645 -1748 0
-2869 2868 0
-2869 -1645 1748 0
-2869 1645 -1748 0
2869 -2868 1645 1748 0
2869 -2868 -1645 -1748 0
-2869 1646 -1749 0
-2870 2869 0
-2870 -1646 1749 0
-2870 1646 -1749 0
2870 -2869 1646 1749 0
2870 -2869 -1646 -1749 0
-2870 1647 -1750 0
-2871 2870 0
-2871 -1647 1750 0
-2871 1647 -1750 0
2871 -2870 1647 1750 0
2871 -2870 -1647 -1750 0
-2871 1648 -1751 0
-2872 2871 0
-2872 -1648 1751 0
-2872 1648 -1751 0
2872 -2871 1648 1751 0
2872 -2871 -1648 -1751 0
-2872 1649 -1752 0
-2873 2872 0
-2873 -1649 1752 0
-2873 1649 -1752 0
2873 -2872 1649 1752 0
2873 -2872 -1649 -1752 0
-2873 1650 -1753 0
-2874 2873 0
-2874 -1650 1753 0
-2874 1650 -1753 0
2874 -2873 1650 1753 0
2874 -2873 -1650 -1753 0
-2874 1651 -1754 0
-2875 2874 0
-2875 -1651 1754 0
-2875 1651 -1754 0
2875 -2874 1651 1754 0
2875 -2874 -1651 -1754 0
-2875 1652 -1755 0
-2876 2875 0
-2876 -1652 1755 0
-2876 1652 -1755 0
2876 -2875 1652 1755 0
2876 -2875 -1652 -1755 0
-2876 1653 -1756 0
-2877 2876 0
-2877 -1653 1756 0
-2877 1653 -1756 0
2877 -2876 1653 1756 0
2877 -2876 -1653 -1756 0
-2877 1743 -1846 0
-2878 2877 0
-2878 -1743 1846 0
-2878 1743 -1846 0
2878 -2877 1743 1846 0
2878 -2877 -1743 -1846 0
-2878 1744 -1847 0
-2879 2878 0
-2879 -1744 1847 0
-2879 1744 -1847 0
2879 -2878 1744 1847 0
2879 -2878 -1744 -1847 0
-2879 1745 -1848 0
-2880 2879 0
-2880 -1745 1848 0
-2880 1745 -1848 0
2880 -2879 1745 1848 0
2880 -2879 -1745 -1848 0
-2880 1746 -1849 0
-2881 2880 0
-2881 -1746 1849 0
-2881 1746 -1849 0
2881 -2880 1746 1849 0
2881 -2880 -1746 -1849 0
-2881 1747 -1850 0
-2882 2881 0
-2882 -1747 1850 0
-2882 1747 -1850 0
2882 -2881 1747 1850 0
2882 -2881 -1747 -1850 0
-2882 1748 -1851 0
-2883 2882 0
-2883 -1748 1851 0
-2883 1748 -1851 0
2883 -2882 1748 1851 0
2883 -2882 -1748 -1851 0
-2883 1749 -1852 0
-2884 2883 0
-2884 -1749 1852 0
-2884 1749 -1852 0
2884 -2883 1749 1852 0
2884 -2883 -1749 -1852 0
-2884 1750 -1853 0
-2885 2884 0
-2885 -1750 1853 0
-2885 1750 -1853 0
2885 -2884 1750 1853 0
2885 -2884 -1750 -1853 0
-2885 1751 -1854 0
-2886 2885 0
-2886 -1751 1854 0
-2886 1751 -1854 0
2886 -2885 1751 1854 0
2886 -2885 -1751 -1854 0
-2886 1752 -1855 0
-2887 2886 0
-2887 -1752 1855 0
-2887 1752 -1855 0
2887 -2886 1752 1855 0
2887 -2886 -1752 -1855 0
-2887 1753 -1856 0
-2888 2887 0
-2888 -1753 1856 0
-2888 1753 -1856 0
2888 -2887 1753 1856 0
2888 -2887 -1753 -1856 0
-2888 1754 -1857 0
-2889 2888 0
-2889 -1754 1857 0
-2889 1754 -1857 0
2889 -2888 1754 1857 0
2889 -2888 -1754 -1857 0
-2889 1755 -1858 0
-2890 2889 0
-2890 -1755 1858 0
-2890 1755 -1858 0
2890 -2889 1755 1858 0
2890 -2889 -1755 -1858 0
-2890 1756 -1859 0
-2891 2890 0
-2891 -1756 1859 0
-2891 1756 -1859 0
2891 -2890 1756 1859 0
2891 -2890 -1756 -1859 0
-2891 1846 -1949 0
-2892 2891 0
-2892 -1846 1949 0
-2892 1846 -1949 0
2892 -2891 1846 1949 0
2892 -2891 -1846 -1949 0
-2892 1847 -1950 0
-2893 2892 0
-2893 -1847 1950 0
-2893 1847 -1950 0
2893 -2892 1847 1950 0
2893 -2892 -1847 -1950 0
-2893 1848 -1951 0
-2894 2893 0
-2894 -1848 1951 0
-2894 1848 -1951 0
2894 -2893 1848 1951 0
2894 -2893 -1848 -1951 0
-2894 1849 -1952 0
-2895 2894 0
-2895 -1849 1952 0
-2895 1849 -1952 0
2895 -2894 1849 1952 0
2895 -2894 -1849 -1952 0
-2895 1850 -1953 0
-2896 2895 0
-2896 -1850 1953 0
-2896 1850 -1953 0
2896 -2895 1850 1953 0
2896 -2895 -1850 -1953 0
-2896 1851 -1954 0
-2897 2896 0
-2897 -1851 1954 0
-2897 1851 -1954 0
2897 -2896 1851 1954 0
2897 -2896 -1851 -1954 0
-2897 1852 -1955 0
-2898 2897 0
-2898 -1852 1955 0
-2898 1852 -1955 0
2898 -2897 1852 1955 0
2898 -2897 -1852 -1955 0
-2898 1853 -1956 0
-2899 2898 0
-2899 -1853 1956 0
-2899 1853 -1956 0
2899 -2898 1853 1956 0
2899 -2898 -1853 -1956 0
-2899 1854 -1957 0
-2900 2899 0
-2900 -1854 1957 0
-2900 1854 -1957 0
2900 -2899 1854 1957 0
2900 -2899 -1854 -1957 0
-2900 1855 -1958 0
-2901 2900 0
-2901 -1855 1958 0
-2901 1855 -1958 0
2901 -2900 1855 1958 0
2901 -2900 -1855 -1958 0
-2901 1856 -1959 0
-2902 2901 0
-2902 -1856 1959 0
-2902 1856 -1959 0
2902 -2901 1856 1959 0
2902 -2901 -1856 -1959 0
-2902 1857 -1960 0
-2903 2902 0
-2903 -1857 1960 0
-2903 1857 -1960 0
2903 -2902 1857 1960 0
2903 -2902 -1857 -1960 0
-2903 1858 -1961 0
-2904 2903 0
-2904 -1858 1961 0
-2904 1858 -1961 0
2904 -2903 1858 1961 0
2904 -2903 -1858 -1961 0
-2904 1859 -1962 0
-2905 2904 0
-2905 -1859 1962 0
-2905 1859 -1962 0
2905 -2904 1859 1962 0
2905 -2904 -1859 -1962 0
-2905 1949 -2052 0
-2906 2905 0
-2906 -1949 2052 0
-2906 1949 -2052 0
2906 -2905 1949 2052 0
2906 -2905 -1949 -2052 0
-2906 1950 -2053 0
-2907 2906 0
-2907 -1950 2053 0
-2907 1950 -2053 0
2907 -2906 1950 2053 0
2907 -2906 -1950 -2053 0
-2907 1951 -2054 0
-2908 2907 0
-2908 -1951 2054 0
-2908 1951 -2054 0
2908 -2907 1951 2054 0
2908 -2907 -1951 -2054 0
-2908 1952 -2055 0
-2909 2908 0
-2909 -1952 2055 0
-2909 1952 -2055 0
2909 -2908 1952 2055 0
2909 -2908 -1952 -2055 0
-2909 1953 -2056 0
-2910 2909 0
-2910 -1953 2056 0
-2910 1953 -2056 0
2910 -2909 1953 2056 0
2910 -2909 -1953 -2056 0
-2910 1954 -2057 0
-2911 2910 0
-2911 -1954 2057 0
-2911 1954 -2057 0
2911 -2910 1954 2057 0
2911 -2910 -1954 -2057 0
-2911 1955 -2058 0
-2912 2911 0
-2912 -1955 2058 0
-2912 1955 -2058 0
2912 -2911 1955 2058 0
2912 -2911 -1955 -2058 0
-2912 1956 -2059 0
-2913 2912 0
-2913 -1956 2059 0
-2913 1956 -2059 0
2913 -2912 1956 2059 0
2913 -2912 -1956 -2059 0
-2913 1957 -2060 0
-2914 2913 0
-2914 -1957 2060 0
-2914 1957 -2060 0
2914 -2913 1957 2060 0
2914 -2913 -1957 -2060 0
-2914 1958 -2061 0
-2915 2914 0
-2915 -1958 2061 0
-2915 1958 -2061 0
2915 -2914 1958 2061 0
2915 -2914 -1958 -2061 0
-2915 1959 -2062 0
-2916 2915 0
-2916 -1959 2062 0
-2916 1959 -2062 0
2916 -2915 1959 2062 0
2916 -2915 -1959 -2062 0
-2916 1960 -2063 0
-2917 2916 0
-2917 -1960 2063 0
-2917 1960 -2063 0
2917 -2916 1960 2063 0
2917 -2916 -1960 -2063 0
-2917 1961 -2064 0
-2918 2917 0
-2918 -1961 2064 0
-2918 1961 -2064 0
2918 -2917 1961 2064 0
2918 -2917 -1961 -2064 0
-2918 1962 -2065 0
-2919 2918 0
-2919 -1962 2065 0
-2919 1962 -2065 0
2919 -2918 1962 2065 0
2919 -2918 -1962 -2065 0
-2919 2052 -2155 0
-2920 2919 0
-2920 -2052 2155 0
-2920 2052 -2155 0
2920 -2919 2052 2155 0
2920 -2919 -2052 -2155 0
-2920 2053 -2156 0
-2921 2920 0
-2921 -2053 2156 0
-2921 2053 -2156 0
2921 -2920 2053 2156 0
2921 -2920 -2053 -2156 0
-2921 2054 -2157 0
-2922 2921 0
-2922 -2054 2157 0
-2922 2054 -2157 0
2922 -2921 2054 2157 0
2922 -2921 -2054 -2157 0
-2922 2055 -2158 0
-2923 2922 0
-2923 -2055 2158 0
-2923 2055 -2158 0
2923 -2922 2055 2158 0
2923 -2922 -2055 -2158 0
-2923 2056 -2159 0
-2924 2923 0
-2924 -2056 2159 0
-2924 2056 -2159 0
2924 -2923 2056 2159 0
2924 -2923 -2056 -2159 0
-2924 2057 -2160 0
-2925 2924 0
-2925 -2057 2160 0
-2925 2057 -2160 0
2925 -2924 2057 2160 0
2925 -2924 -2057 -2160 0
-2925 2058 -2161 0
-2926 2925 0
-2926 -2058 2161 0
-2926 2058 -2161 0
2926 -2925 2058 2161 0
2926 -2925 -2058 -2161 0
-2926 2059 -2162 0
-2927 2926 0
-2927 -2059 2162 0
-2927 2059 -2162 0
2927 -2926 2059 2162 0
2927 -2926 -2059 -2162 0
-2927 2060 -2163 0
-2928 2927 0
-2928 -2060 2163 0
-2928 2060 -2163 0
2928 -2927 2060 2163 0
2928 -2927 -2060 -2163 0
-2928 2061 -2164 0
-2929 2928 0
-2929 -2061 2164 0
-2929 2061 -2164 0
2929 -2928 2061 2164 0
2929 -2928 -2061 -2164 0
-2929 2062 -2165 0
-2930 2929 0
-2930 -2062 2165 0
-2930 2062 -2165 0
2930 -2929 2062 2165 0
2930 -2929 -2062 -2165 0
-2930 2063 -2166 0
-2931 2930 0
-2931 -2063 2166 0
-2931 2063 -2166 0
2931 -2930 2063 2166 0
2931 -2930 -2063 -2166 0
-2931 2064 -2167 0
-2932 2931 0
-2932 -2064 2167 0
-2932 2064 -2167 0
2932 -2931 2064 2167 0
2932 -2931 -2064 -2167 0
-2932 2065 -2168 0
-2933 2932 0
-2933 -2065 2168 0
-2933 2065 -2168 0
2933 -2932 2065 2168 0
2933 -2932 -2065 -2168 0
-2933 2155 -2258 0
-2934 2933 0
-2934 -2155 2258 0
-2934 2155 -2258 0
2934 -2933 2155 2258 0
2934 -2933 -2155 -2258 0
-2934 2156 -2259 0
-2935 2934 0
-2935 -2156 2259 0
-2935 2156 -2259 0
2935 -2934 2156 2259 0
2935 -2934 -2156 -2259 0
-2935 2157 -2260 0
-2936 2935 0
-2936 -2157 2260 0
-2936 2157 -2260 0
2936 -2935 2157 2260 0
2936 -2935 -2157 -2260 0
-2936 2158 -2261 0
-2937 2936 0
-2937 -2158 2261 0
-2937 2158 -2261 0
2937 -2936 2158 2261 0
2937 -2936 -2158 -2261 0
-2937 2159 -2262 0
-2938 2937 0
-2938 -2159 2262 0
-2938 2159 -2262 0
2938 -2937 2159 2262 0
2938 -2937 -2159 -2262 0
-2938 2160 -2263 0
-2939 2938 0
-2939 -2160 2263 0
-2939 2160 -2263 0
2939 -2938 2160 2263 0
2939 -2938 -2160 -2263 0
-2939 2161 -2264 0
-2940 2939 0
-2940 -2161 2264 0
-2940 2161 -2264 0
2940 -2939 2161 2264 0
2940 -2939 -2161 -2264 0
-2940 2162 -2265 0
-2941 2940 0
-2941 -2162 2265 0
-2941 2162 -2265 0
2941 -2940 2162 2265 0
2941 -2940 -2162 -2265 0
-2941 2163 -2266 0
-2942 2941 0
-2942 -2163 2266 0
-2942 2163 -2266 0
2942 -2941 2163 2266 0
2942 -2941 -2163 -2266 0
-2942 2164 -2267 0
-2943 2942 0
-2943 -2164 2267 0
-2943 2164 -2267 0
2943 -2942 2164 2267 0
2943 -2942 -2164 -2267 0
-2943 2165 -2268 0
-2944 2943 0
-2944 -2165 2268 0
-2944 2165 -2268 0
2944 -2943 2165 2268 0
2944 -2943 -2165 -2268 0
-2944 2166 -2269 0
-2945 2944 0
-2945 -2166 2269 0
-2945 2166 -2269 0
2945 -2944 2166 2269 0
2945 -2944 -2166 -2269 0
-2945 2167 -2270 0
-2946 2945 0
-2946 -2167 2270 0
-2946 2167 -2270 0
2946 -2945 2167 2270 0
2946 -2945 -2167 -2270 0
-2946 2168 -2271 0
-2947 2946 0
-2947 -2168 2271 0
-2947 2168 -2271 0
2947 -2946 2168 2271 0
2947 -2946 -2168 -2271 0
-2947 2258 -2361 0
-2948 2947 0
-2948 -2258 2361 0
-2948 2258 -2361 0
2948 -2947 2258 2361 0
2948 -2947 -2258 -2361 0
-2948 2259 -2362 0
-2949 2948 0
-2949 -2259 2362 0
-2949 2259 -2362 0
2949 -2948 2259 2362 0
2949 -2948 -2259 -2362 0
-2949 2260 -2363 0
-2950 2949 0
-2950 -2260 2363 0
-2950 2260 -2363 0
2950 -2949 2260 2363 0
2950 -2949 -2260 -2363 0
-2950 2261 -2364 0
-2951 2950 0
-2951 -2261 2364 0
-2951 2261 -2364 0
2951 -2950 2261 2364 0
2951 -2950 -2261 -2364 0
-2951 2262 -2365 0
-2952 2951 0
-2952 -2262 2365 0
-2952 2262 -2365 0
2952 -2951 2262 2365 0
2952 -2951 -2262 -2365 0
-2952 2263 -2366 0
-2953 2952 0
-2953 -2263 2366 0
-2953 2263 -2366 0
2953 -2952 2263 2366 0
2953 -2952 -2263 -2366 0
-2953 2264 -2367 0
-2954 2953 0
-2954 -2264 2367 0
-2954 2264 -2367 0
2954 -2953 2264 2367 0
2954 -2953 -2264 -2367 0
-2954 2265 -2368 0
-2955 2954 0
-2955 -2265 2368 0
-2955 2265 -2368 0
2955 -2954 2265 2368 0
2955 -2954 -2265 -2368 0
-2955 2266 -2369 0
-2956 2955 0
-2956 -2266 2369 0
-2956 2266 -2369 0
2956 -2955 2266 2369 0
2956 -2955 -2266 -2369 0
-2956 2267 -2370 0
-2957 2956 0
-2957 -2267 2370 0
-2957 2267 -2370 0
2957 -2956 2267 2370 0
2957 -2956 -2267 -2370 0
-2957 2268 -2371 0
-2958 2957 0
-2958 -2268 2371 0
-2958 2268 -2371 0
2958 -2957 2268 2371 0
2958 -2957 -2268 -2371 0
-2958 2269 -2372 0
-2959 2958 0
-2959 -2269 2372 0
-2959 2269 -2372 0
2959 -2958 2269 2372 0
2959 -2958 -2269 -2372 0
-2959 2270 -2373 0
-2960 2959 0
-2960 -2270 2373 0
-2960 2270 -2373 0
2960 -2959 2270 2373 0
2960 -2959 -2270 -2373 0
-2960 2271 -2374 0
-2961 2960 0
-2961 -2271 2374 0
-2961 2271 -2374 0
2961 -2960 2271 2374 0
2961 -2960 -2271 -2374 0
-2961 2361 -2464 0
-2962 2961 0
-2962 -2361 2464 0
-2962 2361 -2464 0
2962 -2961 2361 2464 0
2962 -2961 -2361 -2464 0
-2962 2362 -2465 0
-2963 2962 0
-2963 -2362 2465 0
-2963 2362 -2465 0
2963 -2962 2362 2465 0
2963 -2962 -2362 -2465 0
-2963 2363 -2466 0
-2964 2963 0
-2964 -2363 2466 0
-2964 2363 -2466 0
2964 -2963 2363 2466 0
2964 -2963 -2363 -2466 0
-2964 2364 -2467 0
-2965 2964 0
-2965 -2364 2467 0
-2965 2364 -2467 0
2965 -2964 2364 2467 0
2965 -2964 -2364 -2467 0
-2965 2365 -2468 0
-2966 2965 0
-2966 -2365 2468 0
-2966 2365 -2468 0
2966 -2965 2365 2468 0
2966 -2965 -2365 -2468 0
-2966 2366 -2469 0
-2967 2966 0
-2967 -2366 2469 0
-2967 2366 -2469 0
2967 -2966 2366 2469 0
2967 -2966 -2366 -2469 0
-2967 2367 -2470 0
-2968 2967 0
-2968 -2367 2470 0
-2968 2367 -2470 0
2968 -2967 2367 2470 0
2968 -2967 -2367 -2470 0
-2968 2368 -2471 0
-2969 2968 0
-2969 -2368 2471 0
-2969 2368 -2471 0
2969 -2968 2368 2471 0
2969 -2968 -2368 -2471 0
-2969 2369 -2472 0
-2970 2969 0
-2970 -2369 2472 0
-2970 2369 -2472 0
2970 -2969 2369 2472 0
2970 -2969 -2369 -2472 0
-2970 2370 -2473 0
-2971 2970 0
-2971 -2370 2473 0
-2971 2370 -2473 0
2971 -2970 2370 2473 0
2971 -2970 -2370 -2473 0
-2971 2371 -2474 0
-2972 2971 0
-2972 -2371 2474 0
-2972 2371 -2474 0
2972 -2971 2371 2474 0
2972 -2971 -2371 -2474 0
-2972 2372 -2475 0
-2973 2972 0
-2973 -2372 2475 0
-2973 2372 -2475 0
2973 -2972 2372 2475 0
2973 -2972 -2372 -2475 0
-2973 2373 -2476 0
-2974 2973 0
-2974 -2373 2476 0
-2974 2373 -2476 0
2974 -2973 2373 2476 0
2974 -2973 -2373 -2476 0
-2974 2374 -2477 0
-2975 2974 0
-2975 -2374 2477 0
-2975 2374 -2477 0
2975 -2974 2374 2477 0
2975 -2974 -2374 -2477 0
-2975 2464 -2567 0
-2976 2975 0
-2976 -2464 2567 0
-2976 2464 -2567 0
2976 -2975 2464 2567 0
2976 -2975 -2464 -2567 0
-2976 2465 -2568 0
-2977 2976 0
-2977 -2465 2568 0
-2977 2465 -2568 0
2977 -2976 2465 2568 0
2977 -2976 -2465 -2568 0
-2977 2466 -2569 0
-2978 2977 0
-2978 -2466 2569 0
-2978 2466 -2569 0
2978 -2977 2466 2569 0
2978 -2977 -2466 -2569 0
-2978 2467 -2570 0
-2979 2978 0
-2979 -2467 2570 0
-2979 2467 -2570 0
2979 -2978 2467 2570 0
2979 -2978 -2467 -2570 0
-2979 2468 -2571 0
-2980 2979 0
-2980 -2468 2571 0
-2980 2468 -2571 0
2980 -2979 2468 2571 0
2980 -2979 -2468 -2571 0
-2980 2469 -2572 0
-2981 2980 0
-2981 -2469 2572 0
-2981 2469 -2572 0
2981 -2980 2469 2572 0
2981 -2980 -2469 -2572 0
-2981 2470 -2573 0
-2982 2981 0
-2982 -2470 2573 0
-2982 2470 -2573 0
2982 -2981 2470 2573 0
2982 -2981 -2470 -2573 0
-2982 2471 -2574 0
-2983 2982 0
-2983 -2471 2574 0
-2983 2471 -2574 0
2983 -2982 2471 2574 0
2983 -2982 -2471 -2574 0
-2983 2472 -2575 0
-2984 2983 0
-2984 -2472 2575 0
-2984 2472 -2575 0
2984 -2983 2472 2575 0
2984 -2983 -2472 -2575 0
-2984 2473 -2576 0
-2985 2984 0
-2985 -2473 2576 0
-2985 2473 -2576 0
2985 -2984 2473 2576 0
2985 -2984 -2473 -2576 0
-2985 2474 -2577 0
-2986 2985 0
-2986 -2474 2577 0
-2986 2474 -2577 0
2986 -2985 2474 2577 0
2986 -2985 -2474 -2577 0
-2986 2475 -2578 0
-2987 2986 0
-2987 -2475 2578 0
-2987 2475 -2578 0
2987 -2986 2475 2578 0
2987 -2986 -2475 -2578 0
-2987 2476 -2579 0
-2988 2987 0
-2988 -2476 2579 0
-2988 2476 -2579 0
2988 -2987 2476 2579 0
2988 -2987 -2476 -2579 0
-2988 2477 -2580 0
-2989 2988 0
-2989 -2477 2580 0
-2989 2477 -2580 0
2989 -2988 2477 2580 0
2989 -2988 -2477 -2580 0
-2989 2567 -2670 0
-2990 2989 0
-2990 -2567 2670 0
-2990 2567 -2670 0
2990 -2989 2567 2670 0
2990 -2989 -2567 -2670 0
-2990 2568 -2671 0
-2991 2990 0
-2991 -2568 2671 0
-2991 2568 -2671 0
2991 -2990 2568 2671 0
2991 -2990 -2568 -2671 0
-2991 2569 -2672 0
-2992 2991 0
-2992 -2569 2672 0
-2992 2569 -2672 0
2992 -2991 2569 2672 0
2992 -2991 -2569 -2672 0
-2992 2570 -2673 0
-2993 2992 0
-2993 -2570 2673 0
-2993 2570 -2673 0
2993 -2992 2570 2673 0
2993 -2992 -2570 -2673 0
-2993 2571 -2674 0
-2994 2993 0
-2994 -2571 2674 0
-2994 2571 -2674 0
2994 -2993 2571 2674 0
2994 -2993 -2571 -2674 0
-2994 2572 -2675 0
-2995 2994 0
-2995 -2572 2675 0
-2995 2572 -2675 0
2995 -2994 2572 2675 0
2995 -2994 -2572 -2675 0
-2995 2573 -2676 0
-2996 2995 0
-2996 -2573 2676 0
-2996 2573 -2676 0
2996 -2995 2573 2676 0
2996 -2995 -2573 -2676 0
-2996 2574 -2677 0
-2997 2996 0
-2997 -2574 2677 0
-2997 2574 -2677 0
2997 -2996 2574 2677 0
2997 -2996 -2574 -2677 0
-2997 2575 -2678 0
-2998 2997 0
-2998 -2575 2678 0
-2998 2575 -2678 0
2998 -2997 2575 2678 0
2998 -2997 -2575 -2678 0
-2998 2576 -2679 0
-2999 2998 0
-2999 -2576 2679 0
-2999 2576 -2679 0
2999 -2998 2576 2679 0
2999 -2998 -2576 -2679 0
-2999 2577 -2680 0
-3000 2999 0
-3000 -2577 2680 0
-3000 2577 -2680 0
3000 -2999 2577 2680 0
3000 -2999 -2577 -2680 0
-3000 2578 -2681 0
-3001 3000 0
-3001 -2578 2681 0
-3001 2578 -2681 0
3001 -3000 2578 2681 0
3001 -3000 -2578 -2681 0
-3001 2579 -2682 0
-3002 3001 0
-3002 -2579 2682 0
-3002 2579 -2682 0
3002 -3001 2579 2682 0
3002 -3001 -2579 -2682 0
-3002 2580 -2683 0
-3003 3002 0
-3003 -2580 2683 0
-3003 2580 -2683 0
3003 -3002 2580 2683 0
3003 -3002 -2580 -2683 0
-3003 2670 -1537 0
-3004 3003 0
-3004 -2670 1537 0
-3004 2670 -1537 0
3004 -3003 2670 1537 0
3004 -3003 -2670 -1537 0
-3004 2671 -1538 0
-3005 3004 0
-3005 -2671 1538 0
-3005 2671 -1538 0
3005 -3004 2671 1538 0
3005 -3004 -2671 -1538 0
-3005 2672 -1539 0
-3006 3005 0
-3006 -2672 1539 0
-3006 2672 -1539 0
3006 -3005 2672 1539 0
3006 -3005 -2672 -1539 0
-3006 2673 -1540 0
-3007 3006 0
-3007 -2673 1540 0
-3007 2673 -1540 0
3007 -3006 2673 1540 0
3007 -3006 -2673 -1540 0
-3007 2674 -1541 0
-3008 3007 0
-3008 -2674 1541 0
-3008 2674 -1541 0
3008 -3007 2674 1541 0
3008 -3007 -2674 -1541 0
-3008 2675 -1542 0
-3009 3008 0
-3009 -2675 1542 0
-3009 2675 -1542 0
3009 -3008 2675 1542 0
3009 -3008 -2675 -1542 0
-3009 2676 -1543 0
-3010 3009 0
-3010 -2676 1543 0
-3010 2676 -1543 0
3010 -3009 2676 1543 0
3010 -3009 -2676 -1543 0
-3010 2677 -1544 0
-3011 3010 0
-3011 -2677 1544 0
-3011 2677 -1544 0
3011 -3010 2677 1544 0
3011 -3010 -2677 -1544 0
-3011 2678 -1545 0
-3012 3011 0
-3012 -2678 1545 0
-3012 2678 -1545 0
3012 -3011 2678 1545 0
3012 -3011 -2678 -1545 0
-3012 2679 -1546 0
-3013 3012 0
-3013 -2679 1546 0
-3013 2679 -1546 0
3013 -3012 2679 1546 0
3013 -3012 -2679 -1546 0
-3013 2680 -1547 0
-3014 3013 0
-3014 -2680 1547 0
-3014 2680 -1547 0
3014 -3013 2680 1547 0
3014 -3013 -2680 -1547 0
-3014 2681 -1548 0
-3015 3014 0
-3015 -2681 1548 0
-3015 2681 -1548 0
3015 -3014 2681 1548 0
3015 -3014 -2681 -1548 0
-3015 2682 -1549 0
-3016 3015 0
-3016 -2682 1549 0
-3016 2682 -1549 0
3016 -3015 2682 1549 0
3016 -3015 -2682 -1549 0
-3016 2683 -1550 0
1537 -1743 0
-3017 -1537 1743 0
-3017 1537 -1743 0
3017 1537 1743 0
3017 -1537 -1743 0
-3017 1538 -1744 0
-3018 3017 0
-3018 -1538 1744 0
-3018 1538 -1744 0
3018 -3017 1538 1744 0
3018 -3017 -1538 -1744 0
-3018 1539 -1745 0
-3019 3018 0
-3019 -1539 1745 0
-3019 1539 -1745 0
3019 -3018 1539 1745 0
3019 -3018 -1539 -1745 0
-3019 1540 -1746 0
-3020 3019 0
-3020 -1540 1746 0
-3020 1540 -1746 0
3020 -3019 1540 1746 0
3020 -3019 -1540 -1746 0
-3020 1541 -1747 0
-3021 3020 0
-3021 -1541 1747 0
-3021 1541 -1747 0
3021 -3020 1541 1747 0
3021 -3020 -1541 -1747 0
-3021 1542 -1748 0
-3022 3021 0
-3022 -1542 1748 0
-3022 1542 -1748 0
3022 -3021 1542 1748 0
3022 -3021 -1542 -1748 0
-3022 1543 -1749 0
-3023 3022 0
-3023 -1543 1749 0
-3023 1543 -1749 0
3023 -3022 1543 1749 0
3023 -3022 -1543 -1749 0
-3023 1544 -1750 0
-3024 3023 0
-3024 -1544 1750 0
-3024 1544 -1750 0
3024 -3023 1544 1750 0
3024 -3023 -1544 -1750 0
-3024 1545 -1751 0
-3025 3024 0
-3025 -1545 1751 0
-3025 1545 -1751 0
3025 -3024 1545 1751 0
3025 -3024 -1545 -1751 0
-3025 1546 -1752 0
-3026 3025 0
-3026 -1546 1752 0
-3026 1546 -1752 0
3026 -3025 1546 1752 0
3026 -3025 -1546 -1752 0
-3026 1547 -1753 0
-3027 3026 0
-3027 -1547 1753 0
-3027 1547 -1753 0
3027 -3026 1547 1753 0
3027 -3026 -1547 -1753 0
-3027 1548 -1754 0
-3028 3027 0
-3028 -1548 1754 0
-3028 1548 -1754 0
3028 -3027 1548 1754 0
3028 -3027 -1548 -1754 0
-3028 1549 -1755 0
-3029 3028 0
-3029 -1549 1755 0
-3029 1549 -1755 0
3029 -3028 1549 1755 0
3029 -3028 -1549 -1755 0
-3029 1550 -1756 0
-3030 3029 0
-3030 -1550 1756 0
-3030 1550 -1756 0
3030 -3029 1550 1756 0
3030 -3029 -1550 -1756 0
-3030 1640 -1846 0
-3031 3030 0
-3031 -1640 1846 0
-3031 1640 -1846 0
3031 -3030 1640 1846 0
3031 -3030 -1640 -1846 0
-3031 1641 -1847 0
-3032 3031 0
-3032 -1641 1847 0
-3032 1641 -1847 0
3032 -3031 1641 1847 0
3032 -3031 -1641 -1847 0
-3032 1642 -1848 0
-3033 3032 0
-3033 -1642 1848 0
-3033 1642 -1848 0
3033 -3032 1642 1848 0
3033 -3032 -1642 -1848 0
-3033 1643 -1849 0
-3034 3033 0
-3034 -1643 1849 0
-3034 1643 -1849 0
3034 -3033 1643 1849 0
3034 -3033 -1643 -1849 0
-3034 1644 -1850 0
-3035 3034 0
-3035 -1644 1850 0
-3035 1644 -1850 0
3035 -3034 1644 1850 0
3035 -3034 -1644 -1850 0
-3035 1645 -1851 0
-3036 3035 0
-3036 -1645 1851 0
-3036 1645 -1851 0
3036 -3035 1645 1851 0
3036 -3035 -1645 -1851 0
-3036 1646 -1852 0
-3037 3036 0
-3037 -1646 1852 0
-3037 1646 -1852 0
3037 -3036 1646 1852 0
3037 -3036 -1646 -1852 0
-3037 1647 -1853 0
-3038 3037 0
-3038 -1647 1853 0
-3038 1647 -1853 0
3038 -3037 1647 1853 0
3038 -3037 -1647 -1853 0
-3038 1648 -1854 0
-3039 3038 0
-3039 -1648 1854 0
-3039 1648 -1854 0
3039 -3038 1648 1854 0
3039 -3038 -1648 -1854 0
-3039 1649 -1855 0
-3040 3039 0
-3040 -1649 1855 0
-3040 1649 -1855 0
3040 -3039 1649 1855 0
3040 -3039 -1649 -1855 0
-3040 1650 -1856 0
-3041 3040 0
-3041 -1650 1856 0
-3041 1650 -1856 0
3041 -3040 1650 1856 0
3041 -3040 -1650 -1856 0
-3041 1651 -1857 0
-3042 3041 0
-3042 -1651 1857 0
-3042 1651 -1857 0
3042 -3041 1651 1857 0
3042 -3041 -1651 -1857 0
-3042 1652 -1858 0
-3043 3042 0
-3043 -1652 1858 0
-3043 1652 -1858 0
3043 -3042 1652 1858 0
3043 -3042 -1652 -1858 0
-3043 1653 -1859 0
-3044 3043 0
-3044 -1653 1859 0
-3044 1653 -1859 0
3044 -3043 1653 1859 0
3044 -3043 -1653 -1859 0
-3044 1743 -1949 0
-3045 3044 0
-3045 -1743 1949 0
-3045 1743 -1949 0
3045 -3044 1743 1949 0
3045 -3044 -1743 -1949 0
-3045 1744 -1950 0
-3046 3045 0
-3046 -1744 1950 0
-3046 1744 -1950 0
3046 -3045 1744 1950 0
3046 -3045 -1744 -1950 0
-3046 1745 -1951 0
-3047 3046 0
-3047 -1745 1951 0
-3047 1745 -1951 0
3047 -3046 1745 1951 0
3047 -3046 -1745 -1951 0
-3047 1746 -1952 0
-3048 3047 0
-3048 -1746 1952 0
-3048 1746 -1952 0
3048 -3047 1746 1952 0
3048 -3047 -1746 -1952 0
-3048 1747 -1953 0
-3049 3048 0
-3049 -1747 1953 0
-3049 1747 -1953 0
3049 -3048 1747 1953 0
3049 -3048 -1747 -1953 0
-3049 1748 -1954 0
-3050 3049 0
-3050 -1748 1954 0
-3050 1748 -1954 0
3050 -3049 1748 1954 0
3050 -3049 -1748 -1954 0
-3050 1749 -1955 0
-3051 3050 0
-3051 -1749 1955 0
-3051 1749 -1955 0
3051 -3050 1749 1955 0
3051 -3050 -1749 -1955 0
-3051 1750 -1956 0
-3052 3051 0
-3052 -1750 1956 0
-3052 1750 -1956 0
3052 -3051 1750 1956 0
3052 -3051 -1750 -1956 0
-3052 1751 -1957 0
-3053 3052 0
-3053 -1751 1957 0
-3053 1751 -1957 0
3053 -3052 1751 1957 0
3053 -3052 -1751 -1957 0
-3053 1752 -1958 0
-3054 3053 0
-3054 -1752 1958 0
-3054 1752 -1958 0
3054 -3053 1752 1958 0
3054 -3053 -1752 -1958 0
-3054 1753 -1959 0
-3055 3054 0
-3055 -1753 1959 0
-3055 1753 -1959 0
3055 -3054 1753 1959 0
3055 -3054 -1753 -1959 0
-3055 1754 -1960 0
-3056 3055 0
-3056 -1754 1960 0
-3056 1754 -1960 0
3056 -3055 1754 1960 0
3056 -3055 -1754 -1960 0
-3056 1755 -1961 0
-3057 3056 0
-3057 -1755 1961 0
-3057 1755 -1961 0
3057 -3056 1755 1961 0
3057 -3056 -1755 -1961 0
-3057 1756 -1962 0
-3058 3057 0
-3058 -1756 1962 0
-3058 1756 -1962 0
3058 -3057 1756 1962 0
3058 -3057 -1756 -1962 0
-3058 1846 -2052 0
-3059 3058 0
-3059 -1846 2052 0
-3059 1846 -2052 0
3059 -3058 1846 2052 0
3059 -3058 -1846 -2052 0
-3059 1847 -2053 0
-3060 3059 0
-3060 -1847 2053 0
-3060 1847 -2053 0
3060 -3059 1847 2053 0
3060 -3059 -1847 -2053 0
-3060 1848 -2054 0
-3061 3060 0
-3061 -1848 2054 0
-3061 1848 -2054 0
3061 -3060 1848 2054 0
3061 -3060 -1848 -2054 0
-3061 1849 -2055 0
-3062 3061 0
-3062 -1849 2055 0
-3062 1849 -2055 0
3062 -3061 1849 2055 0
3062 -3061 -1849 -2055 0
-3062 1850 -2056 0
-3063 3062 0
-3063 -1850 2056 0
-3063 1850 -2056 0
3063 -3062 1850 2056 0
3063 -3062 -1850 -2056 0
-3063 1851 -2057 0
-3064 3063 0
-3064 -1851 2057 0
-3064 1851 -2057 0
3064 -3063 1851 2057 0
3064 -3063 -1851 -2057 0
-3064 1852 -2058 0
-3065 3064 0
-3065 -1852 2058 0
-3065 1852 -2058 0
3065 -3064 1852 2058 0
3065 -3064 -1852 -2058 0
-3065 1853 -2059 0
-3066 3065 0
-3066 -1853 2059 0
-3066 1853 -2059 0
3066 -3065 1853 2059 0
3066 -3065 -1853 -2059 0
-3066 1854 -2060 0
-3067 3066 0
-3067 -1854 2060 0
-3067 1854 -2060 0
3067 -3066 1854 2060 0
3067 -3066 -1854 -2060 0
-3067 1855 -2061 0
-3068 3067 0
-3068 -1855 2061 0
-3068 1855 -2061 0
3068 -3067 1855 2061 0
3068 -3067 -1855 -2061 0
-3068 1856 -2062 0
-3069 3068 0
-3069 -1856 2062 0
-3069 1856 -2062 0
3069 -3068 1856 2062 0
3069 -3068 -1856 -2062 0
-3069 1857 -2063 0
-3070 3069 0
-3070 -1857 2063 0
-3070 1857 -2063 0
3070 -3069 1857 2063 0
3070 -3069 -1857 -2063 0
-3070 1858 -2064 0
-3071 3070 0
-3071 -1858 2064 0
-3071 1858 -2064 0
3071 -3070 1858 2064 0
3071 -3070 -1858 -2064 0
-3071 1859 -2065 0
-3072 3071 0
-3072 -1859 2065 0
-3072 1859 -2065 0
3072 -3071 1859 2065 0
3072 -3071 -1859 -2065 0
-3072 1949 -2155 0
-3073 3072 0
-3073 -1949 2155 0
-3073 1949 -2155 0
3073 -3072 1949 2155 0
3073 -3072 -1949 -2155 0
-3073 1950 -2156 0
-3074 3073 0
-3074 -1950 2156 0
-3074 1950 -2156 0
3074 -3073 1950 2156 0
3074 -3073 -1950 -2156 0
-3074 1951 -2157 0
-3075 3074 0
-3075 -1951 2157 0
-3075 1951 -2157 0
3075 -3074 1951 2157 0
3075 -3074 -1951 -2157 0
-3075 1952 -2158 0
-3076 3075 0
-3076 -1952 2158 0
-3076 1952 -2158 0
3076 -3075 1952 2158 0
3076 -3075 -1952 -2158 0
-3076 1953 -2159 0
-3077 3076 0
-3077 -1953 2159 0
-3077 1953 -2159 0
3077 -3076 1953 2159 0
3077 -3076 -1953 -2159 0
-3077 1954 -2160 0
-3078 3077 0
-3078 -1954 2160 0
-3078 1954 -2160 0
3078 -3077 1954 2160 0
3078 -3077 -1954 -2160 0
-3078 1955 -2161 0
-3079 3078 0
-3079 -1955 2161 0
-3079 1955 -2161 0
3079 -3078 1955 2161 0
3079 -3078 -1955 -2161 0
-3079 1956 -2162 0
-3080 3079 0
-3080 -1956 2162 0
-3080 1956 -2162 0
3080 -3079 1956 2162 0
3080 -3079 -1956 -2162 0
-3080 1957 -2163 0
-3081 3080 0
-3081 -1957 2163 0
-3081 1957 -2163 0
3081 -3080 1957 2163 0
3081 -3080 -1957 -2163 0
-3081 1958 -2164 0
-3082 3081 0
-3082 -1958 2164 0
-3082 1958 -2164 0
3082 -3081 1958 2164 0
3082 -3081 -1958 -2164 0
-3082 1959 -2165 0
-3083 3082 0
-3083 -1959 2165 0
-3083 1959 -2165 0
3083 -3082 1959 2165 0
3083 -3082 -1959 -2165 0
-3083 1960 -2166 0
-3084 3083 0
-3084 -1960 2166 0
-3084 1960 -2166 0
3084 -3083 1960 2166 0
3084 -3083 -1960 -2166 0
-3084 1961 -2167 0
-3085 3084 0
-3085 -1961 2167 0
-3085 1961 -2167 0
3085 -3084 1961 2167 0
3085 -3084 -1961 -2167 0
-3085 1962 -2168 0
-3086 3085 0
-3086 -1962 2168 0
-3086 1962 -2168 0
3086 -3085 1962 2168 0
3086 -3085 -1962 -2168 0
-3086 2052 -2258 0
-3087 3086 0
-3087 -2052 2258 0
-3087 2052 -2258 0
3087 -3086 2052 2258 0
3087 -3086 -2052 -2258 0
-3087 2053 -2259 0
-3088 3087 0
-3088 -2053 2259 0
-3088 2053 -2259 0
3088 -3087 2053 2259 0
3088 -3087 -2053 -2259 0
-3088 2054 -2260 0
-3089 3088 0
-3089 -2054 2260 0
-3089 2054 -2260 0
3089 -3088 2054 2260 0
3089 -3088 -2054 -2260 0
-3089 2055 -2261 0
-3090 3089 0
-3090 -2055 2261 0
-3090 2055 -2261 0
3090 -3089 2055 2261 0
3090 -3089 -2055 -2261 0
-3090 2056 -2262 0
-3091 3090 0
-3091 -2056 2262 0
-3091 2056 -2262 0
3091 -3090 2056 2262 0
3091 -3090 -2056 -2262 0
-3091 2057 -2263 0
-3092 3091 0
-3092 -2057 2263 0
-3092 2057 -2263 0
3092 -3091 2057 2263 0
3092 -3091 -2057 -2263 0
-3092 2058 -2264 0
-3093 3092 0
-3093 -2058 2264 0
-3093 2058 -2264 0
3093 -3092 2058 2264 0
3093 -3092 -2058 -2264 0
-3093 2059 -2265 0
-3094 3093 0
-3094 -2059 2265 0
-3094 2059 -2265 0
3094 -3093 2059 2265 0
3094 -3093 -2059 -2265 0
-3094 2060 -2266 0
-3095 3094 0
-3095 -2060 2266 0
-3095 2060 -2266 0
3095 -3094 2060 2266 0
3095 -3094 -2060 -2266 0
-3095 2061 -2267 0
-3096 3095 0
-3096 -2061 2267 0
-3096 2061 -2267 0
3096 -3095 2061 2267 0
3096 -3095 -2061 -2267 0
-3096 2062 -2268 0
-3097 3096 0
-3097 -2062 2268 0
-3097 2062 -2268 0
3097 -3096 2062 2268 0
3097 -3096 -2062 -2268 0
-3097 2063 -2269 0
-3098 3097 0
-3098 -2063 2269 0
-3098 2063 -2269 0
3098 -3097 2063 2269 0
3098 -3097 -2063 -2269 0
-3098 2064 -2270 0
-3099 3098 0
-3099 -2064 2270 0
-3099 2064 -2270 0
3099 -3098 2064 2270 0
3099 -3098 -2064 -2270 0
-3099 2065 -2271 0
-3100 3099 0
-3100 -2065 2271 0
-3100 2065 -2271 0
3100 -3099 2065 2271 0
3100 -3099 -2065 -2271 0
-3100 2155 -2361 0
-3101 3100 0
-3101 -2155 2361 0
-3101 2155 -2361 0
3101 -3100 2155 2361 0
3101 -3100 -2155 -2361 0
-3101 2156 -2362 0
-3102 3101 0
-3102 -2156 2362 0
-3102 2156 -2362 0
3102 -3101 2156 2362 0
3102 -3101 -2156 -2362 0
-3102 2157 -2363 0
-3103 3102 0
-3103 -2157 2363 0
-3103 2157 -2363 0
3103 -3102 2157 2363 0
3103 -3102 -2157 -2363 0
-3103 2158 -2364 0
-3104 3103 0
-3104 -2158 2364 0
-3104 2158 -2364 0
3104 -3103 2158 2364 0
3104 -3103 -2158 -2364 0
-3104 2159 -2365 0
-3105 3104 0
-3105 -2159 2365 0
-3105 2159 -2365 0
3105 -3104 2159 2365 0
3105 -3104 -2159 -2365 0
-3105 2160 -2366 0
-3106 3105 0
-3106 -2160 2366 0
-3106 2160 -2366 0
3106 -3105 2160 2366 0
3106 -3105 -2160 -2366 0
-3106 2161 -2367 0
-3107 3106 0
-3107 -2161 2367 0
-3107 2161 -2367 0
3107 -3106 2161 2367 0
3107 -3106 -2161 -2367 0
-3107 2162 -2368 0
-3108 3107 0
-3108 -2162 2368 0
-3108 2162 -2368 0
3108 -3107 2162 2368 0
3108 -3107 -2162 -2368 0
-3108 2163 -2369 0
-3109 3108 0
-3109 -2163 2369 0
-3109 2163 -2369 0
3109 -3108 2163 2369 0
3109 -3108 -2163 -2369 0
-3109 2164 -2370 0
-3110 3109 0
-3110 -2164 2370 0
-3110 2164 -2370 0
3110 -3109 2164 2370 0
3110 -3109 -2164 -2370 0
-3110 2165 -2371 0
-3111 3110 0
-3111 -2165 2371 0
-3111 2165 -2371 0
3111 -3110 2165 2371 0
3111 -3110 -2165 -2371 0
-3111 2166 -2372 0
-3112 3111 0
-3112 -2166 2372 0
-3112 2166 -2372 0
3112 -3111 2166 2372 0
3112 -3111 -2166 -2372 0
-3112 2167 -2373 0
-3113 3112 0
-3113 -2167 2373 0
-3113 2167 -2373 0
3113 -3112 2167 2373 0
3113 -3112 -2167 -2373 0
-3113 2168 -2374 0
-3114 3113 0
-3114 -2168 2374 0
-3114 2168 -2374 0
3114 -3113 2168 2374 0
3114 -3113 -2168 -2374 0
-3114 2258 -2464 0
-3115 3114 0
-3115 -2258 2464 0
-3115 2258 -2464 0
3115 -3114 2258 2464 0
3115 -3114 -2258 -2464 0
-3115 2259 -2465 0
-3116 3115 0
-3116 -2259 2465 0
-3116 2259 -2465 0
3116 -3115 2259 2465 0
3116 -3115 -2259 -2465 0
-3116 2260 -2466 0
-3117 3116 0
-3117 -2260 2466 0
-3117 2260 -2466 0
3117 -3116 2260 2466 0
3117 -3116 -2260 -2466 0
-3117 2261 -2467 0
-3118 3117 0
-3118 -2261 2467 0
-3118 2261 -2467 0
3118 -3117 2261 2467 0
3118 -3117 -2261 -2467 0
-3118 2262 -2468 0
-3119 3118 0
-3119 -2262 2468 0
-3119 2262 -2468 0
3119 -3118 2262 2468 0
3119 -3118 -2262 -2468 0
-3119 2263 -2469 0
-3120 3119 0
-3120 -2263 2469 0
-3120 2263 -2469 0
3120 -3119 2263 2469 0
3120 -3119 -2263 -2469 0
-3120 2264 -2470 0
-3121 3120 0
-3121 -2264 2470 0
-3121 2264 -2470 0
3121 -3120 2264 2470 0
3121 -3120 -2264 -2470 0
-3121 2265 -2471 0
-3122 3121 0
-3122 -2265 2471 0
-3122 2265 -2471 0
3122 -3121 2265 2471 0
3122 -3121 -2265 -2471 0
-3122 2266 -2472 0
-3123 3122 0
-3123 -2266 2472 0
-3123 2266 -2472 0
3123 -3122 2266 2472 0
3123 -3122 -2266 -2472 0
-3123 2267 -2473 0
-3124 3123 0
-3124 -2267 2473 0
-3124 2267 -2473 0
3124 -3123 2267 2473 0
3124 -3123 -2267 -2473 0
-3124 2268 -2474 0
-3125 3124 0
-3125 -2268 2474 0
-3125 2268 -2474 0
3125 -3124 2268 2474 0
3125 -3124 -2268 -2474 0
-3125 2269 -2475 0
-3126 3125 0
-3126 -2269 2475 0
-3126 2269 -2475 0
3126 -3125 2269 2475 0
3126 -3125 -2269 -2475 0
-3126 2270 -2476 0
-3127 3126 0
-3127 -2270 2476 0
-3127 2270 -2476 0
3127 -3126 2270 2476 0
3127 -3126 -2270 -2476 0
-3127 2271 -2477 0
-3128 3127 0
-3128 -2271 2477 0
-3128 2271 -2477 0
3128 -3127 2271 2477 0
3128 -3127 -2271 -2477 0
-3128 2361 -2567 0
-3129 3128 0
-3129 -2361 2567 0
-3129 2361 -2567 0
3129 -3128 2361 2567 0
3129 -3128 -2361 -2567 0
-3129 2362 -2568 0
-3130 3129 0
-3130 -2362 2568 0
-3130 2362 -2568 0
3130 -3129 2362 2568 0
3130 -3129 -2362 -2568 0
-3130 2363 -2569 0
-3131 3130 0
-3131 -2363 2569 0
-3131 2363 -2569 0
3131 -3130 2363 2569 0
3131 -3130 -2363 -2569 0
-3131 2364 -2570 0
-3132 3131 0
-3132 -2364 2570 0
-3132 2364 -2570 0
3132 -3131 2364 2570 0
3132 -3131 -2364 -2570 0
-3132 2365 -2571 0
-3133 3132 0
-3133 -2365 2571 0
-3133 2365 -2571 0
3133 -3132 2365 2571 0
3133 -3132 -2365 -2571 0
-3133 2366 -2572 0
-3134 3133 0
-3134 -2366 2572 0
-3134 2366 -2572 0
3134 -3133 2366 2572 0
3134 -3133 -2366 -2572 0
-3134 2367 -2573 0
-3135 3134 0
-3135 -2367 2573 0
-3135 2367 -2573 0
3135 -3134 2367 2573 0
3135 -3134 -2367 -2573 0
-3135 2368 -2574 0
-3136 3135 0
-3136 -2368 2574 0
-3136 2368 -2574 0
3136 -3135 2368 2574 0
3136 -3135 -2368 -2574 0
-3136 2369 -2575 0
-3137 3136 0
-3137 -2369 2575 0
-3137 2369 -2575 0
3137 -3136 2369 2575 0
3137 -3136 -2369 -2575 0
-3137 2370 -2576 0
-3138 3137 0
-3138 -2370 2576 0
-3138 2370 -2576 0
3138 -3137 2370 2576 0
3138 -3137 -2370 -2576 0
-3138 2371 -2577 0
-3139 3138 0
-3139 -2371 2577 0
-3139 2371 -2577 0
3139 -3138 2371 2577 0
3139 -3138 -2371 -2577 0
-3139 2372 -2578 0
-3140 3139 0
-3140 -2372 2578 0
-3140 2372 -2578 0
3140 -3139 2372 2578 0
3140 -3139 -2372 -2578 0
-3140 2373 -2579 0
-3141 3140 0
-3141 -2373 2579 0
-3141 2373 -2579 0
3141 -3140 2373 2579 0
3141 -3140 -2373 -2579 0
-3141 2374 -2580 0
-3142 3141 0
-3142 -2374 2580 0
-3142 2374 -2580 0
3142 -3141 2374 2580 0
3142 -3141 -2374 -2580 0
-3142 2464 -2670 0
-3143 3142 0
-3143 -2464 2670 0
-3143 2464 -2670 0
3143 -3142 2464 2670 0
3143 -3142 -2464 -2670 0
-3143 2465 -2671 0
-3144 3143 0
-3144 -2465 2671 0
-3144 2465 -2671 0
3144 -3143 2465 2671 0
3144 -3143 -2465 -2671 0
-3144 2466 -2672 0
-3145 3144 0
-3145 -2466 2672 0
-3145 2466 -2672 0
3145 -3144 2466 2672 0
3145 -3144 -2466 -2672 0
-3145 2467 -2673 0
-3146 3145 0
-3146 -2467 2673 0
-3146 2467 -2673 0
3146 -3145 2467 2673 0
3146 -3145 -2467 -2673 0
-3146 2468 -2674 0
-3147 3146 0
-3147 -2468 2674 0
-3147 2468 -2674 0
3147 -3146 2468 2674 0
3147 -3146 -2468 -2674 0
-3147 2469 -2675 0
-3148 3147 0
-3148 -2469 2675 0
-3148 2469 -2675 0
3148 -3147 2469 2675 0
3148 -3147 -2469 -2675 0
-3148 2470 -2676 0
-3149 3148 0
-3149 -2470 2676 0
-3149 2470 -2676 0
3149 -3148 2470 2676 0
3149 -3148 -2470 -2676 0
-3149 2471 -2677 0
-3150 3149 0
-3150 -2471 2677 0
-3150 2471 -2677 0
3150 -3149 2471 2677 0
3150 -3149 -2471 -2677 0
-3150 2472 -2678 0
-3151 3150 0
-3151 -2472 2678 0
-3151 2472 -2678 0
3151 -3150 2472 2678 0
3151 -3150 -2472 -2678 0
-3151 2473 -2679 0
-3152 3151 0
-3152 -2473 2679 0
-3152 2473 -2679 0
3152 -3151 2473 2679 0
3152 -3151 -2473 -2679 0
-3152 2474 -2680 0
-3153 3152 0
-3153 -2474 2680 0
-3153 2474 -2680 0
3153 -3152 2474 2680 0
3153 -3152 -2474 -2680 0
-3153 2475 -2681 0
-3154 3153 0
-3154 -2475 2681 0
-3154 2475 -2681 0
3154 -3153 2475 2681 0
3154 -3153 -2475 -2681 0
-3154 2476 -2682 0
-3155 3154 0
-3155 -2476 2682 0
-3155 2476 -2682 0
3155 -3154 2476 2682 0
3155 -3154 -2476 -2682 0
-3155 2477 -2683 0
-3156 3155 0
-3156 -2477 2683 0
-3156 2477 -2683 0
3156 -3155 2477 2683 0
3156 -3155 -2477 -2683 0
-3156 2567 -1537 0
-3157 3156 0
-3157 -2567 1537 0
-3157 2567 -1537 0
3157 -3156 2567 1537 0
3157 -3156 -2567 -1537 0
-3157 2568 -1538 0
-3158 3157 0
-3158 -2568 1538 0
-3158 2568 -1538 0
3158 -3157 2568 1538 0
3158 -3157 -2568 -1538 0
-3158 2569 -1539 0
-3159 3158 0
-3159 -2569 1539 0
-3159 2569 -1539 0
3159 -3158 2569 1539 0
3159 -3158 -2569 -1539 0
-3159 2570 -1540 0
-3160 3159 0
-3160 -2570 1540 0
-3160 2570 -1540 0
3160 -3159 2570 1540 0
3160 -3159 -2570 -1540 0
-3160 2571 -1541 0
-3161 3160 0
-3161 -2571 1541 0
-3161 2571 -1541 0
3161 -3160 2571 1541 0
3161 -3160 -2571 -1541 0
-3161 2572 -1542 0
-3162 3161 0
-3162 -2572 1542 0
-3162 2572 -1542 0
3162 -3161 2572 1542 0
3162 -3161 -2572 -1542 0
-3162 2573 -1543 0
-3163 3162 0
-3163 -2573 1543 0
-3163 2573 -1543 0
3163 -3162 2573 1543 0
3163 -3162 -2573 -1543 0
-3163 2574 -1544 0
-3164 3163 0
-3164 -2574 1544 0
-3164 2574 -1544 0
3164 -3163 2574 1544 0
3164 -3163 -2574 -1544 0
-3164 2575 -1545 0
-3165 3164 0
-3165 -2575 1545 0
-3165 2575 -1545 0
3165 -3164 2575 1545 0
3165 -3164 -2575 -1545 0
-3165 2576 -1546 0
-3166 3165 0
-3166 -2576 1546 0
-3166 2576 -1546 0
3166 -3165 2576 1546 0
3166 -3165 -2576 -1546 0
-3166 2577 -1547 0
-3167 3166 0
-3167 -2577 1547 0
-3167 2577 -1547 0
3167 -3166 2577 1547 0
3167 -3166 -2577 -1547 0
-3167 2578 -1548 0
-3168 3167 0
-3168 -2578 1548 0
-3168 2578 -1548 0
3168 -3167 2578 1548 0
3168 -3167 -2578 -1548 0
-3168 2579 -1549 0
-3169 3168 0
-3169 -2579 1549 0
-3169 2579 -1549 0
3169 -3168 2579 1549 0
3169 -3168 -2579 -1549 0
-3169 2580 -1550 0
-3170 3169 0
-3170 -2580 1550 0
-3170 2580 -1550 0
3170 -3169 2580 1550 0
3170 -3169 -2580 -1550 0
-3170 2670 -1640 0
-3171 3170 0
-3171 -2670 1640 0
-3171 2670 -1640 0
3171 -3170 2670 1640 0
3171 -3170 -2670 -1640 0
-3171 2671 -1641 0
-3172 3171 0
-3172 -2671 1641 0
-3172 2671 -1641 0
3172 -3171 2671 1641 0
3172 -3171 -2671 -1641 0
-3172 2672 -1642 0
-3173 3172 0
-3173 -2672 1642 0
-3173 2672 -1642 0
3173 -3172 2672 1642 0
3173 -3172 -2672 -1642 0
-3173 2673 -1643 0
-3174 3173 0
-3174 -2673 1643 0
-3174 2673 -1643 0
3174 -3173 2673 1643 0
3174 -3173 -2673 -1643 0
-3174 2674 -1644 0
-3175 3174 0
-3175 -2674 1644 0
-3175 2674 -1644 0
3175 -3174 2674 1644 0
3175 -3174 -2674 -1644 0
-3175 2675 -1645 0
-3176 3175 0
-3176 -2675 1645 0
-3176 2675 -1645 0
3176 -3175 2675 1645 0
3176 -3175 -2675 -1645 0
-3176 2676 -1646 0
-3177 3176 0
-3177 -2676 1646 0
-3177 2676 -1646 0
3177 -3176 2676 1646 0
3177 -3176 -2676 -1646 0
-3177 2677 -1647 0
-3178 3177 0
-3178 -2677 1647 0
-3178 2677 -1647 0
3178 -3177 2677 1647 0
3178 -3177 -2677 -1647 0
-3178 2678 -1648 0
-3179 3178 0
-3179 -2678 1648 0
-3179 2678 -1648 0
3179 -3178 2678 1648 0
3179 -3178 -2678 -1648 0
-3179 2679 -1649 0
-3180 3179 0
-3180 -2679 1649 0
-3180 2679 -1649 0
3180 -3179 2679 1649 0
3180 -3179 -2679 -1649 0
-3180 2680 -1650 0
-3181 3180 0
-3181 -2680 1650 0
-3181 2680 -1650 0
3181 -3180 2680 1650 0
3181 -3180 -2680 -1650 0
-3181 2681 -1651 0
-3182 3181 0
-3182 -2681 1651 0
-3182 2681 -1651 0
3182 -3181 2681 1651 0
3182 -3181 -2681 -1651 0
-3182 2682 -1652 0
-3183 3182 0
-3183 -2682 1652 0
-3183 2682 -1652 0
3183 -3182 2682 1652 0
3183 -3182 -2682 -1652 0
-3183 2683 -1653 0
1537 -1846 0
-3184 -1537 1846 0
-3184 1537 -1846 0
3184 1537 1846 0
3184 -1537 -1846 0
-3184 1538 -1847 0
-3185 3184 0
-3185 -1538 1847 0
-3185 1538 -1847 0
3185 -3184 1538 1847 0
3185 -3184 -1538 -1847 0
-3185 1539 -1848 0
-3186 3185 0
-3186 -1539 1848 0
-3186 1539 -1848 0
3186 -3185 1539 1848 0
3186 -3185 -1539 -1848 0
-3186 1540 -1849 0
-3187 3186 0
-3187 -1540 1849 0
-3187 1540 -1849 0
3187 -3186 1540 1849 0
3187 -3186 -1540 -1849 0
-3187 1541 -1850 0
-3188 3187 0
-3188 -1541 1850 0
-3188 1541 -1850 0
3188 -3187 1541 1850 0
3188 -3187 -1541 -1850 0
-3188 1542 -1851 0
-3189 3188 0
-3189 -1542 1851 0
-3189 1542 -1851 0
3189 -3188 1542 1851 0
3189 -3188 -1542 -1851 0
-3189 1543 -1852 0
-3190 3189 0
-3190 -1543 1852 0
-3190 1543 -1852 0
3190 -3189 1543 1852 0
3190 -3189 -1543 -1852 0
-3190 1544 -1853 0
-3191 3190 0
-3191 -1544 1853 0
-3191 1544 -1853 0
3191 -3190 1544 1853 0
3191 -3190 -1544 -1853 0
-3191 1545 -1854 0
-3192 3191 0
-3192 -1545 1854 0
-3192 1545 -1854 0
3192 -3191 1545 1854 0
3192 -3191 -1545 -1854 0
-3192 1546 -1855 0
-3193 3192 0
-3193 -1546 1855 0
-3193 1546 -1855 0
3193 -3192 1546 1855 0
3193 -3192 -1546 -1855 0
-3193 1547 -1856 0
-3194 3193 0
-3194 -1547 1856 0
-3194 1547 -1856 0
3194 -3193 1547 1856 0
3194 -3193 -1547 -1856 0
-3194 1548 -1857 0
-3195 3194 0
-3195 -1548 1857 0
-3195 1548 -1857 0
3195 -3194 1548 1857 0
3195 -3194 -1548 -1857 0
-3195 1549 -1858 0
-3196 3195 0
-3196 -1549 1858 0
-3196 1549 -1858 0
3196 -3195 1549 1858 0
3196 -3195 -1549 -1858 0
-3196 1550 -1859 0
-3197 3196 0
-3197 -1550 1859 0
-3197 1550 -1859 0
3197 -3196 1550 1859 0
3197 -3196 -1550 -1859 0
-3197 1640 -1949 0
-3198 3197 0
-3198 -1640 1949 0
-3198 1640 -1949 0
3198 -3197 1640 1949 0
3198 -3197 -1640 -1949 0
-3198 1641 -1950 0
-3199 3198 0
-3199 -1641 1950 0
-3199 1641 -1950 0
3199 -3198 1641 1950 0
3199 -3198 -1641 -1950 0
-3199 1642 -1951 0
-3200 3199 0
-3200 -1642 1951 0
-3200 1642 -1951 0
3200 -3199 1642 1951 0
3200 -3199 -1642 -1951 0
-3200 1643 -1952 0
-3201 3200 0
-3201 -1643 1952 0
-3201 1643 -1952 0
3201 -3200 1643 1952 0
3201 -3200 -1643 -1952 0
-3201 1644 -1953 0
-3202 3201 0
-3202 -1644 1953 0
-3202 1644 -1953 0
3202 -3201 1644 1953 0
3202 -3201 -1644 -1953 0
-3202 1645 -1954 0
-3203 3202 0
-3203 -1645 1954 0
-3203 1645 -1954 0
3203 -3202 1645 1954 0
3203 -3202 -1645 -1954 0
-3203 1646 -1955 0
-3204 3203 0
-3204 -1646 1955 0
-3204 1646 -1955 0
3204 -3203 1646 1955 0
3204 -3203 -1646 -1955 0
-3204 1647 -1956 0
-3205 3204 0
-3205 -1647 1956 0
-3205 1647 -1956 0
3205 -3204 1647 1956 0
3205 -3204 -1647 -1956 0
-3205 1648 -1957 0
-3206 3205 0
-3206 -1648 1957 0
-3206 1648 -1957 0
3206 -3205 1648 1957 0
3206 -3205 -1648 -1957 0
-3206 1649 -1958 0
-3207 3206 0
-3207 -1649 1958 0
-3207 1649 -1958 0
3207 -3206 1649 1958 0
3207 -3206 -1649 -1958 0
-3207 1650 -1959 0
-3208 3207 0
-3208 -1650 1959 0
-3208 1650 -1959 0
3208 -3207 1650 1959 0
3208 -3207 -1650 -1959 0
-3208 1651 -1960 0
-3209 3208 0
-3209 -1651 1960 0
-3209 1651 -1960 0
3209 -3208 1651 1960 0
3209 -3208 -1651 -1960 0
-3209 1652 -1961 0
-3210 3209 0
-3210 -1652 1961 0
-3210 1652 -1961 0
3210 -3209 1652 1961 0
3210 -3209 -1652 -1961 0
-3210 1653 -1962 0
-3211 3210 0
-3211 -1653 1962 0
-3211 1653 -1962 0
3211 -3210 1653 1962 0
3211 -3210 -1653 -1962 0
-3211 1743 -2052 0
-3212 3211 0
-3212 -1743 2052 0
-3212 1743 -2052 0
3212 -3211 1743 2052 0
3212 -3211 -1743 -2052 0
-3212 1744 -2053 0
-3213 3212 0
-3213 -1744 2053 0
-3213 1744 -2053 0
3213 -3212 1744 2053 0
3213 -3212 -1744 -2053 0
-3213 1745 -2054 0
-3214 3213 0
-3214 -1745 2054 0
-3214 1745 -2054 0
3214 -3213 1745 2054 0
3214 -3213 -1745 -2054 0
-3214 1746 -2055 0
-3215 3214 0
-3215 -1746 2055 0
-3215 1746 -2055 0
3215 -3214 1746 2055 0
3215 -3214 -1746 -2055 0
-3215 1747 -2056 0
-3216 3215 0
-3216 -1747 2056 0
-3216 1747 -2056 0
3216 -3215 1747 2056 0
3216 -3215 -1747 -2056 0
-3216 1748 -2057 0
-3217 3216 0
-3217 -1748 2057 0
-3217 1748 -2057 0
3217 -3216 1748 2057 0
3217 -3216 -1748 -2057 0
-3217 1749 -2058 0
-3218 3217 0
-3218 -1749 2058 0
-3218 1749 -2058 0
3218 -3217 1749 2058 0
3218 -3217 -1749 -2058 0
-3218 1750 -2059 0
-3219 3218 0
-3219 -1750 2059 0
-3219 1750 -2059 0
3219 -3218 1750 2059 0
3219 -3218 -1750 -2059 0
-3219 1751 -2060 0
-3220 3219 0
-3220 -1751 2060 0
-3220 1751 -2060 0
3220 -3219 1751 2060 0
3220 -3219 -1751 -2060 0
-3220 1752 -2061 0
-3221 3220 0
-3221 -1752 2061 0
-3221 1752 -2061 0
3221 -3220 1752 2061 0
3221 -3220 -1752 -2061 0
-3221 1753 -2062 0
-3222 3221 0
-3222 -1753 2062 0
-3222 1753 -2062 0
3222 -3221 1753 2062 0
3222 -3221 -1753 -2062 0
-3222 1754 -2063 0
-3223 3222 0
-3223 -1754 2063 0
-3223 1754 -2063 0
3223 -3222 1754 2063 0
3223 -3222 -1754 -2063 0
-3223 1755 -2064 0
-3224 3223 0
-3224 -1755 2064 0
-3224 1755 -2064 0
3224 -3223 1755 2064 0
3224 -3223 -1755 -2064 0
-3224 1756 -2065 0
-3225 3224 0
-3225 -1756 2065 0
-3225 1756 -2065 0
3225 -3224 1756 2065 0
3225 -3224 -1756 -2065 0
-3225 1846 -2155 0
-3226 3225 0
-3226 -1846 2155 0
-3226 1846 -2155 0
3226 -3225 1846 2155 0
3226 -3225 -1846 -2155 0
-3226 1847 -2156 0
-3227 3226 0
-3227 -1847 2156 0
-3227 1847 -2156 0
3227 -3226 1847 2156 0
3227 -3226 -1847 -2156 0
-3227 1848 -2157 0
-3228 3227 0
-3228 -1848 2157 0
-3228 1848 -2157 0
3228 -3227 1848 2157 0
3228 -3227 -1848 -2157 0
-3228 1849 -2158 0
-3229 3228 0
-3229 -1849 2158 0
-3229 1849 -2158 0
3229 -3228 1849 2158 0
3229 -3228 -1849 -2158 0
-3229 1850 -2159 0
-3230 3229 0
-3230 -1850 2159 0
-3230 1850 -2159 0
3230 -3229 1850 2159 0
3230 -3229 -1850 -2159 0
-3230 1851 -2160 0
-3231 3230 0
-3231 -1851 2160 0
-3231 1851 -2160 0
3231 -3230 1851 2160 0
3231 -3230 -1851 -2160 0
-3231 1852 -2161 0
-3232 3231 0
-3232 -1852 2161 0
-3232 1852 -2161 0
3232 -3231 1852 2161 0
3232 -3231 -1852 -2161 0
-3232 1853 -2162 0
-3233 3232 0
-3233 -1853 2162 0
-3233 1853 -2162 0
3233 -3232 1853 2162 0
3233 -3232 -1853 -2162 0
-3233 1854 -2163 0
-3234 3233 0
-3234 -1854 2163 0
-3234 1854 -2163 0
3234 -3233 1854 2163 0
3234 -3233 -1854 -2163 0
-3234 1855 -2164 0
-3235 3234 0
-3235 -1855 2164 0
-3235 1855 -2164 0
3235 -3234 1855 2164 0
3235 -3234 -1855 -2164 0
-3235 1856 -2165 0
-3236 3235 0
-3236 -1856 2165 0
-3236 1856 -2165 0
3236 -3235 1856 2165 0
3236 -3235 -1856 -2165 0
-3236 1857 -2166 0
-3237 3236 0
-3237 -1857 2166 0
-3237 1857 -2166 0
3237 -3236 1857 2166 0
3237 -3236 -1857 -2166 0
-3237 1858 -2167 0
-3238 3237 0
-3238 -1858 2167 0
-3238 1858 -2167 0
3238 -3237 1858 2167 0
3238 -3237 -1858 -2167 0
-3238 1859 -2168 0
-3239 3238 0
-3239 -1859 2168 0
-3239 1859 -2168 0
3239 -3238 1859 2168 0
3239 -3238 -1859 -2168 0
-3239 1949 -2258 0
-3240 3239 0
-3240 -1949 2258 0
-3240 1949 -2258 0
3240 -3239 1949 2258 0
3240 -3239 -1949 -2258 0
-3240 1950 -2259 0
-3241 3240 0
-3241 -1950 2259 0
-3241 1950 -2259 0
3241 -3240 1950 2259 0
3241 -3240 -1950 -2259 0
-3241 1951 -2260 0
-3242 3241 0
-3242 -1951 2260 0
-3242 1951 -2260 0
3242 -3241 1951 2260 0
3242 -3241 -1951 -2260 0
-3242 1952 -2261 0
-3243 3242 0
-3243 -1952 2261 0
-3243 1952 -2261 0
3243 -3242 1952 2261 0
3243 -3242 -1952 -2261 0
-3243 1953 -2262 0
-3244 3243 0
-3244 -1953 2262 0
-3244 1953 -2262 0
3244 -3243 1953 2262 0
3244 -3243 -1953 -2262 0
-3244 1954 -2263 0
-3245 3244 0
-3245 -1954 2263 0
-3245 1954 -2263 0
3245 -3244 1954 2263 0
3245 -3244 -1954 -2263 0
-3245 1955 -2264 0
-3246 3245 0
-3246 -1955 2264 0
-3246 1955 -2264 0
3246 -3245 1955 2264 0
3246 -3245 -1955 -2264 0
-3246 1956 -2265 0
-3247 3246 0
-3247 -1956 2265 0
-3247 1956 -2265 0
3247 -3246 1956 2265 0
3247 -3246 -1956 -2265 0
-3247 1957 -2266 0
-3248 3247 0
-3248 -1957 2266 0
-3248 1957 -2266 0
3248 -3247 1957 2266 0
3248 -3247 -1957 -2266 0
-3248 1958 -2267 0
-3249 3248 0
-3249 -1958 2267 0
-3249 1958 -2267 0
3249 -3248 1958 2267 0
3249 -3248 -1958 -2267 0
-3249 1959 -2268 0
-3250 3249 0
-3250 -1959 2268 0
-3250 1959 -2268 0
3250 -3249 1959 2268 0
3250 -3249 -1959 -2268 0
-3250 1960 -2269 0
-3251 3250 0
-3251 -1960 2269 0
-3251 1960 -2269 0
3251 -3250 1960 2269 0
3251 -3250 -1960 -2269 0
-3251 1961 -2270 0
-3252 3251 0
-3252 -1961 2270 0
-3252 1961 -2270 0
3252 -3251 1961 2270 0
3252 -3251 -1961 -2270 0
-3252 1962 -2271 0
-3253 3252 0
-3253 -1962 2271 0
-3253 1962 -2271 0
3253 -3252 1962 2271 0
3253 -3252 -1962 -2271 0
-3253 2052 -2361 0
-3254 3253 0
-3254 -2052 2361 0
-3254 2052 -2361 0
3254 -3253 2052 2361 0
3254 -3253 -2052 -2361 0
-3254 2053 -2362 0
-3255 3254 0
-3255 -2053 2362 0
-3255 2053 -2362 0
3255 -3254 2053 2362 0
3255 -3254 -2053 -2362 0
-3255 2054 -2363 0
-3256 3255 0
-3256 -2054 2363 0
-3256 2054 -2363 0
3256 -3255 2054 2363 0
3256 -3255 -2054 -2363 0
-3256 2055 -2364 0
-3257 3256 0
-3257 -2055 2364 0
-3257 2055 -2364 0
3257 -3256 2055 2364 0
3257 -3256 -2055 -2364 0
-3257 2056 -2365 0
-3258 3257 0
-3258 -2056 2365 0
-3258 2056 -2365 0
3258 -3257 2056 2365 0
3258 -3257 -2056 -2365 0
-3258 2057 -2366 0
-3259 3258 0
-3259 -2057 2366 0
-3259 2057 -2366 0
3259 -3258 2057 2366 0
3259 -3258 -2057 -2366 0
-3259 2058 -2367 0
-3260 3259 0
-3260 -2058 2367 0
-3260 2058 -2367 0
3260 -3259 2058 2367 0
3260 -3259 -2058 -2367 0
-3260 2059 -2368 0
-3261 3260 0
-3261 -2059 2368 0
-3261 2059 -2368 0
3261 -3260 2059 2368 0
3261 -3260 -2059 -2368 0
-3261 2060 -2369 0
-3262 3261 0
-3262 -2060 2369 0
-3262 2060 -2369 0
3262 -3261 2060 2369 0
3262 -3261 -2060 -2369 0
-3262 2061 -2370 0
-3263 3262 0
-3263 -2061 2370 0
-3263 2061 -2370 0
3263 -3262 2061 2370 0
3263 -3262 -2061 -2370 0
-3263 2062 -2371 0
-3264 3263 0
-3264 -2062 2371 0
-3264 2062 -2371 0
3264 -3263 2062 2371 0
3264 -3263 -2062 -2371 0
-3264 2063 -2372 0
-3265 3264 0
-3265 -2063 2372 0
-3265 2063 -2372 0
3265 -3264 2063 2372 0
3265 -3264 -2063 -2372 0
-3265 2064 -2373 0
-3266 3265 0
-3266 -2064 2373 0
-3266 2064 -2373 0
3266 -3265 2064 2373 0
3266 -3265 -2064 -2373 0
-3266 2065 -2374 0
-3267 3266 0
-3267 -2065 2374 0
-3267 2065 -2374 0
3267 -3266 2065 2374 0
3267 -3266 -2065 -2374 0
-3267 2155 -2464 0
-3268 3267 0
-3268 -2155 2464 0
-3268 2155 -2464 0
3268 -3267 2155 2464 0
3268 -3267 -2155 -2464 0
-3268 2156 -2465 0
-3269 3268 0
-3269 -2156 2465 0
-3269 2156 -2465 0
3269 -3268 2156 2465 0
3269 -3268 -2156 -2465 0
-3269 2157 -2466 0
-3270 3269 0
-3270 -2157 2466 0
-3270 2157 -2466 0
3270 -3269 2157 2466 0
3270 -3269 -2157 -2466 0
-3270 2158 -2467 0
-3271 3270 0
-3271 -2158 2467 0
-3271 2158 -2467 0
3271 -3270 2158 2467 0
3271 -3270 -2158 -2467 0
-3271 2159 -2468 0
-3272 3271 0
-3272 -2159 2468 0
-3272 2159 -2468 0
3272 -3271 2159 2468 0
3272 -3271 -2159 -2468 0
-3272 2160 -2469 0
-3273 3272 0
-3273 -2160 2469 0
-3273 2160 -2469 0
3273 -3272 2160 2469 0
3273 -3272 -2160 -2469 0
-3273 2161 -2470 0
-3274 3273 0
-3274 -2161 2470 0
-3274 2161 -2470 0
3274 -3273 2161 2470 0
3274 -3273 -2161 -2470 0
-3274 2162 -2471 0
-3275 3274 0
-3275 -2162 2471 0
-3275 2162 -2471 0
3275 -3274 2162 2471 0
3275 -3274 -2162 -2471 0
-3275 2163 -2472 0
-3276 3275 0
-3276 -2163 2472 0
-3276 2163 -2472 0
3276 -3275 2163 2472 0
3276 -3275 -2163 -2472 0
-3276 2164 -2473 0
-3277 3276 0
-3277 -2164 2473 0
-3277 2164 -2473 0
3277 -3276 2164 2473 0
3277 -3276 -2164 -2473 0
-3277 2165 -2474 0
-3278 3277 0
-3278 -2165 2474 0
-3278 2165 -2474 0
3278 -3277 2165 2474 0
3278 -3277 -2165 -2474 0
-3278 2166 -2475 0
-3279 3278 0
-3279 -2166 2475 0
-3279 2166 -2475 0
3279 -3278 2166 2475 0
3279 -3278 -2166 -2475 0
-3279 2167 -2476 0
-3280 3279 0
-3280 -2167 2476 0
-3280 2167 -2476 0
3280 -3279 2167 2476 0
3280 -3279 -2167 -2476 0
-3280 2168 -2477 0
-3281 3280 0
-3281 -2168 2477 0
-3281 2168 -2477 0
3281 -3280 2168 2477 0
3281 -3280 -2168 -2477 0
-3281 2258 -2567 0
-3282 3281 0
-3282 -2258 2567 0
-3282 2258 -2567 0
3282 -3281 2258 2567 0
3282 -3281 -2258 -2567 0
-3282 2259 -2568 0
-3283 3282 0
-3283 -2259 2568 0
-3283 2259 -2568 0
3283 -3282 2259 2568 0
3283 -3282 -2259 -2568 0
-3283 2260 -2569 0
-3284 3283 0
-3284 -2260 2569 0
-3284 2260 -2569 0
3284 -3283 2260 2569 0
3284 -3283 -2260 -2569 0
-3284 2261 -2570 0
-3285 3284 0
-3285 -2261 2570 0
-3285 2261 -2570 0
3285 -3284 2261 2570 0
3285 -3284 -2261 -2570 0
-3285 2262 -2571 0
-3286 3285 0
-3286 -2262 2571 0
-3286 2262 -2571 0
3286 -3285 2262 2571 0
3286 -3285 -2262 -2571 0
-3286 2263 -2572 0
-3287 3286 0
-3287 -2263 2572 0
-3287 2263 -2572 0
3287 -3286 2263 2572 0
3287 -3286 -2263 -2572 0
-3287 2264 -2573 0
-3288 3287 0
-3288 -2264 2573 0
-3288 2264 -2573 0
3288 -3287 2264 2573 0
3288 -3287 -2264 -2573 0
-3288 2265 -2574 0
-3289 3288 0
-3289 -2265 2574 0
-3289 2265 -2574 0
3289 -3288 2265 2574 0
3289 -3288 -2265 -2574 0
-3289 2266 -2575 0
-3290 3289 0
-3290 -2266 2575 0
-3290 2266 -2575 0
3290 -3289 2266 2575 0
3290 -3289 -2266 -2575 0
-3290 2267 -2576 0
-3291 3290 0
-3291 -2267 2576 0
-3291 2267 -2576 0
3291 -3290 2267 2576 0
3291 -3290 -2267 -2576 0
-3291 2268 -2577 0
-3292 3291 0
-3292 -2268 2577 0
-3292 2268 -2577 0
3292 -3291 2268 2577 0
3292 -3291 -2268 -2577 0
-3292 2269 -2578 0
-3293 3292 0
-3293 -2269 2578 0
-3293 2269 -2578 0
3293 -3292 2269 2578 0
3293 -3292 -2269 -2578 0
-3293 2270 -2579 0
-3294 3293 0
-3294 -2270 2579 0
-3294 2270 -2579 0
3294 -3293 2270 2579 0
3294 -3293 -2270 -2579 0
-3294 2271 -2580 0
-3295 3294 0
-3295 -2271 2580 0
-3295 2271 -2580 0
3295 -3294 2271 2580 0
3295 -3294 -2271 -2580 0
-3295 2361 -2670 0
-3296 3295 0
-3296 -2361 2670 0
-3296 2361 -2670 0
3296 -3295 2361 2670 0
3296 -3295 -2361 -2670 0
-3296 2362 -2671 0
-3297 3296 0
-3297 -2362 2671 0
-3297 2362 -2671 0
3297 -3296 2362 2671 0
3297 -3296 -2362 -2671 0
-3297 2363 -2672 0
-3298 3297 0
-3298 -2363 2672 0
-3298 2363 -2672 0
3298 -3297 2363 2672 0
3298 -3297 -2363 -2672 0
-3298 2364 -2673 0
-3299 3298 0
-3299 -2364 2673 0
-3299 2364 -2673 0
3299 -3298 2364 2673 0
3299 -3298 -2364 -2673 0
-3299 2365 -2674 0
-3300 3299 0
-3300 -2365 2674 0
-3300 2365 -2674 0
3300 -3299 2365 2674 0
3300 -3299 -2365 -2674 0
-3300 2366 -2675 0
-3301 3300 0
-3301 -2366 2675 0
-3301 2366 -2675 0
3301 -3300 2366 2675 0
3301 -3300 -2366 -2675 0
-3301 2367 -2676 0
-3302 3301 0
-3302 -2367 2676 0
-3302 2367 -2676 0
3302 -3301 2367 2676 0
3302 -3301 -2367 -2676 0
-3302 2368 -2677 0
-3303 3302 0
-3303 -2368 2677 0
-3303 2368 -2677 0
3303 -3302 2368 2677 0
3303 -3302 -2368 -2677 0
-3303 2369 -2678 0
-3304 3303 0
-3304 -2369 2678 0
-3304 2369 -2678 0
3304 -3303 2369 2678 0
3304 -3303 -2369 -2678 0
-3304 2370 -2679 0
-3305 3304 0
-3305 -2370 2679 0
-3305 2370 -2679 0
3305 -3304 2370 2679 0
3305 -3304 -2370 -2679 0
-3305 2371 -2680 0
-3306 3305 0
-3306 -2371 2680 0
-3306 2371 -2680 0
3306 -3305 2371 2680 0
3306 -3305 -2371 -2680 0
-3306 2372 -2681 0
-3307 3306 0
-3307 -2372 2681 0
-3307 2372 -2681 0
3307 -3306 2372 2681 0
3307 -3306 -2372 -2681 0
-3307 2373 -2682 0
-3308 3307 0
-3308 -2373 2682 0
-3308 2373 -2682 0
3308 -3307 2373 2682 0
3308 -3307 -2373 -2682 0
-3308 2374 -2683 0
-3309 3308 0
-3309 -2374 2683 0
-3309 2374 -2683 0
3309 -3308 2374 2683 0
3309 -3308 -2374 -2683 0
-3309 2464 -1537 0
-3310 3309 0
-3310 -2464 1537 0
-3310 2464 -1537 0
3310 -3309 2464 1537 0
3310 -3309 -2464 -1537 0
-3310 2465 -1538 0
-3311 3310 0
-3311 -2465 1538 0
-3311 2465 -1538 0
3311 -3310 2465 1538 0
3311 -3310 -2465 -1538 0
-3311 2466 -1539 0
-3312 3311 0
-3312 -2466 1539 0
-3312 2466 -1539 0
3312 -3311 2466 1539 0
3312 -3311 -2466 -1539 0
-3312 2467 -1540 0
-3313 3312 0
-3313 -2467 1540 0
-3313 2467 -1540 0
3313 -3312 2467 1540 0
3313 -3312 -2467 -1540 0
-3313 2468 -1541 0
-3314 3313 0
-3314 -2468 1541 0
-3314 2468 -1541 0
3314 -3313 2468 1541 0
3314 -3313 -2468 -1541 0
-3314 2469 -1542 0
-3315 3314 0
-3315 -2469 1542 0
-3315 2469 -1542 0
3315 -3314 2469 1542 0
3315 -3314 -2469 -1542 0
-3315 2470 -1543 0
-3316 3315 0
-3316 -2470 1543 0
-3316 2470 -1543 0
3316 -3315 2470 1543 0
3316 -3315 -2470 -1543 0
-3316 2471 -1544 0
-3317 3316 0
-3317 -2471 1544 0
-3317 2471 -1544 0
3317 -3316 2471 1544 0
3317 -3316 -2471 -1544 0
-3317 2472 -1545 0
-3318 3317 0
-3318 -2472 1545 0
-3318 2472 -1545 0
3318 -3317 2472 1545 0
3318 -3317 -2472 -1545 0
-3318 2473 -1546 0
-3319 3318 0
-3319 -2473 1546 0
-3319 2473 -1546 0
3319 -3318 2473 1546 0
3319 -3318 -2473 -1546 0
-3319 2474 -1547 0
-3320 3319 0
-3320 -2474 1547 0
-3320 2474 -1547 0
3320 -3319 2474 1547 0
3320 -3319 -2474 -1547 0
-3320 2475 -1548 0
-3321 3320 0
-3321 -2475 1548 0
-3321 2475 -1548 0
3321 -3320 2475 1548 0
3321 -3320 -2475 -1548 0
-3321 2476 -1549 0
-3322 3321 0
-3322 -2476 1549 0
-3322 2476 -1549 0
3322 -3321 2476 1549 0
3322 -3321 -2476 -1549 0
-3322 2477 -1550 0
-3323 3322 0
-3323 -2477 1550 0
-3323 2477 -1550 0
3323 -3322 2477 1550 0
3323 -3322 -2477 -1550 0
-3323 2567 -1640 0
-3324 3323 0
-3324 -2567 1640 0
-3324 2567 -1640 0
3324 -3323 2567 1640 0
3324 -3323 -2567 -1640 0
-3324 2568 -1641 0
-3325 3324 0
-3325 -2568 1641 0
-3325 2568 -1641 0
3325 -3324 2568 1641 0
3325 -3324 -2568 -1641 0
-3325 2569 -1642 0
-3326 3325 0
-3326 -2569 1642 0
-3326 2569 -1642 0
3326 -3325 2569 1642 0
3326 -3325 -2569 -1642 0
-3326 2570 -1643 0
-3327 3326 0
-3327 -2570 1643 0
-3327 2570 -1643 0
3327 -3326 2570 1643 0
3327 -3326 -2570 -1643 0
-3327 2571 -1644 0
-3328 3327 0
-3328 -2571 1644 0
-3328 2571 -1644 0
3328 -3327 2571 1644 0
3328 -3327 -2571 -1644 0
-3328 2572 -1645 0
-3329 3328 0
-3329 -2572 1645 0
-3329 2572 -1645 0
3329 -3328 2572 1645 0
3329 -3328 -2572 -1645 0
-3329 2573 -1646 0
-3330 3329 0
-3330 -2573 1646 0
-3330 2573 -1646 0
3330 -3329 2573 1646 0
3330 -3329 -2573 -1646 0
-3330 2574 -1647 0
-3331 3330 0
-3331 -2574 1647 0
-3331 2574 -1647 0
3331 -3330 2574 1647 0
3331 -3330 -2574 -1647 0
-3331 2575 -1648 0
-3332 3331 0
-3332 -2575 1648 0
-3332 2575 -1648 0
3332 -3331 2575 1648 0
3332 -3331 -2575 -1648 0
-3332 2576 -1649 0
-3333 3332 0
-3333 -2576 1649 0
-3333 2576 -1649 0
3333 -3332 2576 1649 0
3333 -3332 -2576 -1649 0
-3333 2577 -1650 0
-3334 3333 0
-3334 -2577 1650 0
-3334 2577 -1650 0
3334 -3333 2577 1650 0
3334 -3333 -2577 -1650 0
-3334 2578 -1651 0
-3335 3334 0
-3335 -2578 1651 0
-3335 2578 -1651 0
3335 -3334 2578 1651 0
3335 -3334 -2578 -1651 0
-3335 2579 -1652 0
-3336 3335 0
-3336 -2579 1652 0
-3336 2579 -1652 0
3336 -3335 2579 1652 0
3336 -3335 -2579 -1652 0
-3336 2580 -1653 0
-3337 3336 0
-3337 -2580 1653 0
-3337 2580 -1653 0
3337 -3336 2580 1653 0
3337 -3336 -2580 -1653 0
-3337 2670 -1743 0
-3338 3337 0
-3338 -2670 1743 0
-3338 2670 -1743 0
3338 -3337 2670 1743 0
3338 -3337 -2670 -1743 0
-3338 2671 -1744 0
-3339 3338 0
-3339 -2671 1744 0
-3339 2671 -1744 0
3339 -3338 2671 1744 0
3339 -3338 -2671 -1744 0
-3339 2672 -1745 0
-3340 3339 0
-3340 -2672 1745 0
-3340 2672 -1745 0
3340 -3339 2672 1745 0
3340 -3339 -2672 -1745 0
-3340 2673 -1746 0
-3341 3340 0
-3341 -2673 1746 0
-3341 2673 -1746 0
3341 -3340 2673 1746 0
3341 -3340 -2673 -1746 0
-3341 2674 -1747 0
-3342 3341 0
-3342 -2674 1747 0
-3342 2674 -1747 0
3342 -3341 2674 1747 0
3342 -3341 -2674 -1747 0
-3342 2675 -1748 0
-3343 3342 0
-3343 -2675 1748 0
-3343 2675 -1748 0
3343 -3342 2675 1748 0
3343 -3342 -2675 -1748 0
-3343 2676 -1749 0
-3344 3343 0
-3344 -2676 1749 0
-3344 2676 -1749 0
3344 -3343 2676 1749 0
3344 -3343 -2676 -1749 0
-3344 2677 -1750 0
-3345 3344 0
-3345 -2677 1750 0
-3345 2677 -1750 0
3345 -3344 2677 1750 0
3345 -3344 -2677 -1750 0
-3345 2678 -1751 0
-3346 3345 0
-3346 -2678 1751 0
-3346 2678 -1751 0
3346 -3345 2678 1751 0
3346 -3345 -2678 -1751 0
-3346 2679 -1752 0
-3347 3346 0
-3347 -2679 1752 0
-3347 2679 -1752 0
3347 -3346 2679 1752 0
3347 -3346 -2679 -1752 0
-3347 2680 -1753 0
-3348 3347 0
-3348 -2680 1753 0
-3348 2680 -1753 0
3348 -3347 2680 1753 0
3348 -3347 -2680 -1753 0
-3348 2681 -1754 0
-3349 3348 0
-3349 -2681 1754 0
-3349 2681 -1754 0
3349 -3348 2681 1754 0
3349 -3348 -2681 -1754 0
-3349 2682 -1755 0
-3350 3349 0
-3350 -2682 1755 0
-3350 2682 -1755 0
3350 -3349 2682 1755 0
3350 -3349 -2682 -1755 0
-3350 2683 -1756 0
1537 -1949 0
-3351 -1537 1949 0
-3351 1537 -1949 0
3351 1537 1949 0
3351 -1537 -1949 0
-3351 1538 -1950 0
-3352 3351 0
-3352 -1538 1950 0
-3352 1538 -1950 0
3352 -3351 1538 1950 0
3352 -3351 -1538 -1950 0
-3352 1539 -1951 0
-3353 3352 0
-3353 -1539 1951 0
-3353 1539 -1951 0
3353 -3352 1539 1951 0
3353 -3352 -1539 -1951 0
-3353 1540 -1952 0
-3354 3353 0
-3354 -1540 1952 0
-3354 1540 -1952 0
3354 -3353 1540 1952 0
3354 -3353 -1540 -1952 0
-3354 1541 -1953 0
-3355 3354 0
-3355 -1541 1953 0
-3355 1541 -1953 0
3355 -3354 1541 1953 0
3355 -3354 -1541 -1953 0
-3355 1542 -1954 0
-3356 3355 0
-3356 -1542 1954 0
-3356 1542 -1954 0
3356 -3355 1542 1954 0
3356 -3355 -1542 -1954 0
-3356 1543 -1955 0
-3357 3356 0
-3357 -1543 1955 0
-3357 1543 -1955 0
3357 -3356 1543 1955 0
3357 -3356 -1543 -1955 0
-3357 1544 -1956 0
-3358 3357 0
-3358 -1544 1956 0
-3358 1544 -1956 0
3358 -3357 1544 1956 0
3358 -3357 -1544 -1956 0
-3358 1545 -1957 0
-3359 3358 0
-3359 -1545 1957 0
-3359 1545 -1957 0
3359 -3358 1545 1957 0
3359 -3358 -1545 -1957 0
-3359 1546 -1958 0
-3360 3359 0
-3360 -1546 1958 0
-3360 1546 -1958 0
3360 -3359 1546 1958 0
3360 -3359 -1546 -1958 0
-3360 1547 -1959 0
-3361 3360 0
-3361 -1547 1959 0
-3361 1547 -1959 0
3361 -3360 1547 1959 0
3361 -3360 -1547 -1959 0
-3361 1548 -1960 0
-3362 3361 0
-3362 -1548 1960 0
-3362 1548 -1960 0
3362 -3361 1548 1960 0
3362 -3361 -1548 -1960 0
-3362 1549 -1961 0
-3363 3362 0
-3363 -1549 1961 0
-3363 1549 -1961 0
3363 -3362 1549 1961 0
3363 -3362 -1549 -1961 0
-3363 1550 -1962 0
-3364 3363 0
-3364 -1550 1962 0
-3364 1550 -1962 0
3364 -3363 1550 1962 0
3364 -3363 -1550 -1962 0
-3364 1640 -2052 0
-3365 3364 0
-3365 -1640 2052 0
-3365 1640 -2052 0
3365 -3364 1640 2052 0
3365 -3364 -1640 -2052 0
-3365 1641 -2053 0
-3366 3365 0
-3366 -1641 2053 0
-3366 1641 -2053 0
3366 -3365 1641 2053 0
3366 -3365 -1641 -2053 0
-3366 1642 -2054 0
-3367 3366 0
-3367 -1642 2054 0
-3367 1642 -2054 0
3367 -3366 1642 2054 0
3367 -3366 -1642 -2054 0
-3367 1643 -2055 0
-3368 3367 0
-3368 -1643 2055 0
-3368 1643 -2055 0
3368 -3367 1643 2055 0
3368 -3367 -1643 -2055 0
-3368 1644 -2056 0
-3369 3368 0
-3369 -1644 2056 0
-3369 1644 -2056 0
3369 -3368 1644 2056 0
3369 -3368 -1644 -2056 0
-3369 1645 -2057 0
-3370 3369 0
-3370 -1645 2057 0
-3370 1645 -2057 0
3370 -3369 1645 2057 0
3370 -3369 -1645 -2057 0
-3370 1646 -2058 0
-3371 3370 0
-3371 -1646 2058 0
-3371 1646 -2058 0
3371 -3370 1646 2058 0
3371 -3370 -1646 -2058 0
-3371 1647 -2059 0
-3372 3371 0
-3372 -1647 2059 0
-3372 1647 -2059 0
3372 -3371 1647 2059 0
3372 -3371 -1647 -2059 0
-3372 1648 -2060 0
-3373 3372 0
-3373 -1648 2060 0
-3373 1648 -2060 0
3373 -3372 1648 2060 0
3373 -3372 -1648 -2060 0
-3373 1649 -2061 0
-3374 3373 0
-3374 -1649 2061 0
-3374 1649 -2061 0
3374 -3373 1649 2061 0
3374 -3373 -1649 -2061 0
-3374 1650 -2062 0
-3375 3374 0
-3375 -1650 2062 0
-3375 1650 -2062 0
3375 -3374 1650 2062 0
3375 -3374 -1650 -2062 0
-3375 1651 -2063 0
-3376 3375 0
-3376 -1651 2063 0
-3376 1651 -2063 0
3376 -3375 1651 2063 0
3376 -3375 -1651 -2063 0
-3376 1652 -2064 0
-3377 3376 0
-3377 -1652 2064 0
-3377 1652 -2064 0
3377 -3376 1652 2064 0
3377 -3376 -1652 -2064 0
-3377 1653 -2065 0
-3378 3377 0
-3378 -1653 2065 0
-3378 1653 -2065 0
3378 -3377 1653 2065 0
3378 -3377 -1653 -2065 0
-3378 1743 -2155 0
-3379 3378 0
-3379 -1743 2155 0
-3379 1743 -2155 0
3379 -3378 1743 2155 0
3379 -3378 -1743 -2155 0
-3379 1744 -2156 0
-3380 3379 0
-3380 -1744 2156 0
-3380 1744 -2156 0
3380 -3379 1744 2156 0
3380 -3379 -1744 -2156 0
-3380 1745 -2157 0
-3381 3380 0
-3381 -1745 2157 0
-3381 1745 -2157 0
3381 -3380 1745 2157 0
3381 -3380 -1745 -2157 0
-3381 1746 -2158 0
-3382 3381 0
-3382 -1746 2158 0
-3382 1746 -2158 0
3382 -3381 1746 2158 0
3382 -3381 -1746 -2158 0
-3382 1747 -2159 0
-3383 3382 0
-3383 -1747 2159 0
-3383 1747 -2159 0
3383 -3382 1747 2159 0
3383 -3382 -1747 -2159 0
-3383 1748 -2160 0
-3384 3383 0
-3384 -1748 2160 0
-3384 1748 -2160 0
3384 -3383 1748 2160 0
3384 -3383 -1748 -2160 0
-3384 1749 -2161 0
-3385 3384 0
-3385 -1749 2161 0
-3385 1749 -2161 0
3385 -3384 1749 2161 0
3385 -3384 -1749 -2161 0
-3385 1750 -2162 0
-3386 3385 0
-3386 -1750 2162 0
-3386 1750 -2162 0
3386 -3385 1750 2162 0
3386 -3385 -1750 -2162 0
-3386 1751 -2163 0
-3387 3386 0
-3387 -1751 2163 0
-3387 1751 -2163 0
3387 -3386 1751 2163 0
3387 -3386 -1751 -2163 0
-3387 1752 -2164 0
-3388 3387 0
-3388 -1752 2164 0
-3388 1752 -2164 0
3388 -3387 1752 2164 0
3388 -3387 -1752 -2164 0
-3388 1753 -2165 0
-3389 3388 0
-3389 -1753 2165 0
-3389 1753 -2165 0
3389 -3388 1753 2165 0
3389 -3388 -1753 -2165 0
-3389 1754 -2166 0
-3390 3389 0
-3390 -1754 2166 0
-3390 1754 -2166 0
3390 -3389 1754 2166 0
3390 -3389 -1754 -2166 0
-3390 1755 -2167 0
-3391 3390 0
-3391 -1755 2167 0
-3391 1755 -2167 0
3391 -3390 1755 2167 0
3391 -3390 -1755 -2167 0
-3391 1756 -2168 0
-3392 3391 0
-3392 -1756 2168 0
-3392 1756 -2168 0
3392 -3391 1756 2168 0
3392 -3391 -1756 -2168 0
-3392 1846 -2258 0
-3393 3392 0
-3393 -1846 2258 0
-3393 1846 -2258 0
3393 -3392 1846 2258 0
3393 -3392 -1846 -2258 0
-3393 1847 -2259 0
-3394 3393 0
-3394 -1847 2259 0
-3394 1847 -2259 0
3394 -3393 1847 2259 0
3394 -3393 -1847 -2259 0
-3394 1848 -2260 0
-3395 3394 0
-3395 -1848 2260 0
-3395 1848 -2260 0
3395 -3394 1848 2260 0
3395 -3394 -1848 -2260 0
-3395 1849 -2261 0
-3396 3395 0
-3396 -1849 2261 0
-3396 1849 -2261 0
3396 -3395 1849 2261 0
3396 -3395 -1849 -2261 0
-3396 1850 -2262 0
-3397 3396 0
-3397 -1850 2262 0
-3397 1850 -2262 0
3397 -3396 1850 2262 0
3397 -3396 -1850 -2262 0
-3397 1851 -2263 0
-3398 3397 0
-3398 -1851 2263 0
-3398 1851 -2263 0
3398 -3397 1851 2263 0
3398 -3397 -1851 -2263 0
-3398 1852 -2264 0
-3399 3398 0
-3399 -1852 2264 0
-3399 1852 -2264 0
3399 -3398 1852 2264 0
3399 -3398 -1852 -2264 0
-3399 1853 -2265 0
-3400 3399 0
-3400 -1853 2265 0
-3400 1853 -2265 0
3400 -3399 1853 2265 0
3400 -3399 -1853 -2265 0
-3400 1854 -2266 0
-3401 3400 0
-3401 -1854 2266 0
-3401 1854 -2266 0
3401 -3400 1854 2266 0
3401 -3400 -1854 -2266 0
-3401 1855 -2267 0
-3402 3401 0
-3402 -1855 2267 0
-3402 1855 -2267 0
3402 -3401 1855 2267 0
3402 -3401 -1855 -2267 0
-3402 1856 -2268 0
-3403 3402 0
-3403 -1856 2268 0
-3403 1856 -2268 0
3403 -3402 1856 2268 0
3403 -3402 -1856 -2268 0
-3403 1857 -2269 0
-3404 3403 0
-3404 -1857 2269 0
-3404 1857 -2269 0
3404 -3403 1857 2269 0
3404 -3403 -1857 -2269 0
-3404 1858 -2270 0
-3405 3404 0
-3405 -1858 2270 0
-3405 1858 -2270 0
3405 -3404 1858 2270 0
3405 -3404 -1858 -2270 0
-3405 1859 -2271 0
-3406 3405 0
-3406 -1859 2271 0
-3406 1859 -2271 0
3406 -3405 1859 2271 0
3406 -3405 -1859 -2271 0
-3406 1949 -2361 0
-3407 3406 0
-3407 -1949 2361 0
-3407 1949 -2361 0
3407 -3406 1949 2361 0
3407 -3406 -1949 -2361 0
-3407 1950 -2362 0
-3408 3407 0
-3408 -1950 2362 0
-3408 1950 -2362 0
3408 -3407 1950 2362 0
3408 -3407 -1950 -2362 0
-3408 1951 -2363 0
-3409 3408 0
-3409 -1951 2363 0
-3409 1951 -2363 0
3409 -3408 1951 2363 0
3409 -3408 -1951 -2363 0
-3409 1952 -2364 0
-3410 3409 0
-3410 -1952 2364 0
-3410 1952 -2364 0
3410 -3409 1952 2364 0
3410 -3409 -1952 -2364 0
-3410 1953 -2365 0
-3411 3410 0
-3411 -1953 2365 0
-3411 1953 -2365 0
3411 -3410 1953 2365 0
3411 -3410 -1953 -2365 0
-3411 1954 -2366 0
-3412 3411 0
-3412 -1954 2366 0
-3412 1954 -2366 0
3412 -3411 1954 2366 0
3412 -3411 -1954 -2366 0
-3412 1955 -2367 0
-3413 3412 0
-3413 -1955 2367 0
-3413 1955 -2367 0
3413 -3412 1955 2367 0
3413 -3412 -1955 -2367 0
-3413 1956 -2368 0
-3414 3413 0
-3414 -1956 2368 0
-3414 1956 -2368 0
3414 -3413 1956 2368 0
3414 -3413 -1956 -2368 0
-3414 1957 -2369 0
-3415 3414 0
-3415 -1957 2369 0
-3415 1957 -2369 0
3415 -3414 1957 2369 0
3415 -3414 -1957 -2369 0
-3415 1958 -2370 0
-3416 3415 0
-3416 -1958 2370 0
-3416 1958 -2370 0
3416 -3415 1958 2370 0
3416 -3415 -1958 -2370 0
-3416 1959 -2371 0
-3417 3416 0
-3417 -1959 2371 0
-3417 1959 -2371 0
3417 -3416 1959 2371 0
3417 -3416 -1959 -2371 0
-3417 1960 -2372 0
-3418 3417 0
-3418 -1960 2372 0
-3418 1960 -2372 0
3418 -3417 1960 2372 0
3418 -3417 -1960 -2372 0
-3418 1961 -2373 0
-3419 3418 0
-3419 -1961 2373 0
-3419 1961 -2373 0
3419 -3418 1961 2373 0
3419 -3418 -1961 -2373 0
-3419 1962 -2374 0
-3420 3419 0
-3420 -1962 2374 0
-3420 1962 -2374 0
3420 -3419 1962 2374 0
3420 -3419 -1962 -2374 0
-3420 2052 -2464 0
-3421 3420 0
-3421 -2052 2464 0
-3421 2052 -2464 0
3421 -3420 2052 2464 0
3421 -3420 -2052 -2464 0
-3421 2053 -2465 0
-3422 3421 0
-3422 -2053 2465 0
-3422 2053 -2465 0
3422 -3421 2053 2465 0
3422 -3421 -2053 -2465 0
-3422 2054 -2466 0
-3423 3422 0
-3423 -2054 2466 0
-3423 2054 -2466 0
3423 -3422 2054 2466 0
3423 -3422 -2054 -2466 0
-3423 2055 -2467 0
-3424 3423 0
-3424 -2055 2467 0
-3424 2055 -2467 0
3424 -3423 2055 2467 0
3424 -3423 -2055 -2467 0
-3424 2056 -2468 0
-3425 3424 0
-3425 -2056 2468 0
-3425 2056 -2468 0
3425 -3424 2056 2468 0
3425 -3424 -2056 -2468 0
-3425 2057 -2469 0
-3426 3425 0
-3426 -2057 2469 0
-3426 2057 -2469 0
3426 -3425 2057 2469 0
3426 -3425 -2057 -2469 0
-3426 2058 -2470 0
-3427 3426 0
-3427 -2058 2470 0
-3427 2058 -2470 0
3427 -3426 2058 2470 0
3427 -3426 -2058 -2470 0
-3427 2059 -2471 0
-3428 3427 0
-3428 -2059 2471 0
-3428 2059 -2471 0
3428 -3427 2059 2471 0
3428 -3427 -2059 -2471 0
-3428 2060 -2472 0
-3429 3428 0
-3429 -2060 2472 0
-3429 2060 -2472 0
3429 -3428 2060 2472 0
3429 -3428 -2060 -2472 0
-3429 2061 -2473 0
-3430 3429 0
-3430 -2061 2473 0
-3430 2061 -2473 0
3430 -3429 2061 2473 0
3430 -3429 -2061 -2473 0
-3430 2062 -2474 0
-3431 3430 0
-3431 -2062 2474 0
-3431 2062 -2474 0
3431 -3430 2062 2474 0
3431 -3430 -2062 -2474 0
-3431 2063 -2475 0
-3432 3431 0
-3432 -2063 2475 0
-3432 2063 -2475 0
3432 -3431 2063 2475 0
3432 -3431 -2063 -2475 0
-3432 2064 -2476 0
-3433 3432 0
-3433 -2064 2476 0
-3433 2064 -2476 0
3433 -3432 2064 2476 0
3433 -3432 -2064 -2476 0
-3433 2065 -2477 0
-3434 3433 0
-3434 -2065 2477 0
-3434 2065 -2477 0
3434 -3433 2065 2477 0
3434 -3433 -2065 -2477 0
-3434 2155 -2567 0
-3435 3434 0
-3435 -2155 2567 0
-3435 2155 -2567 0
3435 -3434 2155 2567 0
3435 -3434 -2155 -2567 0
-3435 2156 -2568 0
-3436 3435 0
-3436 -2156 2568 0
-3436 2156 -2568 0
3436 -3435 2156 2568 0
3436 -3435 -2156 -2568 0
-3436 2157 -2569 0
-3437 3436 0
-3437 -2157 2569 0
-3437 2157 -2569 0
3437 -3436 2157 2569 0
3437 -3436 -2157 -2569 0
-3437 2158 -2570 0
-3438 3437 0
-3438 -2158 2570 0
-3438 2158 -2570 0
3438 -3437 2158 2570 0
3438 -3437 -2158 -2570 0
-3438 2159 -2571 0
-3439 3438 0
-3439 -2159 2571 0
-3439 2159 -2571 0
3439 -3438 2159 2571 0
3439 -3438 -2159 -2571 0
-3439 2160 -2572 0
-3440 3439 0
-3440 -2160 2572 0
-3440 2160 -2572 0
3440 -3439 2160 2572 0
3440 -3439 -2160 -2572 0
-3440 2161 -2573 0
-3441 3440 0
-3441 -2161 2573 0
-3441 2161 -2573 0
3441 -3440 2161 2573 0
3441 -3440 -2161 -2573 0
-3441 2162 -2574 0
-3442 3441 0
-3442 -2162 2574 0
-3442 2162 -2574 0
3442 -3441 2162 2574 0
3442 -3441 -2162 -2574 0
-3442 2163 -2575 0
-3443 3442 0
-3443 -2163 2575 0
-3443 2163 -2575 0
3443 -3442 2163 2575 0
3443 -3442 -2163 -2575 0
-3443 2164 -2576 0
-3444 3443 0
-3444 -2164 2576 0
-3444 2164 -2576 0
3444 -3443 2164 2576 0
3444 -3443 -2164 -2576 0
-3444 2165 -2577 0
-3445 3444 0
-3445 -2165 2577 0
-3445 2165 -2577 0
3445 -3444 2165 2577 0
3445 -3444 -2165 -2577 0
-3445 2166 -2578 0
-3446 3445 0
-3446 -2166 2578 0
-3446 2166 -2578 0
3446 -3445 2166 2578 0
3446 -3445 -2166 -2578 0
-3446 2167 -2579 0
-3447 3446 0
-3447 -2167 2579 0
-3447 2167 -2579 0
3447 -3446 2167 2579 0
3447 -3446 -2167 -2579 0
-3447 2168 -2580 0
-3448 3447 0
-3448 -2168 2580 0
-3448 2168 -2580 0
3448 -3447 2168 2580 0
3448 -3447 -2168 -2580 0
-3448 2258 -2670 0
-3449 3448 0
-3449 -2258 2670 0
-3449 2258 -2670 0
3449 -3448 2258 2670 0
3449 -3448 -2258 -2670 0
-3449 2259 -2671 0
-3450 3449 0
-3450 -2259 2671 0
-3450 2259 -2671 0
3450 -3449 2259 2671 0
3450 -3449 -2259 -2671 0
-3450 2260 -2672 0
-3451 3450 0
-3451 -2260 2672 0
-3451 2260 -2672 0
3451 -3450 2260 2672 0
3451 -3450 -2260 -2672 0
-3451 2261 -2673 0
-3452 3451 0
-3452 -2261 2673 0
-3452 2261 -2673 0
3452 -3451 2261 2673 0
3452 -3451 -2261 -2673 0
-3452 2262 -2674 0
-3453 3452 0
-3453 -2262 2674 0
-3453 2262 -2674 0
3453 -3452 2262 2674 0
3453 -3452 -2262 -2674 0
-3453 2263 -2675 0
-3454 3453 0
-3454 -2263 2675 0
-3454 2263 -2675 0
3454 -3453 2263 2675 0
3454 -3453 -2263 -2675 0
-3454 2264 -2676 0
-3455 3454 0
-3455 -2264 2676 0
-3455 2264 -2676 0
3455 -3454 2264 2676 0
3455 -3454 -2264 -2676 0
-3455 2265 -2677 0
-3456 3455 0
-3456 -2265 2677 0
-3456 2265 -2677 0
3456 -3455 2265 2677 0
3456 -3455 -2265 -2677 0
-3456 2266 -2678 0
-3457 3456 0
-3457 -2266 2678 0
-3457 2266 -2678 0
3457 -3456 2266 2678 0
3457 -3456 -2266 -2678 0
-3457 2267 -2679 0
-3458 3457 0
-3458 -2267 2679 0
-3458 2267 -2679 0
3458 -3457 2267 2679 0
3458 -3457 -2267 -2679 0
-3458 2268 -2680 0
-3459 3458 0
-3459 -2268 2680 0
-3459 2268 -2680 0
3459 -3458 2268 2680 0
3459 -3458 -2268 -2680 0
-3459 2269 -2681 0
-3460 3459 0
-3460 -2269 2681 0
-3460 2269 -2681 0
3460 -3459 2269 2681 0
3460 -3459 -2269 -2681 0
-3460 2270 -2682 0
-3461 3460 0
-3461 -2270 2682 0
-3461 2270 -2682 0
3461 -3460 2270 2682 0
3461 -3460 -2270 -2682 0
-3461 2271 -2683 0
-3462 3461 0
-3462 -2271 2683 0
-3462 2271 -2683 0
3462 -3461 2271 2683 0
3462 -3461 -2271 -2683 0
-3462 2361 -1537 0
-3463 3462 0
-3463 -2361 1537 0
-3463 2361 -1537 0
3463 -3462 2361 1537 0
3463 -3462 -2361 -1537 0
-3463 2362 -1538 0
-3464 3463 0
-3464 -2362 1538 0
-3464 2362 -1538 0
3464 -3463 2362 1538 0
3464 -3463 -2362 -1538 0
-3464 2363 -1539 0
-3465 3464 0
-3465 -2363 1539 0
-3465 2363 -1539 0
3465 -3464 2363 1539 0
3465 -3464 -2363 -1539 0
-3465 2364 -1540 0
-3466 3465 0
-3466 -2364 1540 0
-3466 2364 -1540 0
3466 -3465 2364 1540 0
3466 -3465 -2364 -1540 0
-3466 2365 -1541 0
-3467 3466 0
-3467 -2365 1541 0
-3467 2365 -1541 0
3467 -3466 2365 1541 0
3467 -3466 -2365 -1541 0
-3467 2366 -1542 0
-3468 3467 0
-3468 -2366 1542 0
-3468 2366 -1542 0
3468 -3467 2366 1542 0
3468 -3467 -2366 -1542 0
-3468 2367 -1543 0
-3469 3468 0
-3469 -2367 1543 0
-3469 2367 -1543 0
3469 -3468 2367 1543 0
3469 -3468 -2367 -1543 0
-3469 2368 -1544 0
-3470 3469 0
-3470 -2368 1544 0
-3470 2368 -1544 0
3470 -3469 2368 1544 0
3470 -3469 -2368 -1544 0
-3470 2369 -1545 0
-3471 3470 0
-3471 -2369 1545 0
-3471 2369 -1545 0
3471 -3470 2369 1545 0
3471 -3470 -2369 -1545 0
-3471 2370 -1546 0
-3472 3471 0
-3472 -2370 1546 0
-3472 2370 -1546 0
3472 -3471 2370 1546 0
3472 -3471 -2370 -1546 0
-3472 2371 -1547 0
-3473 3472 0
-3473 -2371 1547 0
-3473 2371 -1547 0
3473 -3472 2371 1547 0
3473 -3472 -2371 -1547 0
-3473 2372 -1548 0
-3474 3473 0
-3474 -2372 1548 0
-3474 2372 -1548 0
3474 -3473 2372 1548 0
3474 -3473 -2372 -1548 0
-3474 2373 -1549 0
-3475 3474 0
-3475 -2373 1549 0
-3475 2373 -1549 0
3475 -3474 2373 1549 0
3475 -3474 -2373 -1549 0
-3475 2374 -1550 0
-3476 3475 0
-3476 -2374 1550 0
-3476 2374 -1550 0
3476 -3475 2374 1550 0
3476 -3475 -2374 -1550 0
-3476 2464 -1640 0
-3477 3476 0
-3477 -2464 1640 0
-3477 2464 -1640 0
3477 -3476 2464 1640 0
3477 -3476 -2464 -1640 0
-3477 2465 -1641 0
-3478 3477 0
-3478 -2465 1641 0
-3478 2465 -1641 0
3478 -3477 2465 1641 0
3478 -3477 -2465 -1641 0
-3478 2466 -1642 0
-3479 3478 0
-3479 -2466 1642 0
-3479 2466 -1642 0
3479 -3478 2466 1642 0
3479 -3478 -2466 -1642 0
-3479 2467 -1643 0
-3480 3479 0
-3480 -2467 1643 0
-3480 2467 -1643 0
3480 -3479 2467 1643 0
3480 -3479 -2467 -1643 0
-3480 2468 -1644 0
-3481 3480 0
-3481 -2468 1644 0
-3481 2468 -1644 0
3481 -3480 2468 1644 0
3481 -3480 -2468 -1644 0
-3481 2469 -1645 0
-3482 3481 0
-3482 -2469 1645 0
-3482 2469 -1645 0
3482 -3481 2469 1645 0
3482 -3481 -2469 -1645 0
-3482 2470 -1646 0
-3483 3482 0
-3483 -2470 1646 0
-3483 2470 -1646 0
3483 -3482 2470 1646 0
3483 -3482 -2470 -1646 0
-3483 2471 -1647 0
-3484 3483 0
-3484 -2471 1647 0
-3484 2471 -1647 0
3484 -3483 2471 1647 0
3484 -3483 -2471 -1647 0
-3484 2472 -1648 0
-3485 3484 0
-3485 -2472 1648 0
-3485 2472 -1648 0
3485 -3484 2472 1648 0
3485 -3484 -2472 -1648 0
-3485 2473 -1649 0
-3486 3485 0
-3486 -2473 1649 0
-3486 2473 -1649 0
3486 -3485 2473 1649 0
3486 -3485 -2473 -1649 0
-3486 2474 -1650 0
-3487 3486 0
-3487 -2474 1650 0
-3487 2474 -1650 0
3487 -3486 2474 1650 0
3487 -3486 -2474 -1650 0
-3487 2475 -1651 0
-3488 3487 0
-3488 -2475 1651 0
-3488 2475 -1651 0
3488 -3487 2475 1651 0
3488 -3487 -2475 -1651 0
-3488 2476 -1652 0
-3489 3488 0
-3489 -2476 1652 0
-3489 2476 -1652 0
3489 -3488 2476 1652 0
3489 -3488 -2476 -1652 0
-3489 2477 -1653 0
-3490 3489 0
-3490 -2477 1653 0
-3490 2477 -1653 0
3490 -3489 2477 1653 0
3490 -3489 -2477 -1653 0
-3490 2567 -1743 0
-3491 3490 0
-3491 -2567 1743 0
-3491 2567 -1743 0
3491 -3490 2567 1743 0
3491 -3490 -2567 -1743 0
-3491 2568 -1744 0
-3492 3491 0
-3492 -2568 1744 0
-3492 2568 -1744 0
3492 -3491 2568 1744 0
3492 -3491 -2568 -1744 0
-3492 2569 -1745 0
-3493 3492 0
-3493 -2569 1745 0
-3493 2569 -1745 0
3493 -3492 2569 1745 0
3493 -3492 -2569 -1745 0
-3493 2570 -1746 0
-3494 3493 0
-3494 -2570 1746 0
-3494 2570 -1746 0
3494 -3493 2570 1746 0
3494 -3493 -2570 -1746 0
-3494 2571 -1747 0
-3495 3494 0
-3495 -2571 1747 0
-3495 2571 -1747 0
3495 -3494 2571 1747 0
3495 -3494 -2571 -1747 0
-3495 2572 -1748 0
-3496 3495 0
-3496 -2572 1748 0
-3496 2572 -1748 0
3496 -3495 2572 1748 0
3496 -3495 -2572 -1748 0
-3496 2573 -1749 0
-3497 3496 0
-3497 -2573 1749 0
-3497 2573 -1749 0
3497 -3496 2573 1749 0
3497 -3496 -2573 -1749 0
-3497 2574 -1750 0
-3498 3497 0
-3498 -2574 1750 0
-3498 2574 -1750 0
3498 -3497 2574 1750 0
3498 -3497 -2574 -1750 0
-3498 2575 -1751 0
-3499 3498 0
-3499 -2575 1751 0
-3499 2575 -1751 0
3499 -3498 2575 1751 0
3499 -3498 -2575 -1751 0
-3499 2576 -1752 0
-3500 3499 0
-3500 -2576 1752 0
-3500 2576 -1752 0
3500 -3499 2576 1752 0
3500 -3499 -2576 -1752 0
-3500 2577 -1753 0
-3501 3500 0
-3501 -2577 1753 0
-3501 2577 -1753 0
3501 -3500 2577 1753 0
3501 -3500 -2577 -1753 0
-3501 2578 -1754 0
-3502 3501 0
-3502 -2578 1754 0
-3502 2578 -1754 0
3502 -3501 2578 1754 0
3502 -3501 -2578 -1754 0
-3502 2579 -1755 0
-3503 3502 0
-3503 -2579 1755 0
-3503 2579 -1755 0
3503 -3502 2579 1755 0
3503 -3502 -2579 -1755 0
-3503 2580 -1756 0
-3504 3503 0
-3504 -2580 1756 0
-3504 2580 -1756 0
3504 -3503 2580 1756 0
3504 -3503 -2580 -1756 0
-3504 2670 -1846 0
-3505 3504 0
-3505 -2670 1846 0
-3505 2670 -1846 0
3505 -3504 2670 1846 0
3505 -3504 -2670 -1846 0
-3505 2671 -1847 0
-3506 3505 0
-3506 -2671 1847 0
-3506 2671 -1847 0
3506 -3505 2671 1847 0
3506 -3505 -2671 -1847 0
-3506 2672 -1848 0
-3507 3506 0
-3507 -2672 1848 0
-3507 2672 -1848 0
3507 -3506 2672 1848 0
3507 -3506 -2672 -1848 0
-3507 2673 -1849 0
-3508 3507 0
-3508 -2673 1849 0
-3508 2673 -1849 0
3508 -3507 2673 1849 0
3508 -3507 -2673 -1849 0
-3508 2674 -1850 0
-3509 3508 0
-3509 -2674 1850 0
-3509 2674 -1850 0
3509 -3508 2674 1850 0
3509 -3508 -2674 -1850 0
-3509 2675 -1851 0
-3510 3509 0
-3510 -2675 1851 0
-3510 2675 -1851 0
3510 -3509 2675 1851 0
3510 -3509 -2675 -1851 0
-3510 2676 -1852 0
-3511 3510 0
-3511 -2676 1852 0
-3511 2676 -1852 0
3511 -3510 2676 1852 0
3511 -3510 -2676 -1852 0
-3511 2677 -1853 0
-3512 3511 0
-3512 -2677 1853 0
-3512 2677 -1853 0
3512 -3511 2677 1853 0
3512 -3511 -2677 -1853 0
-3512 2678 -1854 0
-3513 3512 0
-3513 -2678 1854 0
-3513 2678 -1854 0
3513 -3512 2678 1854 0
3513 -3512 -2678 -1854 0
-3513 2679 -1855 0
-3514 3513 0
-3514 -2679 1855 0
-3514 2679 -1855 0
3514 -3513 2679 1855 0
3514 -3513 -2679 -1855 0
-3514 2680 -1856 0
-3515 3514 0
-3515 -2680 1856 0
-3515 2680 -1856 0
3515 -3514 2680 1856 0
3515 -3514 -2680 -1856 0
-3515 2681 -1857 0
-3516 3515 0
-3516 -2681 1857 0
-3516 2681 -1857 0
3516 -3515 2681 1857 0
3516 -3515 -2681 -1857 0
-3516 2682 -1858 0
-3517 3516 0
-3517 -2682 1858 0
-3517 2682 -1858 0
3517 -3516 2682 1858 0
3517 -3516 -2682 -1858 0
-3517 2683 -1859 0
1537 -2052 0
-3518 -1537 2052 0
-3518 1537 -2052 0
3518 1537 2052 0
3518 -1537 -2052 0
-3518 1538 -2053 0
-3519 3518 0
-3519 -1538 2053 0
-3519 1538 -2053 0
3519 -3518 1538 2053 0
3519 -3518 -1538 -2053 0
-3519 1539 -2054 0
-3520 3519 0
-3520 -1539 2054 0
-3520 1539 -2054 0
3520 -3519 1539 2054 0
3520 -3519 -1539 -2054 0
-3520 1540 -2055 0
-3521 3520 0
-3521 -1540 2055 0
-3521 1540 -2055 0
3521 -3520 1540 2055 0
3521 -3520 -1540 -2055 0
-3521 1541 -2056 0
-3522 3521 0
-3522 -1541 2056 0
-3522 1541 -2056 0
3522 -3521 1541 2056 0
3522 -3521 -1541 -2056 0
-3522 1542 -2057 0
-3523 3522 0
-3523 -1542 2057 0
-3523 1542 -2057 0
3523 -3522 1542 2057 0
3523 -3522 -1542 -2057 0
-3523 1543 -2058 0
-3524 3523 0
-3524 -1543 2058 0
-3524 1543 -2058 0
3524 -3523 1543 2058 0
3524 -3523 -1543 -2058 0
-3524 1544 -2059 0
-3525 3524 0
-3525 -1544 2059 0
-3525 1544 -2059 0
3525 -3524 1544 2059 0
3525 -3524 -1544 -2059 0
-3525 1545 -2060 0
-3526 3525 0
-3526 -1545 2060 0
-3526 1545 -2060 0
3526 -3525 1545 2060 0
3526 -3525 -1545 -2060 0
-3526 1546 -2061 0
-3527 3526 0
-3527 -1546 2061 0
-3527 1546 -2061 0
3527 -3526 1546 2061 0
3527 -3526 -1546 -2061 0
-3527 1547 -2062 0
-3528 3527 0
-3528 -1547 2062 0
-3528 1547 -2062 0
3528 -3527 1547 2062 0
3528 -3527 -1547 -2062 0
-3528 1548 -2063 0
-3529 3528 0
-3529 -1548 2063 0
-3529 1548 -2063 0
3529 -3528 1548 2063 0
3529 -3528 -1548 -2063 0
-3529 1549 -2064 0
-3530 3529 0
-3530 -1549 2064 0
-3530 1549 -2064 0
3530 -3529 1549 2064 0
3530 -3529 -1549 -2064 0
-3530 1550 -2065 0
-3531 3530 0
-3531 -1550 2065 0
-3531 1550 -2065 0
3531 -3530 1550 2065 0
3531 -3530 -1550 -2065 0
-3531 1640 -2155 0
-3532 3531 0
-3532 -1640 2155 0
-3532 1640 -2155 0
3532 -3531 1640 2155 0
3532 -3531 -1640 -2155 0
-3532 1641 -2156 0
-3533 3532 0
-3533 -1641 2156 0
-3533 1641 -2156 0
3533 -3532 1641 2156 0
3533 -3532 -1641 -2156 0
-3533 1642 -2157 0
-3534 3533 0
-3534 -1642 2157 0
-3534 1642 -2157 0
3534 -3533 1642 2157 0
3534 -3533 -1642 -2157 0
-3534 1643 -2158 0
-3535 3534 0
-3535 -1643 2158 0
-3535 1643 -2158 0
3535 -3534 1643 2158 0
3535 -3534 -1643 -2158 0
-3535 1644 -2159 0
-3536 3535 0
-3536 -1644 2159 0
-3536 1644 -2159 0
3536 -3535 1644 2159 0
3536 -3535 -1644 -2159 0
-3536 1645 -2160 0
-3537 3536 0
-3537 -1645 2160 0
-3537 1645 -2160 0
3537 -3536 1645 2160 0
3537 -3536 -1645 -2160 0
-3537 1646 -2161 0
-3538 3537 0
-3538 -1646 2161 0
-3538 1646 -2161 0
3538 -3537 1646 2161 0
3538 -3537 -1646 -2161 0
-3538 1647 -2162 0
-3539 3538 0
-3539 -1647 2162 0
-3539 1647 -2162 0
3539 -3538 1647 2162 0
3539 -3538 -1647 -2162 0
-3539 1648 -2163 0
-3540 3539 0
-3540 -1648 2163 0
-3540 1648 -2163 0
3540 -3539 1648 2163 0
3540 -3539 -1648 -2163 0
-3540 1649 -2164 0
-3541 3540 0
-3541 -1649 2164 0
-3541 1649 -2164 0
3541 -3540 1649 2164 0
3541 -3540 -1649 -2164 0
-3541 1650 -2165 0
-3542 3541 0
-3542 -1650 2165 0
-3542 1650 -2165 0
3542 -3541 1650 2165 0
3542 -3541 -1650 -2165 0
-3542 1651 -2166 0
-3543 3542 0
-3543 -1651 2166 0
-3543 1651 -2166 0
3543 -3542 1651 2166 0
3543 -3542 -1651 -2166 0
-3543 1652 -2167 0
-3544 3543 0
-3544 -1652 2167 0
-3544 1652 -2167 0
3544 -3543 1652 2167 0
3544 -3543 -1652 -2167 0
-3544 1653 -2168 0
-3545 3544 0
-3545 -1653 2168 0
-3545 1653 -2168 0
3545 -3544 1653 2168 0
3545 -3544 -1653 -2168 0
-3545 1743 -2258 0
-3546 3545 0
-3546 -1743 2258 0
-3546 1743 -2258 0
3546 -3545 1743 2258 0
3546 -3545 -1743 -2258 0
-3546 1744 -2259 0
-3547 3546 0
-3547 -1744 2259 0
-3547 1744 -2259 0
3547 -3546 1744 2259 0
3547 -3546 -1744 -2259 0
-3547 1745 -2260 0
-3548 3547 0
-3548 -1745 2260 0
-3548 1745 -2260 0
3548 -3547 1745 2260 0
3548 -3547 -1745 -2260 0
-3548 1746 -2261 0
-3549 3548 0
-3549 -1746 2261 0
-3549 1746 -2261 0
3549 -3548 1746 2261 0
3549 -3548 -1746 -2261 0
-3549 1747 -2262 0
-3550 3549 0
-3550 -1747 2262 0
-3550 1747 -2262 0
3550 -3549 1747 2262 0
3550 -3549 -1747 -2262 0
-3550 1748 -2263 0
-3551 3550 0
-3551 -1748 2263 0
-3551 1748 -2263 0
3551 -3550 1748 2263 0
3551 -3550 -1748 -2263 0
-3551 1749 -2264 0
-3552 3551 0
-3552 -1749 2264 0
-3552 1749 -2264 0
3552 -3551 1749 2264 0
3552 -3551 -1749 -2264 0
-3552 1750 -2265 0
-3553 3552 0
-3553 -1750 2265 0
-3553 1750 -2265 0
3553 -3552 1750 2265 0
3553 -3552 -1750 -2265 0
-3553 1751 -2266 0
-3554 3553 0
-3554 -1751 2266 0
-3554 1751 -2266 0
3554 -3553 1751 2266 0
3554 -3553 -1751 -2266 0
-3554 1752 -2267 0
-3555 3554 0
-3555 -1752 2267 0
-3555 1752 -2267 0
3555 -3554 1752 2267 0
3555 -3554 -1752 -2267 0
-3555 1753 -2268 0
-3556 3555 0
-3556 -1753 2268 0
-3556 1753 -2268 0
3556 -3555 1753 2268 0
3556 -3555 -1753 -2268 0
-3556 1754 -2269 0
-3557 3556 0
-3557 -1754 2269 0
-3557 1754 -2269 0
3557 -3556 1754 2269 0
3557 -3556 -1754 -2269 0
-3557 1755 -2270 0
-3558 3557 0
-3558 -1755 2270 0
-3558 1755 -2270 0
3558 -3557 1755 2270 0
3558 -3557 -1755 -2270 0
-3558 1756 -2271 0
-3559 3558 0
-3559 -1756 2271 0
-3559 1756 -2271 0
3559 -3558 1756 2271 0
3559 -3558 -1756 -2271 0
-3559 1846 -2361 0
-3560 3559 0
-3560 -1846 2361 0
-3560 1846 -2361 0
3560 -3559 1846 2361 0
3560 -3559 -1846 -2361 0
-3560 1847 -2362 0
-3561 3560 0
-3561 -1847 2362 0
-3561 1847 -2362 0
3561 -3560 1847 2362 0
3561 -3560 -1847 -2362 0
-3561 1848 -2363 0
-3562 3561 0
-3562 -1848 2363 0
-3562 1848 -2363 0
3562 -3561 1848 2363 0
3562 -3561 -1848 -2363 0
-3562 1849 -2364 0
-3563 3562 0
-3563 -1849 2364 0
-3563 1849 -2364 0
3563 -3562 1849 2364 0
3563 -3562 -1849 -2364 0
-3563 1850 -2365 0
-3564 3563 0
-3564 -1850 2365 0
-3564 1850 -2365 0
3564 -3563 1850 2365 0
3564 -3563 -1850 -2365 0
-3564 1851 -2366 0
-3565 3564 0
-3565 -1851 2366 0
-3565 1851 -2366 0
3565 -3564 1851 2366 0
3565 -3564 -1851 -2366 0
-3565 1852 -2367 0
-3566 3565 0
-3566 -1852 2367 0
-3566 1852 -2367 0
3566 -3565 1852 2367 0
3566 -3565 -1852 -2367 0
-3566 1853 -2368 0
-3567 3566 0
-3567 -1853 2368 0
-3567 1853 -2368 0
3567 -3566 1853 2368 0
3567 -3566 -1853 -2368 0
-3567 1854 -2369 0
-3568 3567 0
-3568 -1854 2369 0
-3568 1854 -2369 0
3568 -3567 1854 2369 0
3568 -3567 -1854 -2369 0
-3568 1855 -2370 0
-3569 3568 0
-3569 -1855 2370 0
-3569 1855 -2370 0
3569 -3568 1855 2370 0
3569 -3568 -1855 -2370 0
-3569 1856 -2371 0
-3570 3569 0
-3570 -1856 2371 0
-3570 1856 -2371 0
3570 -3569 1856 2371 0
3570 -3569 -1856 -2371 0
-3570 1857 -2372 0
-3571 3570 0
-3571 -1857 2372 0
-3571 1857 -2372 0
3571 -3570 1857 2372 0
3571 -3570 -1857 -2372 0
-3571 1858 -2373 0
-3572 3571 0
-3572 -1858 2373 0
-3572 1858 -2373 0
3572 -3571 1858 2373 0
3572 -3571 -1858 -2373 0
-3572 1859 -2374 0
-3573 3572 0
-3573 -1859 2374 0
-3573 1859 -2374 0
3573 -3572 1859 2374 0
3573 -3572 -1859 -2374 0
-3573 1949 -2464 0
-3574 3573 0
-3574 -1949 2464 0
-3574 1949 -2464 0
3574 -3573 1949 2464 0
3574 -3573 -1949 -2464 0
-3574 1950 -2465 0
-3575 3574 0
-3575 -1950 2465 0
-3575 1950 -2465 0
3575 -3574 1950 2465 0
3575 -3574 -1950 -2465 0
-3575 1951 -2466 0
-3576 3575 0
-3576 -1951 2466 0
-3576 1951 -2466 0
3576 -3575 1951 2466 0
3576 -3575 -1951 -2466 0
-3576 1952 -2467 0
-3577 3576 0
-3577 -1952 2467 0
-3577 1952 -2467 0
3577 -3576 1952 2467 0
3577 -3576 -1952 -2467 0
-3577 1953 -2468 0
-3578 3577 0
-3578 -1953 2468 0
-3578 1953 -2468 0
3578 -3577 1953 2468 0
3578 -3577 -1953 -2468 0
-3578 1954 -2469 0
-3579 3578 0
-3579 -1954 2469 0
-3579 1954 -2469 0
3579 -3578 1954 2469 0
3579 -3578 -1954 -2469 0
-3579 1955 -2470 0
-3580 3579 0
-3580 -1955 2470 0
-3580 1955 -2470 0
3580 -3579 1955 2470 0
3580 -3579 -1955 -2470 0
-3580 1956 -2471 0
-3581 3580 0
-3581 -1956 2471 0
-3581 1956 -2471 0
3581 -3580 1956 2471 0
3581 -3580 -1956 -2471 0
-3581 1957 -2472 0
-3582 3581 0
-3582 -1957 2472 0
-3582 1957 -2472 0
3582 -3581 1957 2472 0
3582 -3581 -1957 -2472 0
-3582 1958 -2473 0
-3583 3582 0
-3583 -1958 2473 0
-3583 1958 -2473 0
3583 -3582 1958 2473 0
3583 -3582 -1958 -2473 0
-3583 1959 -2474 0
-3584 3583 0
-3584 -1959 2474 0
-3584 1959 -2474 0
3584 -3583 1959 2474 0
3584 -3583 -1959 -2474 0
-3584 1960 -2475 0
-3585 3584 0
-3585 -1960 2475 0
-3585 1960 -2475 0
3585 -3584 1960 2475 0
3585 -3584 -1960 -2475 0
-3585 1961 -2476 0
-3586 3585 0
-3586 -1961 2476 0
-3586 1961 -2476 0
3586 -3585 1961 2476 0
3586 -3585 -1961 -2476 0
-3586 1962 -2477 0
-3587 3586 0
-3587 -1962 2477 0
-3587 1962 -2477 0
3587 -3586 1962 2477 0
3587 -3586 -1962 -2477 0
-3587 2052 -2567 0
-3588 3587 0
-3588 -2052 2567 0
-3588 2052 -2567 0
3588 -3587 2052 2567 0
3588 -3587 -2052 -2567 0
-3588 2053 -2568 0
-3589 3588 0
-3589 -2053 2568 0
-3589 2053 -2568 0
3589 -3588 2053 2568 0
3589 -3588 -2053 -2568 0
-3589 2054 -2569 0
-3590 3589 0
-3590 -2054 2569 0
-3590 2054 -2569 0
3590 -3589 2054 2569 0
3590 -3589 -2054 -2569 0
-3590 2055 -2570 0
-3591 3590 0
-3591 -2055 2570 0
-3591 2055 -2570 0
3591 -3590 2055 2570 0
3591 -3590 -2055 -2570 0
-3591 2056 -2571 0
-3592 3591 0
-3592 -2056 2571 0
-3592 2056 -2571 0
3592 -3591 2056 2571 0
3592 -3591 -2056 -2571 0
-3592 2057 -2572 0
-3593 3592 0
-3593 -2057 2572 0
-3593 2057 -2572 0
3593 -3592 2057 2572 0
3593 -3592 -2057 -2572 0
-3593 2058 -2573 0
-3594 3593 0
-3594 -2058 2573 0
-3594 2058 -2573 0
3594 -3593 2058 2573 0
3594 -3593 -2058 -2573 0
-3594 2059 -2574 0
-3595 3594 0
-3595 -2059 2574 0
-3595 2059 -2574 0
3595 -3594 2059 2574 0
3595 -3594 -2059 -2574 0
-3595 2060 -2575 0
-3596 3595 0
-3596 -2060 2575 0
-3596 2060 -2575 0
3596 -3595 2060 2575 0
3596 -3595 -2060 -2575 0
-3596 2061 -2576 0
-3597 3596 0
-3597 -2061 2576 0
-3597 2061 -2576 0
3597 -3596 2061 2576 0
3597 -3596 -2061 -2576 0
-3597 2062 -2577 0
-3598 3597 0
-3598 -2062 2577 0
-3598 2062 -2577 0
3598 -3597 2062 2577 0
3598 -3597 -2062 -2577 0
-3598 2063 -2578 0
-3599 3598 0
-3599 -2063 2578 0
-3599 2063 -2578 0
3599 -3598 2063 2578 0
3599 -3598 -2063 -2578 0
-3599 2064 -2579 0
-3600 3599 0
-3600 -2064 2579 0
-3600 2064 -2579 0
3600 -3599 2064 2579 0
3600 -3599 -2064 -2579 0
-3600 2065 -2580 0
-3601 3600 0
-3601 -2065 2580 0
-3601 2065 -2580 0
3601 -3600 2065 2580 0
3601 -3600 -2065 -2580 0
-3601 2155 -2670 0
-3602 3601 0
-3602 -2155 2670 0
-3602 2155 -2670 0
3602 -3601 2155 2670 0
3602 -3601 -2155 -2670 0
-3602 2156 -2671 0
-3603 3602 0
-3603 -2156 2671 0
-3603 2156 -2671 0
3603 -3602 2156 2671 0
3603 -3602 -2156 -2671 0
-3603 2157 -2672 0
-3604 3603 0
-3604 -2157 2672 0
-3604 2157 -2672 0
3604 -3603 2157 2672 0
3604 -3603 -2157 -2672 0
-3604 2158 -2673 0
-3605 3604 0
-3605 -2158 2673 0
-3605 2158 -2673 0
3605 -3604 2158 2673 0
3605 -3604 -2158 -2673 0
-3605 2159 -2674 0
-3606 3605 0
-3606 -2159 2674 0
-3606 2159 -2674 0
3606 -3605 2159 2674 0
3606 -3605 -2159 -2674 0
-3606 2160 -2675 0
-3607 3606 0
-3607 -2160 2675 0
-3607 2160 -2675 0
3607 -3606 2160 2675 0
3607 -3606 -2160 -2675 0
-3607 2161 -2676 0
-3608 3607 0
-3608 -2161 2676 0
-3608 2161 -2676 0
3608 -3607 2161 2676 0
3608 -3607 -2161 -2676 0
-3608 2162 -2677 0
-3609 3608 0
-3609 -2162 2677 0
-3609 2162 -2677 0
3609 -3608 2162 2677 0
3609 -3608 -2162 -2677 0
-3609 2163 -2678 0
-3610 3609 0
-3610 -2163 2678 0
-3610 2163 -2678 0
3610 -3609 2163 2678 0
3610 -3609 -2163 -2678 0
-3610 2164 -2679 0
-3611 3610 0
-3611 -2164 2679 0
-3611 2164 -2679 0
3611 -3610 2164 2679 0
3611 -3610 -2164 -2679 0
-3611 2165 -2680 0
-3612 3611 0
-3612 -2165 2680 0
-3612 2165 -2680 0
3612 -3611 2165 2680 0
3612 -3611 -2165 -2680 0
-3612 2166 -2681 0
-3613 3612 0
-3613 -2166 2681 0
-3613 2166 -2681 0
3613 -3612 2166 2681 0
3613 -3612 -2166 -2681 0
-3613 2167 -2682 0
-3614 3613 0
-3614 -2167 2682 0
-3614 2167 -2682 0
3614 -3613 2167 2682 0
3614 -3613 -2167 -2682 0
-3614 2168 -2683 0
-3615 3614 0
-3615 -2168 2683 0
-3615 2168 -2683 0
3615 -3614 2168 2683 0
3615 -3614 -2168 -2683 0
-3615 2258 -1537 0
-3616 3615 0
-3616 -2258 1537 0
-3616 2258 -1537 0
3616 -3615 2258 1537 0
3616 -3615 -2258 -1537 0
-3616 2259 -1538 0
-3617 3616 0
-3617 -2259 1538 0
-3617 2259 -1538 0
3617 -3616 2259 1538 0
3617 -3616 -2259 -1538 0
-3617 2260 -1539 0
-3618 3617 0
-3618 -2260 1539 0
-3618 2260 -1539 0
3618 -3617 2260 1539 0
3618 -3617 -2260 -1539 0
-3618 2261 -1540 0
-3619 3618 0
-3619 -2261 1540 0
-3619 2261 -1540 0
3619 -3618 2261 1540 0
3619 -3618 -2261 -1540 0
-3619 2262 -1541 0
-3620 3619 0
-3620 -2262 1541 0
-3620 2262 -1541 0
3620 -3619 2262 1541 0
3620 -3619 -2262 -1541 0
-3620 2263 -1542 0
-3621 3620 0
-3621 -2263 1542 0
-3621 2263 -1542 0
3621 -3620 2263 1542 0
3621 -3620 -2263 -1542 0
-3621 2264 -1543 0
-3622 3621 0
-3622 -2264 1543 0
-3622 2264 -1543 0
3622 -3621 2264 1543 0
3622 -3621 -2264 -1543 0
-3622 2265 -1544 0
-3623 3622 0
-3623 -2265 1544 0
-3623 2265 -1544 0
3623 -3622 2265 1544 0
3623 -3622 -2265 -1544 0
-3623 2266 -1545 0
-3624 3623 0
-3624 -2266 1545 0
-3624 2266 -1545 0
3624 -3623 2266 1545 0
3624 -3623 -2266 -1545 0
-3624 2267 -1546 0
-3625 3624 0
-3625 -2267 1546 0
-3625 2267 -1546 0
3625 -3624 2267 1546 0
3625 -3624 -2267 -1546 0
-3625 2268 -1547 0
-3626 3625 0
-3626 -2268 1547 0
-3626 2268 -1547 0
3626 -3625 2268 1547 0
3626 -3625 -2268 -1547 0
-3626 2269 -1548 0
-3627 3626 0
-3627 -2269 1548 0
-3627 2269 -1548 0
3627 -3626 2269 1548 0
3627 -3626 -2269 -1548 0
-3627 2270 -1549 0
-3628 3627 0
-3628 -2270 1549 0
-3628 2270 -1549 0
3628 -3627 2270 1549 0
3628 -3627 -2270 -1549 0
-3628 2271 -1550 0
-3629 3628 0
-3629 -2271 1550 0
-3629 2271 -1550 0
3629 -3628 2271 1550 0
3629 -3628 -2271 -1550 0
-3629 2361 -1640 0
-3630 3629 0
-3630 -2361 1640 0
-3630 2361 -1640 0
3630 -3629 2361 1640 0
3630 -3629 -2361 -1640 0
-3630 2362 -1641 0
-3631 3630 0
-3631 -2362 1641 0
-3631 2362 -1641 0
3631 -3630 2362 1641 0
3631 -3630 -2362 -1641 0
-3631 2363 -1642 0
-3632 3631 0
-3632 -2363 1642 0
-3632 2363 -1642 0
3632 -3631 2363 1642 0
3632 -3631 -2363 -1642 0
-3632 2364 -1643 0
-3633 3632 0
-3633 -2364 1643 0
-3633 2364 -1643 0
3633 -3632 2364 1643 0
3633 -3632 -2364 -1643 0
-3633 2365 -1644 0
-3634 3633 0
-3634 -2365 1644 0
-3634 2365 -1644 0
3634 -3633 2365 1644 0
3634 -3633 -2365 -1644 0
-3634 2366 -1645 0
-3635 3634 0
-3635 -2366 1645 0
-3635 2366 -1645 0
3635 -3634 2366 1645 0
3635 -3634 -2366 -1645 0
-3635 2367 -1646 0
-3636 3635 0
-3636 -2367 1646 0
-3636 2367 -1646 0
3636 -3635 2367 1646 0
3636 -3635 -2367 -1646 0
-3636 2368 -1647 0
-3637 3636 0
-3637 -2368 1647 0
-3637 2368 -1647 0
3637 -3636 2368 1647 0
3637 -3636 -2368 -1647 0
-3637 2369 -1648 0
-3638 3637 0
-3638 -2369 1648 0
-3638 2369 -1648 0
3638 -3637 2369 1648 0
3638 -3637 -2369 -1648 0
-3638 2370 -1649 0
-3639 3638 0
-3639 -2370 1649 0
-3639 2370 -1649 0
3639 -3638 2370 1649 0
3639 -3638 -2370 -1649 0
-3639 2371 -1650 0
-3640 3639 0
-3640 -2371 1650 0
-3640 2371 -1650 0
3640 -3639 2371 1650 0
3640 -3639 -2371 -1650 0
-3640 2372 -1651 0
-3641 3640 0
-3641 -2372 1651 0
-3641 2372 -1651 0
3641 -3640 2372 1651 0
3641 -3640 -2372 -1651 0
-3641 2373 -1652 0
-3642 3641 0
-3642 -2373 1652 0
-3642 2373 -1652 0
3642 -3641 2373 1652 0
3642 -3641 -2373 -1652 0
-3642 2374 -1653 0
-3643 3642 0
-3643 -2374 1653 0
-3643 2374 -1653 0
3643 -3642 2374 1653 0
3643 -3642 -2374 -1653 0
-3643 2464 -1743 0
-3644 3643 0
-3644 -2464 1743 0
-3644 2464 -1743 0
3644 -3643 2464 1743 0
3644 -3643 -2464 -1743 0
-3644 2465 -1744 0
-3645 3644 0
-3645 -2465 1744 0
-3645 2465 -1744 0
3645 -3644 2465 1744 0
3645 -3644 -2465 -1744 0
-3645 2466 -1745 0
-3646 3645 0
-3646 -2466 1745 0
-3646 2466 -1745 0
3646 -3645 2466 1745 0
3646 -3645 -2466 -1745 0
-3646 2467 -1746 0
-3647 3646 0
-3647 -2467 1746 0
-3647 2467 -1746 0
3647 -3646 2467 1746 0
3647 -3646 -2467 -1746 0
-3647 2468 -1747 0
-3648 3647 0
-3648 -2468 1747 0
-3648 2468 -1747 0
3648 -3647 2468 1747 0
3648 -3647 -2468 -1747 0
-3648 2469 -1748 0
-3649 3648 0
-3649 -2469 1748 0
-3649 2469 -1748 0
3649 -3648 2469 1748 0
3649 -3648 -2469 -1748 0
-3649 2470 -1749 0
-3650 3649 0
-3650 -2470 1749 0
-3650 2470 -1749 0
3650 -3649 2470 1749 0
3650 -3649 -2470 -1749 0
-3650 2471 -1750 0
-3651 3650 0
-3651 -2471 1750 0
-3651 2471 -1750 0
3651 -3650 2471 1750 0
3651 -3650 -2471 -1750 0
-3651 2472 -1751 0
-3652 3651 0
-3652 -2472 1751 0
-3652 2472 -1751 0
3652 -3651 2472 1751 0
3652 -3651 -2472 -1751 0
-3652 2473 -1752 0
-3653 3652 0
-3653 -2473 1752 0
-3653 2473 -1752 0
3653 -3652 2473 1752 0
3653 -3652 -2473 -1752 0
-3653 2474 -1753 0
-3654 3653 0
-3654 -2474 1753 0
-3654 2474 -1753 0
3654 -3653 2474 1753 0
3654 -3653 -2474 -1753 0
-3654 2475 -1754 0
-3655 3654 0
-3655 -2475 1754 0
-3655 2475 -1754 0
3655 -3654 2475 1754 0
3655 -3654 -2475 -1754 0
-3655 2476 -1755 0
-3656 3655 0
-3656 -2476 1755 0
-3656 2476 -1755 0
3656 -3655 2476 1755 0
3656 -3655 -2476 -1755 0
-3656 2477 -1756 0
-3657 3656 0
-3657 -2477 1756 0
-3657 2477 -1756 0
3657 -3656 2477 1756 0
3657 -3656 -2477 -1756 0
-3657 2567 -1846 0
-3658 3657 0
-3658 -2567 1846 0
-3658 2567 -1846 0
3658 -3657 2567 1846 0
3658 -3657 -2567 -1846 0
-3658 2568 -1847 0
-3659 3658 0
-3659 -2568 1847 0
-3659 2568 -1847 0
3659 -3658 2568 1847 0
3659 -3658 -2568 -1847 0
-3659 2569 -1848 0
-3660 3659 0
-3660 -2569 1848 0
-3660 2569 -1848 0
3660 -3659 2569 1848 0
3660 -3659 -2569 -1848 0
-3660 2570 -1849 0
-3661 3660 0
-3661 -2570 1849 0
-3661 2570 -1849 0
3661 -3660 2570 1849 0
3661 -3660 -2570 -1849 0
-3661 2571 -1850 0
-3662 3661 0
-3662 -2571 1850 0
-3662 2571 -1850 0
3662 -3661 2571 1850 0
3662 -3661 -2571 -1850 0
-3662 2572 -1851 0
-3663 3662 0
-3663 -2572 1851 0
-3663 2572 -1851 0
3663 -3662 2572 1851 0
3663 -3662 -2572 -1851 0
-3663 2573 -1852 0
-3664 3663 0
-3664 -2573 1852 0
-3664 2573 -1852 0
3664 -3663 2573 1852 0
3664 -3663 -2573 -1852 0
-3664 2574 -1853 0
-3665 3664 0
-3665 -2574 1853 0
-3665 2574 -1853 0
3665 -3664 2574 1853 0
3665 -3664 -2574 -1853 0
-3665 2575 -1854 0
-3666 3665 0
-3666 -2575 1854 0
-3666 2575 -1854 0
3666 -3665 2575 1854 0
3666 -3665 -2575 -1854 0
-3666 2576 -1855 0
-3667 3666 0
-3667 -2576 1855 0
-3667 2576 -1855 0
3667 -3666 2576 1855 0
3667 -3666 -2576 -1855 0
-3667 2577 -1856 0
-3668 3667 0
-3668 -2577 1856 0
-3668 2577 -1856 0
3668 -3667 2577 1856 0
3668 -3667 -2577 -1856 0
-3668 2578 -1857 0
-3669 3668 0
-3669 -2578 1857 0
-3669 2578 -1857 0
3669 -3668 2578 1857 0
3669 -3668 -2578 -1857 0
-3669 2579 -1858 0
-3670 3669 0
-3670 -2579 1858 0
-3670 2579 -1858 0
3670 -3669 2579 1858 0
3670 -3669 -2579 -1858 0
-3670 2580 -1859 0
-3671 3670 0
-3671 -2580 1859 0
-3671 2580 -1859 0
3671 -3670 2580 1859 0
3671 -3670 -2580 -1859 0
-3671 2670 -1949 0
-3672 3671 0
-3672 -2670 1949 0
-3672 2670 -1949 0
3672 -3671 2670 1949 0
3672 -3671 -2670 -1949 0
-3672 2671 -1950 0
-3673 3672 0
-3673 -2671 1950 0
-3673 2671 -1950 0
3673 -3672 2671 1950 0
3673 -3672 -2671 -1950 0
-3673 2672 -1951 0
-3674 3673 0
-3674 -2672 1951 0
-3674 2672 -1951 0
3674 -3673 2672 1951 0
3674 -3673 -2672 -1951 0
-3674 2673 -1952 0
-3675 3674 0
-3675 -2673 1952 0
-3675 2673 -1952 0
3675 -3674 2673 1952 0
3675 -3674 -2673 -1952 0
-3675 2674 -1953 0
-3676 3675 0
-3676 -2674 1953 0
-3676 2674 -1953 0
3676 -3675 2674 1953 0
3676 -3675 -2674 -1953 0
-3676 2675 -1954 0
-3677 3676 0
-3677 -2675 1954 0
-3677 2675 -1954 0
3677 -3676 2675 1954 0
3677 -3676 -2675 -1954 0
-3677 2676 -1955 0
-3678 3677 0
-3678 -2676 1955 0
-3678 2676 -1955 0
3678 -3677 2676 1955 0
3678 -3677 -2676 -1955 0
-3678 2677 -1956 0
-3679 3678 0
-3679 -2677 1956 0
-3679 2677 -1956 0
3679 -3678 2677 1956 0
3679 -3678 -2677 -1956 0
-3679 2678 -1957 0
-3680 3679 0
-3680 -2678 1957 0
-3680 2678 -1957 0
3680 -3679 2678 1957 0
3680 -3679 -2678 -1957 0
-3680 2679 -1958 0
-3681 3680 0
-3681 -2679 1958 0
-3681 2679 -1958 0
3681 -3680 2679 1958 0
3681 -3680 -2679 -1958 0
-3681 2680 -1959 0
-3682 3681 0
-3682 -2680 1959 0
-3682 2680 -1959 0
3682 -3681 2680 1959 0
3682 -3681 -2680 -1959 0
-3682 2681 -1960 0
-3683 3682 0
-3683 -2681 1960 0
-3683 2681 -1960 0
3683 -3682 2681 1960 0
3683 -3682 -2681 -1960 0
-3683 2682 -1961 0
-3684 3683 0
-3684 -2682 1961 0
-3684 2682 -1961 0
3684 -3683 2682 1961 0
3684 -3683 -2682 -1961 0
-3684 2683 -1962 0
1537 -2155 0
-3685 -1537 2155 0
-3685 1537 -2155 0
3685 1537 2155 0
3685 -1537 -2155 0
-3685 1538 -2156 0
-3686 3685 0
-3686 -1538 2156 0
-3686 1538 -2156 0
3686 -3685 1538 2156 0
3686 -3685 -1538 -2156 0
-3686 1539 -2157 0
-3687 3686 0
-3687 -1539 2157 0
-3687 1539 -2157 0
3687 -3686 1539 2157 0
3687 -3686 -1539 -2157 0
-3687 1540 -2158 0
-3688 3687 0
-3688 -1540 2158 0
-3688 1540 -2158 0
3688 -3687 1540 2158 0
3688 -3687 -1540 -2158 0
-3688 1541 -2159 0
-3689 3688 0
-3689 -1541 2159 0
-3689 1541 -2159 0
3689 -3688 1541 2159 0
3689 -3688 -1541 -2159 0
-3689 1542 -2160 0
-3690 3689 0
-3690 -1542 2160 0
-3690 1542 -2160 0
3690 -3689 1542 2160 0
3690 -3689 -1542 -2160 0
-3690 1543 -2161 0
-3691 3690 0
-3691 -1543 2161 0
-3691 1543 -2161 0
3691 -3690 1543 2161 0
3691 -3690 -1543 -2161 0
-3691 1544 -2162 0
-3692 3691 0
-3692 -1544 2162 0
-3692 1544 -2162 0
3692 -3691 1544 2162 0
3692 -3691 -1544 -2162 0
-3692 1545 -2163 0
-3693 3692 0
-3693 -1545 2163 0
-3693 1545 -2163 0
3693 -3692 1545 2163 0
3693 -3692 -1545 -2163 0
-3693 1546 -2164 0
-3694 3693 0
-3694 -1546 2164 0
-3694 1546 -2164 0
3694 -3693 1546 2164 0
3694 -3693 -1546 -2164 0
-3694 1547 -2165 0
-3695 3694 0
-3695 -1547 2165 0
-3695 1547 -2165 0
3695 -3694 1547 2165 0
3695 -3694 -1547 -2165 0
-3695 1548 -2166 0
-3696 3695 0
-3696 -1548 2166 0
-3696 1548 -2166 0
3696 -3695 1548 2166 0
3696 -3695 -1548 -2166 0
-3696 1549 -2167 0
-3697 3696 0
-3697 -1549 2167 0
-3697 1549 -2167 0
3697 -3696 1549 2167 0
3697 -3696 -1549 -2167 0
-3697 1550 -2168 0
-3698 3697 0
-3698 -1550 2168 0
-3698 1550 -2168 0
3698 -3697 1550 2168 0
3698 -3697 -1550 -2168 0
-3698 1640 -2258 0
-3699 3698 0
-3699 -1640 2258 0
-3699 1640 -2258 0
3699 -3698 1640 2258 0
3699 -3698 -1640 -2258 0
-3699 1641 -2259 0
-3700 3699 0
-3700 -1641 2259 0
-3700 1641 -2259 0
3700 -3699 1641 2259 0
3700 -3699 -1641 -2259 0
-3700 1642 -2260 0
-3701 3700 0
-3701 -1642 2260 0
-3701 1642 -2260 0
3701 -3700 1642 2260 0
3701 -3700 -1642 -2260 0
-3701 1643 -2261 0
-3702 3701 0
-3702 -1643 2261 0
-3702 1643 -2261 0
3702 -3701 1643 2261 0
3702 -3701 -1643 -2261 0
-3702 1644 -2262 0
-3703 3702 0
-3703 -1644 2262 0
-3703 1644 -2262 0
3703 -3702 1644 2262 0
3703 -3702 -1644 -2262 0
-3703 1645 -2263 0
-3704 3703 0
-3704 -1645 2263 0
-3704 1645 -2263 0
3704 -3703 1645 2263 0
3704 -3703 -1645 -2263 0
-3704 1646 -2264 0
-3705 3704 0
-3705 -1646 2264 0
-3705 1646 -2264 0
3705 -3704 1646 2264 0
3705 -3704 -1646 -2264 0
-3705 1647 -2265 0
-3706 3705 0
-3706 -1647 2265 0
-3706 1647 -2265 0
3706 -3705 1647 2265 0
3706 -3705 -1647 -2265 0
-3706 1648 -2266 0
-3707 3706 0
-3707 -1648 2266 0
-3707 1648 -2266 0
3707 -3706 1648 2266 0
3707 -3706 -1648 -2266 0
-3707 1649 -2267 0
-3708 3707 0
-3708 -1649 2267 0
-3708 1649 -2267 0
3708 -3707 1649 2267 0
3708 -3707 -1649 -2267 0
-3708 1650 -2268 0
-3709 3708 0
-3709 -1650 2268 0
-3709 1650 -2268 0
3709 -3708 1650 2268 0
3709 -3708 -1650 -2268 0
-3709 1651 -2269 0
-3710 3709 0
-3710 -1651 2269 0
-3710 1651 -2269 0
3710 -3709 1651 2269 0
3710 -3709 -1651 -2269 0
-3710 1652 -2270 0
-3711 3710 0
-3711 -1652 2270 0
-3711 1652 -2270 0
3711 -3710 1652 2270 0
3711 -3710 -1652 -2270 0
-3711 1653 -2271 0
-3712 3711 0
-3712 -1653 2271 0
-3712 1653 -2271 0
3712 -3711 1653 2271 0
3712 -3711 -1653 -2271 0
-3712 1743 -2361 0
-3713 3712 0
-3713 -1743 2361 0
-3713 1743 -2361 0
3713 -3712 1743 2361 0
3713 -3712 -1743 -2361 0
-3713 1744 -2362 0
-3714 3713 0
-3714 -1744 2362 0
-3714 1744 -2362 0
3714 -3713 1744 2362 0
3714 -3713 -1744 -2362 0
-3714 1745 -2363 0
-3715 3714 0
-3715 -1745 2363 0
-3715 1745 -2363 0
3715 -3714 1745 2363 0
3715 -3714 -1745 -2363 0
-3715 1746 -2364 0
-3716 3715 0
-3716 -1746 2364 0
-3716 1746 -2364 0
3716 -3715 1746 2364 0
3716 -3715 -1746 -2364 0
-3716 1747 -2365 0
-3717 3716 0
-3717 -1747 2365 0
-3717 1747 -2365 0
3717 -3716 1747 2365 0
3717 -3716 -1747 -2365 0
-3717 1748 -2366 0
-3718 3717 0
-3718 -1748 2366 0
-3718 1748 -2366 0
3718 -3717 1748 2366 0
3718 -3717 -1748 -2366 0
-3718 1749 -2367 0
-3719 3718 0
-3719 -1749 2367 0
-3719 1749 -2367 0
3719 -3718 1749 2367 0
3719 -3718 -1749 -2367 0
-3719 1750 -2368 0
-3720 3719 0
-3720 -1750 2368 0
-3720 1750 -2368 0
3720 -3719 1750 2368 0
3720 -3719 -1750 -2368 0
-3720 1751 -2369 0
-3721 3720 0
-3721 -1751 2369 0
-3721 1751 -2369 0
3721 -3720 1751 2369 0
3721 -3720 -1751 -2369 0
-3721 1752 -2370 0
-3722 3721 0
-3722 -1752 2370 0
-3722 1752 -2370 0
3722 -3721 1752 2370 0
3722 -3721 -1752 -2370 0
-3722 1753 -2371 0
-3723 3722 0
-3723 -1753 2371 0
-3723 1753 -2371 0
3723 -3722 1753 2371 0
3723 -3722 -1753 -2371 0
-3723 1754 -2372 0
-3724 3723 0
-3724 -1754 2372 0
-3724 1754 -2372 0
3724 -3723 1754 2372 0
3724 -3723 -1754 -2372 0
-3724 1755 -2373 0
-3725 3724 0
-3725 -1755 2373 0
-3725 1755 -2373 0
3725 -3724 1755 2373 0
3725 -3724 -1755 -2373 0
-3725 1756 -2374 0
-3726 3725 0
-3726 -1756 2374 0
-3726 1756 -2374 0
3726 -3725 1756 2374 0
3726 -3725 -1756 -2374 0
-3726 1846 -2464 0
-3727 3726 0
-3727 -1846 2464 0
-3727 1846 -2464 0
3727 -3726 1846 2464 0
3727 -3726 -1846 -2464 0
-3727 1847 -2465 0
-3728 3727 0
-3728 -1847 2465 0
-3728 1847 -2465 0
3728 -3727 1847 2465 0
3728 -3727 -1847 -2465 0
-3728 1848 -2466 0
-3729 3728 0
-3729 -1848 2466 0
-3729 1848 -2466 0
3729 -3728 1848 2466 0
3729 -3728 -1848 -2466 0
-3729 1849 -2467 0
-3730 3729 0
-3730 -1849 2467 0
-3730 1849 -2467 0
3730 -3729 1849 2467 0
3730 -3729 -1849 -2467 0
-3730 1850 -2468 0
-3731 3730 0
-3731 -1850 2468 0
-3731 1850 -2468 0
3731 -3730 1850 2468 0
3731 -3730 -1850 -2468 0
-3731 1851 -2469 0
-3732 3731 0
-3732 -1851 2469 0
-3732 1851 -2469 0
3732 -3731 1851 2469 0
3732 -3731 -1851 -2469 0
-3732 1852 -2470 0
-3733 3732 0
-3733 -1852 2470 0
-3733 1852 -2470 0
3733 -3732 1852 2470 0
3733 -3732 -1852 -2470 0
-3733 1853 -2471 0
-3734 3733 0
-3734 -1853 2471 0
-3734 1853 -2471 0
3734 -3733 1853 2471 0
3734 -3733 -1853 -2471 0
-3734 1854 -2472 0
-3735 3734 0
-3735 -1854 2472 0
-3735 1854 -2472 0
3735 -3734 1854 2472 0
3735 -3734 -1854 -2472 0
-3735 1855 -2473 0
-3736 3735 0
-3736 -1855 2473 0
-3736 1855 -2473 0
3736 -3735 1855 2473 0
3736 -3735 -1855 -2473 0
-3736 1856 -2474 0
-3737 3736 0
-3737 -1856 2474 0
-3737 1856 -2474 0
3737 -3736 1856 2474 0
3737 -3736 -1856 -2474 0
-3737 1857 -2475 0
-3738 3737 0
-3738 -1857 2475 0
-3738 1857 -2475 0
3738 -3737 1857 2475 0
3738 -3737 -1857 -2475 0
-3738 1858 -2476 0
-3739 3738 0
-3739 -1858 2476 0
-3739 1858 -2476 0
3739 -3738 1858 2476 0
3739 -3738 -1858 -2476 0
-3739 1859 -2477 0
-3740 3739 0
-3740 -1859 2477 0
-3740 1859 -2477 0
3740 -3739 1859 2477 0
3740 -3739 -1859 -2477 0
-3740 1949 -2567 0
-3741 3740 0
-3741 -1949 2567 0
-3741 1949 -2567 0
3741 -3740 1949 2567 0
3741 -3740 -1949 -2567 0
-3741 1950 -2568 0
-3742 3741 0
-3742 -1950 2568 0
-3742 1950 -2568 0
3742 -3741 1950 2568 0
3742 -3741 -1950 -2568 0
-3742 1951 -2569 0
-3743 3742 0
-3743 -1951 2569 0
-3743 1951 -2569 0
3743 -3742 1951 2569 0
3743 -3742 -1951 -2569 0
-3743 1952 -2570 0
-3744 3743 0
-3744 -1952 2570 0
-3744 1952 -2570 0
3744 -3743 1952 2570 0
3744 -3743 -1952 -2570 0
-3744 1953 -2571 0
-3745 3744 0
-3745 -1953 2571 0
-3745 1953 -2571 0
3745 -3744 1953 2571 0
3745 -3744 -1953 -2571 0
-3745 1954 -2572 0
-3746 3745 0
-3746 -1954 2572 0
-3746 1954 -2572 0
3746 -3745 1954 2572 0
3746 -3745 -1954 -2572 0
-3746 1955 -2573 0
-3747 3746 0
-3747 -1955 2573 0
-3747 1955 -2573 0
3747 -3746 1955 2573 0
3747 -3746 -1955 -2573 0
-3747 1956 -2574 0
-3748 3747 0
-3748 -1956 2574 0
-3748 1956 -2574 0
3748 -3747 1956 2574 0
3748 -3747 -1956 -2574 0
-3748 1957 -2575 0
-3749 3748 0
-3749 -1957 2575 0
-3749 1957 -2575 0
3749 -3748 1957 2575 0
3749 -3748 -1957 -2575 0
-3749 1958 -2576 0
-3750 3749 0
-3750 -1958 2576 0
-3750 1958 -2576 0
3750 -3749 1958 2576 0
3750 -3749 -1958 -2576 0
-3750 1959 -2577 0
-3751 3750 0
-3751 -1959 2577 0
-3751 1959 -2577 0
3751 -3750 1959 2577 0
3751 -3750 -1959 -2577 0
-3751 1960 -2578 0
-3752 3751 0
-3752 -1960 2578 0
-3752 1960 -2578 0
3752 -3751 1960 2578 0
3752 -3751 -1960 -2578 0
-3752 1961 -2579 0
-3753 3752 0
-3753 -1961 2579 0
-3753 1961 -2579 0
3753 -3752 1961 2579 0
3753 -3752 -1961 -2579 0
-3753 1962 -2580 0
-3754 3753 0
-3754 -1962 2580 0
-3754 1962 -2580 0
3754 -3753 1962 2580 0
3754 -3753 -1962 -2580 0
-3754 2052 -2670 0
-3755 3754 0
-3755 -2052 2670 0
-3755 2052 -2670 0
3755 -3754 2052 2670 0
3755 -3754 -2052 -2670 0
-3755 2053 -2671 0
-3756 3755 0
-3756 -2053 2671 0
-3756 2053 -2671 0
3756 -3755 2053 2671 0
3756 -3755 -2053 -2671 0
-3756 2054 -2672 0
-3757 3756 0
-3757 -2054 2672 0
-3757 2054 -2672 0
3757 -3756 2054 2672 0
3757 -3756 -2054 -2672 0
-3757 2055 -2673 0
-3758 3757 0
-3758 -2055 2673 0
-3758 2055 -2673 0
3758 -3757 2055 2673 0
3758 -3757 -2055 -2673 0
-3758 2056 -2674 0
-3759 3758 0
-3759 -2056 2674 0
-3759 2056 -2674 0
3759 -3758 2056 2674 0
3759 -3758 -2056 -2674 0
-3759 2057 -2675 0
-3760 3759 0
-3760 -2057 2675 0
-3760 2057 -2675 0
3760 -3759 2057 2675 0
3760 -3759 -2057 -2675 0
-3760 2058 -2676 0
-3761 3760 0
-3761 -2058 2676 0
-3761 2058 -2676 0
3761 -3760 2058 2676 0
3761 -3760 -2058 -2676 0
-3761 2059 -2677 0
-3762 3761 0
-3762 -2059 2677 0
-3762 2059 -2677 0
3762 -3761 2059 2677 0
3762 -3761 -2059 -2677 0
-3762 2060 -2678 0
-3763 3762 0
-3763 -2060 2678 0
-3763 2060 -2678 0
3763 -3762 2060 2678 0
3763 -3762 -2060 -2678 0
-3763 2061 -2679 0
-3764 3763 0
-3764 -2061 2679 0
-3764 2061 -2679 0
3764 -3763 2061 2679 0
3764 -3763 -2061 -2679 0
-3764 2062 -2680 0
-3765 3764 0
-3765 -2062 2680 0
-3765 2062 -2680 0
3765 -3764 2062 2680 0
3765 -3764 -2062 -2680 0
-3765 2063 -2681 0
-3766 3765 0
-3766 -2063 2681 0
-3766 2063 -2681 0
3766 -3765 2063 2681 0
3766 -3765 -2063 -2681 0
-3766 2064 -2682 0
-3767 3766 0
-3767 -2064 2682 0
-3767 2064 -2682 0
3767 -3766 2064 2682 0
3767 -3766 -2064 -2682 0
-3767 2065 -2683 0
-3768 3767 0
-3768 -2065 2683 0
-3768 2065 -2683 0
3768 -3767 2065 2683 0
3768 -3767 -2065 -2683 0
-3768 2155 -1537 0
-3769 3768 0
-3769 -2155 1537 0
-3769 2155 -1537 0
3769 -3768 2155 1537 0
3769 -3768 -2155 -1537 0
-3769 2156 -1538 0
-3770 3769 0
-3770 -2156 1538 0
-3770 2156 -1538 0
3770 -3769 2156 1538 0
3770 -3769 -2156 -1538 0
-3770 2157 -1539 0
-3771 3770 0
-3771 -2157 1539 0
-3771 2157 -1539 0
3771 -3770 2157 1539 0
3771 -3770 -2157 -1539 0
-3771 2158 -1540 0
-3772 3771 0
-3772 -2158 1540 0
-3772 2158 -1540 0
3772 -3771 2158 1540 0
3772 -3771 -2158 -1540 0
-3772 2159 -1541 0
-3773 3772 0
-3773 -2159 1541 0
-3773 2159 -1541 0
3773 -3772 2159 1541 0
3773 -3772 -2159 -1541 0
-3773 2160 -1542 0
-3774 3773 0
-3774 -2160 1542 0
-3774 2160 -1542 0
3774 -3773 2160 1542 0
3774 -3773 -2160 -1542 0
-3774 2161 -1543 0
-3775 3774 0
-3775 -2161 1543 0
-3775 2161 -1543 0
3775 -3774 2161 1543 0
3775 -3774 -2161 -1543 0
-3775 2162 -1544 0
-3776 3775 0
-3776 -2162 1544 0
-3776 2162 -1544 0
3776 -3775 2162 1544 0
3776 -3775 -2162 -1544 0
-3776 2163 -1545 0
-3777 3776 0
-3777 -2163 1545 0
-3777 2163 -1545 0
3777 -3776 2163 1545 0
3777 -3776 -2163 -1545 0
-3777 2164 -1546 0
-3778 3777 0
-3778 -2164 1546 0
-3778 2164 -1546 0
3778 -3777 2164 1546 0
3778 -3777 -2164 -1546 0
-3778 2165 -1547 0
-3779 3778 0
-3779 -2165 1547 0
-3779 2165 -1547 0
3779 -3778 2165 1547 0
3779 -3778 -2165 -1547 0
-3779 2166 -1548 0
-3780 3779 0
-3780 -2166 1548 0
-3780 2166 -1548 0
3780 -3779 2166 1548 0
3780 -3779 -2166 -1548 0
-3780 2167 -1549 0
-3781 3780 0
-3781 -2167 1549 0
-3781 2167 -1549 0
3781 -3780 2167 1549 0
3781 -3780 -2167 -1549 0
-3781 2168 -1550 0
-3782 3781 0
-3782 -2168 1550 0
-3782 2168 -1550 0
3782 -3781 2168 1550 0
3782 -3781 -2168 -1550 0
-3782 2258 -1640 0
-3783 3782 0
-3783 -2258 1640 0
-3783 2258 -1640 0
3783 -3782 2258 1640 0
3783 -3782 -2258 -1640 0
-3783 2259 -1641 0
-3784 3783 0
-3784 -2259 1641 0
-3784 2259 -1641 0
3784 -3783 2259 1641 0
3784 -3783 -2259 -1641 0
-3784 2260 -1642 0
-3785 3784 0
-3785 -2260 1642 0
-3785 2260 -1642 0
3785 -3784 2260 1642 0
3785 -3784 -2260 -1642 0
-3785 2261 -1643 0
-3786 3785 0
-3786 -2261 1643 0
-3786 2261 -1643 0
3786 -3785 2261 1643 0
3786 -3785 -2261 -1643 0
-3786 2262 -1644 0
-3787 3786 0
-3787 -2262 1644 0
-3787 2262 -1644 0
3787 -3786 2262 1644 0
3787 -3786 -2262 -1644 0
-3787 2263 -1645 0
-3788 3787 0
-3788 -2263 1645 0
-3788 2263 -1645 0
3788 -3787 2263 1645 0
3788 -3787 -2263 -1645 0
-3788 2264 -1646 0
-3789 3788 0
-3789 -2264 1646 0
-3789 2264 -1646 0
3789 -3788 2264 1646 0
3789 -3788 -2264 -1646 0
-3789 2265 -1647 0
-3790 3789 0
-3790 -2265 1647 0
-3790 2265 -1647 0
3790 -3789 2265 1647 0
3790 -3789 -2265 -1647 0
-3790 2266 -1648 0
-3791 3790 0
-3791 -2266 1648 0
-3791 2266 -1648 0
3791 -3790 2266 1648 0
3791 -3790 -2266 -1648 0
-3791 2267 -1649 0
-3792 3791 0
-3792 -2267 1649 0
-3792 2267 -1649 0
3792 -3791 2267 1649 0
3792 -3791 -2267 -1649 0
-3792 2268 -1650 0
-3793 3792 0
-3793 -2268 1650 0
-3793 2268 -1650 0
3793 -3792 2268 1650 0
3793 -3792 -2268 -1650 0
-3793 2269 -1651 0
-3794 3793 0
-3794 -2269 1651 0
-3794 2269 -1651 0
3794 -3793 2269 1651 0
3794 -3793 -2269 -1651 0
-3794 2270 -1652 0
-3795 3794 0
-3795 -2270 1652 0
-3795 2270 -1652 0
3795 -3794 2270 1652 0
3795 -3794 -2270 -1652 0
-3795 2271 -1653 0
-3796 3795 0
-3796 -2271 1653 0
-3796 2271 -1653 0
3796 -3795 2271 1653 0
3796 -3795 -2271 -1653 0
-3796 2361 -1743 0
-3797 3796 0
-3797 -2361 1743 0
-3797 2361 -1743 0
3797 -3796 2361 1743 0
3797 -3796 -2361 -1743 0
-3797 2362 -1744 0
-3798 3797 0
-3798 -2362 1744 0
-3798 2362 -1744 0
3798 -3797 2362 1744 0
3798 -3797 -2362 -1744 0
-3798 2363 -1745 0
-3799 3798 0
-3799 -2363 1745 0
-3799 2363 -1745 0
3799 -3798 2363 1745 0
3799 -3798 -2363 -1745 0
-3799 2364 -1746 0
-3800 3799 0
-3800 -2364 1746 0
-3800 2364 -1746 0
3800 -3799 2364 1746 0
3800 -3799 -2364 -1746 0
-3800 2365 -1747 0
-3801 3800 0
-3801 -2365 1747 0
-3801 2365 -1747 0
3801 -3800 2365 1747 0
3801 -3800 -2365 -1747 0
-3801 2366 -1748 0
-3802 3801 0
-3802 -2366 1748 0
-3802 2366 -1748 0
3802 -3801 2366 1748 0
3802 -3801 -2366 -1748 0
-3802 2367 -1749 0
-3803 3802 0
-3803 -2367 1749 0
-3803 2367 -1749 0
3803 -3802 2367 1749 0
3803 -3802 -2367 -1749 0
-3803 2368 -1750 0
-3804 3803 0
-3804 -2368 1750 0
-3804 2368 -1750 0
3804 -3803 2368 1750 0
3804 -3803 -2368 -1750 0
-3804 2369 -1751 0
-3805 3804 0
-3805 -2369 1751 0
-3805 2369 -1751 0
3805 -3804 2369 1751 0
3805 -3804 -2369 -1751 0
-3805 2370 -1752 0
-3806 3805 0
-3806 -2370 1752 0
-3806 2370 -1752 0
3806 -3805 2370 1752 0
3806 -3805 -2370 -1752 0
-3806 2371 -1753 0
-3807 3806 0
-3807 -2371 1753 0
-3807 2371 -1753 0
3807 -3806 2371 1753 0
3807 -3806 -2371 -1753 0
-3807 2372 -1754 0
-3808 3807 0
-3808 -2372 1754 0
-3808 2372 -1754 0
3808 -3807 2372 1754 0
3808 -3807 -2372 -1754 0
-3808 2373 -1755 0
-3809 3808 0
-3809 -2373 1755 0
-3809 2373 -1755 0
3809 -3808 2373 1755 0
3809 -3808 -2373 -1755 0
-3809 2374 -1756 0
-3810 3809 0
-3810 -2374 1756 0
-3810 2374 -1756 0
3810 -3809 2374 1756 0
3810 -3809 -2374 -1756 0
-3810 2464 -1846 0
-3811 3810 0
-3811 -2464 1846 0
-3811 2464 -1846 0
3811 -3810 2464 1846 0
3811 -3810 -2464 -1846 0
-3811 2465 -1847 0
-3812 3811 0
-3812 -2465 1847 0
-3812 2465 -1847 0
3812 -3811 2465 1847 0
3812 -3811 -2465 -1847 0
-3812 2466 -1848 0
-3813 3812 0
-3813 -2466 1848 0
-3813 2466 -1848 0
3813 -3812 2466 1848 0
3813 -3812 -2466 -1848 0
-3813 2467 -1849 0
-3814 3813 0
-3814 -2467 1849 0
-3814 2467 -1849 0
3814 -3813 2467 1849 0
3814 -3813 -2467 -1849 0
-3814 2468 -1850 0
-3815 3814 0
-3815 -2468 1850 0
-3815 2468 -1850 0
3815 -3814 2468 1850 0
3815 -3814 -2468 -1850 0
-3815 2469 -1851 0
-3816 3815 0
-3816 -2469 1851 0
-3816 2469 -1851 0
3816 -3815 2469 1851 0
3816 -3815 -2469 -1851 0
-3816 2470 -1852 0
-3817 3816 0
-3817 -2470 1852 0
-3817 2470 -1852 0
3817 -3816 2470 1852 0
3817 -3816 -2470 -1852 0
-3817 2471 -1853 0
-3818 3817 0
-3818 -2471 1853 0
-3818 2471 -1853 0
3818 -3817 2471 1853 0
3818 -3817 -2471 -1853 0
-3818 2472 -1854 0
-3819 3818 0
-3819 -2472 1854 0
-3819 2472 -1854 0
3819 -3818 2472 1854 0
3819 -3818 -2472 -1854 0
-3819 2473 -1855 0
-3820 3819 0
-3820 -2473 1855 0
-3820 2473 -1855 0
3820 -3819 2473 1855 0
3820 -3819 -2473 -1855 0
-3820 2474 -1856 0
-3821 3820 0
-3821 -2474 1856 0
-3821 2474 -1856 0
3821 -3820 2474 1856 0
3821 -3820 -2474 -1856 0
-3821 2475 -1857 0
-3822 3821 0
-3822 -2475 1857 0
-3822 2475 -1857 0
3822 -3821 2475 1857 0
3822 -3821 -2475 -1857 0
-3822 2476 -1858 0
-3823 3822 0
-3823 -2476 1858 0
-3823 2476 -1858 0
3823 -3822 2476 1858 0
3823 -3822 -2476 -1858 0
-3823 2477 -1859 0
-3824 3823 0
-3824 -2477 1859 0
-3824 2477 -1859 0
3824 -3823 2477 1859 0
3824 -3823 -2477 -1859 0
-3824 2567 -1949 0
-3825 3824 0
-3825 -2567 1949 0
-3825 2567 -1949 0
3825 -3824 2567 1949 0
3825 -3824 -2567 -1949 0
-3825 2568 -1950 0
-3826 3825 0
-3826 -2568 1950 0
-3826 2568 -1950 0
3826 -3825 2568 1950 0
3826 -3825 -2568 -1950 0
-3826 2569 -1951 0
-3827 3826 0
-3827 -2569 1951 0
-3827 2569 -1951 0
3827 -3826 2569 1951 0
3827 -3826 -2569 -1951 0
-3827 2570 -1952 0
-3828 3827 0
-3828 -2570 1952 0
-3828 2570 -1952 0
3828 -3827 2570 1952 0
3828 -3827 -2570 -1952 0
-3828 2571 -1953 0
-3829 3828 0
-3829 -2571 1953 0
-3829 2571 -1953 0
3829 -3828 2571 1953 0
3829 -3828 -2571 -1953 0
-3829 2572 -1954 0
-3830 3829 0
-3830 -2572 1954 0
-3830 2572 -1954 0
3830 -3829 2572 1954 0
3830 -3829 -2572 -1954 0
-3830 2573 -1955 0
-3831 3830 0
-3831 -2573 1955 0
-3831 2573 -1955 0
3831 -3830 2573 1955 0
3831 -3830 -2573 -1955 0
-3831 2574 -1956 0
-3832 3831 0
-3832 -2574 1956 0
-3832 2574 -1956 0
3832 -3831 2574 1956 0
3832 -3831 -2574 -1956 0
-3832 2575 -1957 0
-3833 3832 0
-3833 -2575 1957 0
-3833 2575 -1957 0
3833 -3832 2575 1957 0
3833 -3832 -2575 -1957 0
-3833 2576 -1958 0
-3834 3833 0
-3834 -2576 1958 0
-3834 2576 -1958 0
3834 -3833 2576 1958 0
3834 -3833 -2576 -1958 0
-3834 2577 -1959 0
-3835 3834 0
-3835 -2577 1959 0
-3835 2577 -1959 0
3835 -3834 2577 1959 0
3835 -3834 -2577 -1959 0
-3835 2578 -1960 0
-3836 3835 0
-3836 -2578 1960 0
-3836 2578 -1960 0
3836 -3835 2578 1960 0
3836 -3835 -2578 -1960 0
-3836 2579 -1961 0
-3837 3836 0
-3837 -2579 1961 0
-3837 2579 -1961 0
3837 -3836 2579 1961 0
3837 -3836 -2579 -1961 0
-3837 2580 -1962 0
-3838 3837 0
-3838 -2580 1962 0
-3838 2580 -1962 0
3838 -3837 2580 1962 0
3838 -3837 -2580 -1962 0
-3838 2670 -2052 0
-3839 3838 0
-3839 -2670 2052 0
-3839 2670 -2052 0
3839 -3838 2670 2052 0
3839 -3838 -2670 -2052 0
-3839 2671 -2053 0
-3840 3839 0
-3840 -2671 2053 0
-3840 2671 -2053 0
3840 -3839 2671 2053 0
3840 -3839 -2671 -2053 0
-3840 2672 -2054 0
-3841 3840 0
-3841 -2672 2054 0
-3841 2672 -2054 0
3841 -3840 2672 2054 0
3841 -3840 -2672 -2054 0
-3841 2673 -2055 0
-3842 3841 0
-3842 -2673 2055 0
-3842 2673 -2055 0
3842 -3841 2673 2055 0
3842 -3841 -2673 -2055 0
-3842 2674 -2056 0
-3843 3842 0
-3843 -2674 2056 0
-3843 2674 -2056 0
3843 -3842 2674 2056 0
3843 -3842 -2674 -2056 0
-3843 2675 -2057 0
-3844 3843 0
-3844 -2675 2057 0
-3844 2675 -2057 0
3844 -3843 2675 2057 0
3844 -3843 -2675 -2057 0
-3844 2676 -2058 0
-3845 3844 0
-3845 -2676 2058 0
-3845 2676 -2058 0
3845 -3844 2676 2058 0
3845 -3844 -2676 -2058 0
-3845 2677 -2059 0
-3846 3845 0
-3846 -2677 2059 0
-3846 2677 -2059 0
3846 -3845 2677 2059 0
3846 -3845 -2677 -2059 0
-3846 2678 -2060 0
-3847 3846 0
-3847 -2678 2060 0
-3847 2678 -2060 0
3847 -3846 2678 2060 0
3847 -3846 -2678 -2060 0
-3847 2679 -2061 0
-3848 3847 0
-3848 -2679 2061 0
-3848 2679 -2061 0
3848 -3847 2679 2061 0
3848 -3847 -2679 -2061 0
-3848 2680 -2062 0
-3849 3848 0
-3849 -2680 2062 0
-3849 2680 -2062 0
3849 -3848 2680 2062 0
3849 -3848 -2680 -2062 0
-3849 2681 -2063 0
-3850 3849 0
-3850 -2681 2063 0
-3850 2681 -2063 0
3850 -3849 2681 2063 0
3850 -3849 -2681 -2063 0
-3850 2682 -2064 0
-3851 3850 0
-3851 -2682 2064 0
-3851 2682 -2064 0
3851 -3850 2682 2064 0
3851 -3850 -2682 -2064 0
-3851 2683 -2065 0
1537 -2258 0
-3852 -1537 2258 0
-3852 1537 -2258 0
3852 1537 2258 0
3852 -1537 -2258 0
-3852 1538 -2259 0
-3853 3852 0
-3853 -1538 2259 0
-3853 1538 -2259 0
3853 -3852 1538 2259 0
3853 -3852 -1538 -2259 0
-3853 1539 -2260 0
-3854 3853 0
-3854 -1539 2260 0
-3854 1539 -2260 0
3854 -3853 1539 2260 0
3854 -3853 -1539 -2260 0
-3854 1540 -2261 0
-3855 3854 0
-3855 -1540 2261 0
-3855 1540 -2261 0
3855 -3854 1540 2261 0
3855 -3854 -1540 -2261 0
-3855 1541 -2262 0
-3856 3855 0
-3856 -1541 2262 0
-3856 1541 -2262 0
3856 -3855 1541 2262 0
3856 -3855 -1541 -2262 0
-3856 1542 -2263 0
-3857 3856 0
-3857 -1542 2263 0
-3857 1542 -2263 0
3857 -3856 1542 2263 0
3857 -3856 -1542 -2263 0
-3857 1543 -2264 0
-3858 3857 0
-3858 -1543 2264 0
-3858 1543 -2264 0
3858 -3857 1543 2264 0
3858 -3857 -1543 -2264 0
-3858 1544 -2265 0
-3859 3858 0
-3859 -1544 2265 0
-3859 1544 -2265 0
3859 -3858 1544 2265 0
3859 -3858 -1544 -2265 0
-3859 1545 -2266 0
-3860 3859 0
-3860 -1545 2266 0
-3860 1545 -2266 0
3860 -3859 1545 2266 0
3860 -3859 -1545 -2266 0
-3860 1546 -2267 0
-3861 3860 0
-3861 -1546 2267 0
-3861 1546 -2267 0
3861 -3860 1546 2267 0
3861 -3860 -1546 -2267 0
-3861 1547 -2268 0
-3862 3861 0
-3862 -1547 2268 0
-3862 1547 -2268 0
3862 -3861 1547 2268 0
3862 -3861 -1547 -2268 0
-3862 1548 -2269 0
-3863 3862 0
-3863 -1548 2269 0
-3863 1548 -2269 0
3863 -3862 1548 2269 0
3863 -3862 -1548 -2269 0
-3863 1549 -2270 0
-3864 3863 0
-3864 -1549 2270 0
-3864 1549 -2270 0
3864 -3863 1549 2270 0
3864 -3863 -1549 -2270 0
-3864 1550 -2271 0
-3865 3864 0
-3865 -1550 2271 0
-3865 1550 -2271 0
3865 -3864 1550 2271 0
3865 -3864 -1550 -2271 0
-3865 1640 -2361 0
-3866 3865 0
-3866 -1640 2361 0
-3866 1640 -2361 0
3866 -3865 1640 2361 0
3866 -3865 -1640 -2361 0
-3866 1641 -2362 0
-3867 3866 0
-3867 -1641 2362 0
-3867 1641 -2362 0
3867 -3866 1641 2362 0
3867 -3866 -1641 -2362 0
-3867 1642 -2363 0
-3868 3867 0
-3868 -1642 2363 0
-3868 1642 -2363 0
3868 -3867 1642 2363 0
3868 -3867 -1642 -2363 0
-3868 1643 -2364 0
-3869 3868 0
-3869 -1643 2364 0
-3869 1643 -2364 0
3869 -3868 1643 2364 0
3869 -3868 -1643 -2364 0
-3869 1644 -2365 0
-3870 3869 0
-3870 -1644 2365 0
-3870 1644 -2365 0
3870 -3869 1644 2365 0
3870 -3869 -1644 -2365 0
-3870 1645 -2366 0
-3871 3870 0
-3871 -1645 2366 0
-3871 1645 -2366 0
3871 -3870 1645 2366 0
3871 -3870 -1645 -2366 0
-3871 1646 -2367 0
-3872 3871 0
-3872 -1646 2367 0
-3872 1646 -2367 0
3872 -3871 1646 2367 0
3872 -3871 -1646 -2367 0
-3872 1647 -2368 0
-3873 3872 0
-3873 -1647 2368 0
-3873 1647 -2368 0
3873 -3872 1647 2368 0
3873 -3872 -1647 -2368 0
-3873 1648 -2369 0
-3874 3873 0
-3874 -1648 2369 0
-3874 1648 -2369 0
3874 -3873 1648 2369 0
3874 -3873 -1648 -2369 0
-3874 1649 -2370 0
-3875 3874 0
-3875 -1649 2370 0
-3875 1649 -2370 0
3875 -3874 1649 2370 0
3875 -3874 -1649 -2370 0
-3875 1650 -2371 0
-3876 3875 0
-3876 -1650 2371 0
-3876 1650 -2371 0
3876 -3875 1650 2371 0
3876 -3875 -1650 -2371 0
-3876 1651 -2372 0
-3877 3876 0
-3877 -1651 2372 0
-3877 1651 -2372 0
3877 -3876 1651 2372 0
3877 -3876 -1651 -2372 0
-3877 1652 -2373 0
-3878 3877 0
-3878 -1652 2373 0
-3878 1652 -2373 0
3878 -3877 1652 2373 0
3878 -3877 -1652 -2373 0
-3878 1653 -2374 0
-3879 3878 0
-3879 -1653 2374 0
-3879 1653 -2374 0
3879 -3878 1653 2374 0
3879 -3878 -1653 -2374 0
-3879 1743 -2464 0
-3880 3879 0
-3880 -1743 2464 0
-3880 1743 -2464 0
3880 -3879 1743 2464 0
3880 -3879 -1743 -2464 0
-3880 1744 -2465 0
-3881 3880 0
-3881 -1744 2465 0
-3881 1744 -2465 0
3881 -3880 1744 2465 0
3881 -3880 -1744 -2465 0
-3881 1745 -2466 0
-3882 3881 0
-3882 -1745 2466 0
-3882 1745 -2466 0
3882 -3881 1745 2466 0
3882 -3881 -1745 -2466 0
-3882 1746 -2467 0
-3883 3882 0
-3883 -1746 2467 0
-3883 1746 -2467 0
3883 -3882 1746 2467 0
3883 -3882 -1746 -2467 0
-3883 1747 -2468 0
-3884 3883 0
-3884 -1747 2468 0
-3884 1747 -2468 0
3884 -3883 1747 2468 0
3884 -3883 -1747 -2468 0
-3884 1748 -2469 0
-3885 3884 0
-3885 -1748 2469 0
-3885 1748 -2469 0
3885 -3884 1748 2469 0
3885 -3884 -1748 -2469 0
-3885 1749 -2470 0
-3886 3885 0
-3886 -1749 2470 0
-3886 1749 -2470 0
3886 -3885 1749 2470 0
3886 -3885 -1749 -2470 0
-3886 1750 -2471 0
-3887 3886 0
-3887 -1750 2471 0
-3887 1750 -2471 0
3887 -3886 1750 2471 0
3887 -3886 -1750 -2471 0
-3887 1751 -2472 0
-3888 3887 0
-3888 -1751 2472 0
-3888 1751 -2472 0
3888 -3887 1751 2472 0
3888 -3887 -1751 -2472 0
-3888 1752 -2473 0
-3889 3888 0
-3889 -1752 2473 0
-3889 1752 -2473 0
3889 -3888 1752 2473 0
3889 -3888 -1752 -2473 0
-3889 1753 -2474 0
-3890 3889 0
-3890 -1753 2474 0
-3890 1753 -2474 0
3890 -3889 1753 2474 0
3890 -3889 -1753 -2474 0
-3890 1754 -2475 0
-3891 3890 0
-3891 -1754 2475 0
-3891 1754 -2475 0
3891 -3890 1754 2475 0
3891 -3890 -1754 -2475 0
-3891 1755 -2476 0
-3892 3891 0
-3892 -1755 2476 0
-3892 1755 -2476 0
3892 -3891 1755 2476 0
3892 -3891 -1755 -2476 0
-3892 1756 -2477 0
-3893 3892 0
-3893 -1756 2477 0
-3893 1756 -2477 0
3893 -3892 1756 2477 0
3893 -3892 -1756 -2477 0
-3893 1846 -2567 0
-3894 3893 0
-3894 -1846 2567 0
-3894 1846 -2567 0
3894 -3893 1846 2567 0
3894 -3893 -1846 -2567 0
-3894 1847 -2568 0
-3895 3894 0
-3895 -1847 2568 0
-3895 1847 -2568 0
3895 -3894 1847 2568 0
3895 -3894 -1847 -2568 0
-3895 1848 -2569 0
-3896 3895 0
-3896 -1848 2569 0
-3896 1848 -2569 0
3896 -3895 1848 2569 0
3896 -3895 -1848 -2569 0
-3896 1849 -2570 0
-3897 3896 0
-3897 -1849 2570 0
-3897 1849 -2570 0
3897 -3896 1849 2570 0
3897 -3896 -1849 -2570 0
-3897 1850 -2571 0
-3898 3897 0
-3898 -1850 2571 0
-3898 1850 -2571 0
3898 -3897 1850 2571 0
3898 -3897 -1850 -2571 0
-3898 1851 -2572 0
-3899 3898 0
-3899 -1851 2572 0
-3899 1851 -2572 0
3899 -3898 1851 2572 0
3899 -3898 -1851 -2572 0
-3899 1852 -2573 0
-3900 3899 0
-3900 -1852 2573 0
-3900 1852 -2573 0
3900 -3899 1852 2573 0
3900 -3899 -1852 -2573 0
-3900 1853 -2574 0
-3901 3900 0
-3901 -1853 2574 0
-3901 1853 -2574 0
3901 -3900 1853 2574 0
3901 -3900 -1853 -2574 0
-3901 1854 -2575 0
-3902 3901 0
-3902 -1854 2575 0
-3902 1854 -2575 0
3902 -3901 1854 2575 0
3902 -3901 -1854 -2575 0
-3902 1855 -2576 0
-3903 3902 0
-3903 -1855 2576 0
-3903 1855 -2576 0
3903 -3902 1855 2576 0
3903 -3902 -1855 -2576 0
-3903 1856 -2577 0
-3904 3903 0
-3904 -1856 2577 0
-3904 1856 -2577 0
3904 -3903 1856 2577 0
3904 -3903 -1856 -2577 0
-3904 1857 -2578 0
-3905 3904 0
-3905 -1857 2578 0
-3905 1857 -2578 0
3905 -3904 1857 2578 0
3905 -3904 -1857 -2578 0
-3905 1858 -2579 0
-3906 3905 0
-3906 -1858 2579 0
-3906 1858 -2579 0
3906 -3905 1858 2579 0
3906 -3905 -1858 -2579 0
-3906 1859 -2580 0
-3907 3906 0
-3907 -1859 2580 0
-3907 1859 -2580 0
3907 -3906 1859 2580 0
3907 -3906 -1859 -2580 0
-3907 1949 -2670 0
-3908 3907 0
-3908 -1949 2670 0
-3908 1949 -2670 0
3908 -3907 1949 2670 0
3908 -3907 -1949 -2670 0
-3908 1950 -2671 0
-3909 3908 0
-3909 -1950 2671 0
-3909 1950 -2671 0
3909 -3908 1950 2671 0
3909 -3908 -1950 -2671 0
-3909 1951 -2672 0
-3910 3909 0
-3910 -1951 2672 0
-3910 1951 -2672 0
3910 -3909 1951 2672 0
3910 -3909 -1951 -2672 0
-3910 1952 -2673 0
-3911 3910 0
-3911 -1952 2673 0
-3911 1952 -2673 0
3911 -3910 1952 2673 0
3911 -3910 -1952 -2673 0
-3911 1953 -2674 0
-3912 3911 0
-3912 -1953 2674 0
-3912 1953 -2674 0
3912 -3911 1953 2674 0
3912 -3911 -1953 -2674 0
-3912 1954 -2675 0
-3913 3912 0
-3913 -1954 2675 0
-3913 1954 -2675 0
3913 -3912 1954 2675 0
3913 -3912 -1954 -2675 0
-3913 1955 -2676 0
-3914 3913 0
-3914 -1955 2676 0
-3914 1955 -2676 0
3914 -3913 1955 2676 0
3914 -3913 -1955 -2676 0
-3914 1956 -2677 0
-3915 3914 0
-3915 -1956 2677 0
-3915 1956 -2677 0
3915 -3914 1956 2677 0
3915 -3914 -1956 -2677 0
-3915 1957 -2678 0
-3916 3915 0
-3916 -1957 2678 0
-3916 1957 -2678 0
3916 -3915 1957 2678 0
3916 -3915 -1957 -2678 0
-3916 1958 -2679 0
-3917 3916 0
-3917 -1958 2679 0
-3917 1958 -2679 0
3917 -3916 1958 2679 0
3917 -3916 -1958 -2679 0
-3917 1959 -2680 0
-3918 3917 0
-3918 -1959 2680 0
-3918 1959 -2680 0
3918 -3917 1959 2680 0
3918 -3917 -1959 -2680 0
-3918 1960 -2681 0
-3919 3918 0
-3919 -1960 2681 0
-3919 1960 -2681 0
3919 -3918 1960 2681 0
3919 -3918 -1960 -2681 0
-3919 1961 -2682 0
-3920 3919 0
-3920 -1961 2682 0
-3920 1961 -2682 0
3920 -3919 1961 2682 0
3920 -3919 -1961 -2682 0
-3920 1962 -2683 0
-3921 3920 0
-3921 -1962 2683 0
-3921 1962 -2683 0
3921 -3920 1962 2683 0
3921 -3920 -1962 -2683 0
-3921 2052 -1537 0
-3922 3921 0
-3922 -2052 1537 0
-3922 2052 -1537 0
3922 -3921 2052 1537 0
3922 -3921 -2052 -1537 0
-3922 2053 -1538 0
-3923 3922 0
-3923 -2053 1538 0
-3923 2053 -1538 0
3923 -3922 2053 1538 0
3923 -3922 -2053 -1538 0
-3923 2054 -1539 0
-3924 3923 0
-3924 -2054 1539 0
-3924 2054 -1539 0
3924 -3923 2054 1539 0
3924 -3923 -2054 -1539 0
-3924 2055 -1540 0
-3925 3924 0
-3925 -2055 1540 0
-3925 2055 -1540 0
3925 -3924 2055 1540 0
3925 -3924 -2055 -1540 0
-3925 2056 -1541 0
-3926 3925 0
-3926 -2056 1541 0
-3926 2056 -1541 0
3926 -3925 2056 1541 0
3926 -3925 -2056 -1541 0
-3926 2057 -1542 0
-3927 3926 0
-3927 -2057 1542 0
-3927 2057 -1542 0
3927 -3926 2057 1542 0
3927 -3926 -2057 -1542 0
-3927 2058 -1543 0
-3928 3927 0
-3928 -2058 1543 0
-3928 2058 -1543 0
3928 -3927 2058 1543 0
3928 -3927 -2058 -1543 0
-3928 2059 -1544 0
-3929 3928 0
-3929 -2059 1544 0
-3929 2059 -1544 0
3929 -3928 2059 1544 0
3929 -3928 -2059 -1544 0
-3929 2060 -1545 0
-3930 3929 0
-3930 -2060 1545 0
-3930 2060 -1545 0
3930 -3929 2060 1545 0
3930 -3929 -2060 -1545 0
-3930 2061 -1546 0
-3931 3930 0
-3931 -2061 1546 0
-3931 2061 -1546 0
3931 -3930 2061 1546 0
3931 -3930 -2061 -1546 0
-3931 2062 -1547 0
-3932 3931 0
-3932 -2062 1547 0
-3932 2062 -1547 0
3932 -3931 2062 1547 0
3932 -3931 -2062 -1547 0
-3932 2063 -1548 0
-3933 3932 0
-3933 -2063 1548 0
-3933 2063 -1548 0
3933 -3932 2063 1548 0
3933 -3932 -2063 -1548 0
-3933 2064 -1549 0
-3934 3933 0
-3934 -2064 1549 0
-3934 2064 -1549 0
3934 -3933 2064 1549 0
3934 -3933 -2064 -1549 0
-3934 2065 -1550 0
-3935 3934 0
-3935 -2065 1550 0
-3935 2065 -1550 0
3935 -3934 2065 1550 0
3935 -3934 -2065 -1550 0
-3935 2155 -1640 0
-3936 3935 0
-3936 -2155 1640 0
-3936 2155 -1640 0
3936 -3935 2155 1640 0
3936 -3935 -2155 -1640 0
-3936 2156 -1641 0
-3937 3936 0
-3937 -2156 1641 0
-3937 2156 -1641 0
3937 -3936 2156 1641 0
3937 -3936 -2156 -1641 0
-3937 2157 -1642 0
-3938 3937 0
-3938 -2157 1642 0
-3938 2157 -1642 0
3938 -3937 2157 1642 0
3938 -3937 -2157 -1642 0
-3938 2158 -1643 0
-3939 3938 0
-3939 -2158 1643 0
-3939 2158 -1643 0
3939 -3938 2158 1643 0
3939 -3938 -2158 -1643 0
-3939 2159 -1644 0
-3940 3939 0
-3940 -2159 1644 0
-3940 2159 -1644 0
3940 -3939 2159 1644 0
3940 -3939 -2159 -1644 0
-3940 2160 -1645 0
-3941 3940 0
-3941 -2160 1645 0
-3941 2160 -1645 0
3941 -3940 2160 1645 0
3941 -3940 -2160 -1645 0
-3941 2161 -1646 0
-3942 3941 0
-3942 -2161 1646 0
-3942 2161 -1646 0
3942 -3941 2161 1646 0
3942 -3941 -2161 -1646 0
-3942 2162 -1647 0
-3943 3942 0
-3943 -2162 1647 0
-3943 2162 -1647 0
3943 -3942 2162 1647 0
3943 -3942 -2162 -1647 0
-3943 2163 -1648 0
-3944 3943 0
-3944 -2163 1648 0
-3944 2163 -1648 0
3944 -3943 2163 1648 0
3944 -3943 -2163 -1648 0
-3944 2164 -1649 0
-3945 3944 0
-3945 -2164 1649 0
-3945 2164 -1649 0
3945 -3944 2164 1649 0
3945 -3944 -2164 -1649 0
-3945 2165 -1650 0
-3946 3945 0
-3946 -2165 1650 0
-3946 2165 -1650 0
3946 -3945 2165 1650 0
3946 -3945 -2165 -1650 0
-3946 2166 -1651 0
-3947 3946 0
-3947 -2166 1651 0
-3947 2166 -1651 0
3947 -3946 2166 1651 0
3947 -3946 -2166 -1651 0
-3947 2167 -1652 0
-3948 3947 0
-3948 -2167 1652 0
-3948 2167 -1652 0
3948 -3947 2167 1652 0
3948 -3947 -2167 -1652 0
-3948 2168 -1653 0
-3949 3948 0
-3949 -2168 1653 0
-3949 2168 -1653 0
3949 -3948 2168 1653 0
3949 -3948 -2168 -1653 0
-3949 2258 -1743 0
-3950 3949 0
-3950 -2258 1743 0
-3950 2258 -1743 0
3950 -3949 2258 1743 0
3950 -3949 -2258 -1743 0
-3950 2259 -1744 0
-3951 3950 0
-3951 -2259 1744 0
-3951 2259 -1744 0
3951 -3950 2259 1744 0
3951 -3950 -2259 -1744 0
-3951 2260 -1745 0
-3952 3951 0
-3952 -2260 1745 0
-3952 2260 -1745 0
3952 -3951 2260 1745 0
3952 -3951 -2260 -1745 0
-3952 2261 -1746 0
-3953 3952 0
-3953 -2261 1746 0
-3953 2261 -1746 0
3953 -3952 2261 1746 0
3953 -3952 -2261 -1746 0
-3953 2262 -1747 0
-3954 3953 0
-3954 -2262 1747 0
-3954 2262 -1747 0
3954 -3953 2262 1747 0
3954 -3953 -2262 -1747 0
-3954 2263 -1748 0
-3955 3954 0
-3955 -2263 1748 0
-3955 2263 -1748 0
3955 -3954 2263 1748 0
3955 -3954 -2263 -1748 0
-3955 2264 -1749 0
-3956 3955 0
-3956 -2264 1749 0
-3956 2264 -1749 0
3956 -3955 2264 1749 0
3956 -3955 -2264 -1749 0
-3956 2265 -1750 0
-3957 3956 0
-3957 -2265 1750 0
-3957 2265 -1750 0
3957 -3956 2265 1750 0
3957 -3956 -2265 -1750 0
-3957 2266 -1751 0
-3958 3957 0
-3958 -2266 1751 0
-3958 2266 -1751 0
3958 -3957 2266 1751 0
3958 -3957 -2266 -1751 0
-3958 2267 -1752 0
-3959 3958 0
-3959 -2267 1752 0
-3959 2267 -1752 0
3959 -3958 2267 1752 0
3959 -3958 -2267 -1752 0
-3959 2268 -1753 0
-3960 3959 0
-3960 -2268 1753 0
-3960 2268 -1753 0
3960 -3959 2268 1753 0
3960 -3959 -2268 -1753 0
-3960 2269 -1754 0
-3961 3960 0
-3961 -2269 1754 0
-3961 2269 -1754 0
3961 -3960 2269 1754 0
3961 -3960 -2269 -1754 0
-3961 2270 -1755 0
-3962 3961 0
-3962 -2270 1755 0
-3962 2270 -1755 0
3962 -3961 2270 1755 0
3962 -3961 -2270 -1755 0
-3962 2271 -1756 0
-3963 3962 0
-3963 -2271 1756 0
-3963 2271 -1756 0
3963 -3962 2271 1756 0
3963 -3962 -2271 -1756 0
-3963 2361 -1846 0
-3964 3963 0
-3964 -2361 1846 0
-3964 2361 -1846 0
3964 -3963 2361 1846 0
3964 -3963 -2361 -1846 0
-3964 2362 -1847 0
-3965 3964 0
-3965 -2362 1847 0
-3965 2362 -1847 0
3965 -3964 2362 1847 0
3965 -3964 -2362 -1847 0
-3965 2363 -1848 0
-3966 3965 0
-3966 -2363 1848 0
-3966 2363 -1848 0
3966 -3965 2363 1848 0
3966 -3965 -2363 -1848 0
-3966 2364 -1849 0
-3967 3966 0
-3967 -2364 1849 0
-3967 2364 -1849 0
3967 -3966 2364 1849 0
3967 -3966 -2364 -1849 0
-3967 2365 -1850 0
-3968 3967 0
-3968 -2365 1850 0
-3968 2365 -1850 0
3968 -3967 2365 1850 0
3968 -3967 -2365 -1850 0
-3968 2366 -1851 0
-3969 3968 0
-3969 -2366 1851 0
-3969 2366 -1851 0
3969 -3968 2366 1851 0
3969 -3968 -2366 -1851 0
-3969 2367 -1852 0
-3970 3969 0
-3970 -2367 1852 0
-3970 2367 -1852 0
3970 -3969 2367 1852 0
3970 -3969 -2367 -1852 0
-3970 2368 -1853 0
-3971 3970 0
-3971 -2368 1853 0
-3971 2368 -1853 0
3971 -3970 2368 1853 0
3971 -3970 -2368 -1853 0
-3971 2369 -1854 0
-3972 3971 0
-3972 -2369 1854 0
-3972 2369 -1854 0
3972 -3971 2369 1854 0
3972 -3971 -2369 -1854 0
-3972 2370 -1855 0
-3973 3972 0
-3973 -2370 1855 0
-3973 2370 -1855 0
3973 -3972 2370 1855 0
3973 -3972 -2370 -1855 0
-3973 2371 -1856 0
-3974 3973 0
-3974 -2371 1856 0
-3974 2371 -1856 0
3974 -3973 2371 1856 0
3974 -3973 -2371 -1856 0
-3974 2372 -1857 0
-3975 3974 0
-3975 -2372 1857 0
-3975 2372 -1857 0
3975 -3974 2372 1857 0
3975 -3974 -2372 -1857 0
-3975 2373 -1858 0
-3976 3975 0
-3976 -2373 1858 0
-3976 2373 -1858 0
3976 -3975 2373 1858 0
3976 -3975 -2373 -1858 0
-3976 2374 -1859 0
-3977 3976 0
-3977 -2374 1859 0
-3977 2374 -1859 0
3977 -3976 2374 1859 0
3977 -3976 -2374 -1859 0
-3977 2464 -1949 0
-3978 3977 0
-3978 -2464 1949 0
-3978 2464 -1949 0
3978 -3977 2464 1949 0
3978 -3977 -2464 -1949 0
-3978 2465 -1950 0
-3979 3978 0
-3979 -2465 1950 0
-3979 2465 -1950 0
3979 -3978 2465 1950 0
3979 -3978 -2465 -1950 0
-3979 2466 -1951 0
-3980 3979 0
-3980 -2466 1951 0
-3980 2466 -1951 0
3980 -3979 2466 1951 0
3980 -3979 -2466 -1951 0
-3980 2467 -1952 0
-3981 3980 0
-3981 -2467 1952 0
-3981 2467 -1952 0
3981 -3980 2467 1952 0
3981 -3980 -2467 -1952 0
-3981 2468 -1953 0
-3982 3981 0
-3982 -2468 1953 0
-3982 2468 -1953 0
3982 -3981 2468 1953 0
3982 -3981 -2468 -1953 0
-3982 2469 -1954 0
-3983 3982 0
-3983 -2469 1954 0
-3983 2469 -1954 0
3983 -3982 2469 1954 0
3983 -3982 -2469 -1954 0
-3983 2470 -1955 0
-3984 3983 0
-3984 -2470 1955 0
-3984 2470 -1955 0
3984 -3983 2470 1955 0
3984 -3983 -2470 -1955 0
-3984 2471 -1956 0
-3985 3984 0
-3985 -2471 1956 0
-3985 2471 -1956 0
3985 -3984 2471 1956 0
3985 -3984 -2471 -1956 0
-3985 2472 -1957 0
-3986 3985 0
-3986 -2472 1957 0
-3986 2472 -1957 0
3986 -3985 2472 1957 0
3986 -3985 -2472 -1957 0
-3986 2473 -1958 0
-3987 3986 0
-3987 -2473 1958 0
-3987 2473 -1958 0
3987 -3986 2473 1958 0
3987 -3986 -2473 -1958 0
-3987 2474 -1959 0
-3988 3987 0
-3988 -2474 1959 0
-3988 2474 -1959 0
3988 -3987 2474 1959 0
3988 -3987 -2474 -1959 0
-3988 2475 -1960 0
-3989 3988 0
-3989 -2475 1960 0
-3989 2475 -1960 0
3989 -3988 2475 1960 0
3989 -3988 -2475 -1960 0
-3989 2476 -1961 0
-3990 3989 0
-3990 -2476 1961 0
-3990 2476 -1961 0
3990 -3989 2476 1961 0
3990 -3989 -2476 -1961 0
-3990 2477 -1962 0
-3991 3990 0
-3991 -2477 1962 0
-3991 2477 -1962 0
3991 -3990 2477 1962 0
3991 -3990 -2477 -1962 0
-3991 2567 -2052 0
-3992 3991 0
-3992 -2567 2052 0
-3992 2567 -2052 0
3992 -3991 2567 2052 0
3992 -3991 -2567 -2052 0
-3992 2568 -2053 0
-3993 3992 0
-3993 -2568 2053 0
-3993 2568 -2053 0
3993 -3992 2568 2053 0
3993 -3992 -2568 -2053 0
-3993 2569 -2054 0
-3994 3993 0
-3994 -2569 2054 0
-3994 2569 -2054 0
3994 -3993 2569 2054 0
3994 -3993 -2569 -2054 0
-3994 2570 -2055 0
-3995 3994 0
-3995 -2570 2055 0
-3995 2570 -2055 0
3995 -3994 2570 2055 0
3995 -3994 -2570 -2055 0
-3995 2571 -2056 0
-3996 3995 0
-3996 -2571 2056 0
-3996 2571 -2056 0
3996 -3995 2571 2056 0
3996 -3995 -2571 -2056 0
-3996 2572 -2057 0
-3997 3996 0
-3997 -2572 2057 0
-3997 2572 -2057 0
3997 -3996 2572 2057 0
3997 -3996 -2572 -2057 0
-3997 2573 -2058 0
-3998 3997 0
-3998 -2573 2058 0
-3998 2573 -2058 0
3998 -3997 2573 2058 0
3998 -3997 -2573 -2058 0
-3998 2574 -2059 0
-3999 3998 0
-3999 -2574 2059 0
-3999 2574 -2059 0
3999 -3998 2574 2059 0
3999 -3998 -2574 -2059 0
-3999 2575 -2060 0
-4000 3999 0
-4000 -2575 2060 0
-4000 2575 -2060 0
4000 -3999 2575 2060 0
4000 -3999 -2575 -2060 0
-4000 2576 -2061 0
-4001 4000 0
-4001 -2576 2061 0
-4001 2576 -2061 0
4001 -4000 2576 2061 0
4001 -4000 -2576 -2061 0
-4001 2577 -2062 0
-4002 4001 0
-4002 -2577 2062 0
-4002 2577 -2062 0
4002 -4001 2577 2062 0
4002 -4001 -2577 -2062 0
-4002 2578 -2063 0
-4003 4002 0
-4003 -2578 2063 0
-4003 2578 -2063 0
4003 -4002 2578 2063 0
4003 -4002 -2578 -2063 0
-4003 2579 -2064 0
-4004 4003 0
-4004 -2579 2064 0
-4004 2579 -2064 0
4004 -4003 2579 2064 0
4004 -4003 -2579 -2064 0
-4004 2580 -2065 0
-4005 4004 0
-4005 -2580 2065 0
-4005 2580 -2065 0
4005 -4004 2580 2065 0
4005 -4004 -2580 -2065 0
-4005 2670 -2155 0
-4006 4005 0
-4006 -2670 2155 0
-4006 2670 -2155 0
4006 -4005 2670 2155 0
4006 -4005 -2670 -2155 0
-4006 2671 -2156 0
-4007 4006 0
-4007 -2671 2156 0
-4007 2671 -2156 0
4007 -4006 2671 2156 0
4007 -4006 -2671 -2156 0
-4007 2672 -2157 0
-4008 4007 0
-4008 -2672 2157 0
-4008 2672 -2157 0
4008 -4007 2672 2157 0
4008 -4007 -2672 -2157 0
-4008 2673 -2158 0
-4009 4008 0
-4009 -2673 2158 0
-4009 2673 -2158 0
4009 -4008 2673 2158 0
4009 -4008 -2673 -2158 0
-4009 2674 -2159 0
-4010 4009 0
-4010 -2674 2159 0
-4010 2674 -2159 0
4010 -4009 2674 2159 0
4010 -4009 -2674 -2159 0
-4010 2675 -2160 0
-4011 4010 0
-4011 -2675 2160 0
-4011 2675 -2160 0
4011 -4010 2675 2160 0
4011 -4010 -2675 -2160 0
-4011 2676 -2161 0
-4012 4011 0
-4012 -2676 2161 0
-4012 2676 -2161 0
4012 -4011 2676 2161 0
4012 -4011 -2676 -2161 0
-4012 2677 -2162 0
-4013 4012 0
-4013 -2677 2162 0
-4013 2677 -2162 0
4013 -4012 2677 2162 0
4013 -4012 -2677 -2162 0
-4013 2678 -2163 0
-4014 4013 0
-4014 -2678 2163 0
-4014 2678 -2163 0
4014 -4013 2678 2163 0
4014 -4013 -2678 -2163 0
-4014 2679 -2164 0
-4015 4014 0
-4015 -2679 2164 0
-4015 2679 -2164 0
4015 -4014 2679 2164 0
4015 -4014 -2679 -2164 0
-4015 2680 -2165 0
-4016 4015 0
-4016 -2680 2165 0
-4016 2680 -2165 0
4016 -4015 2680 2165 0
4016 -4015 -2680 -2165 0
-4016 2681 -2166 0
-4017 4016 0
-4017 -2681 2166 0
-4017 2681 -2166 0
4017 -4016 2681 2166 0
4017 -4016 -2681 -2166 0
-4017 2682 -2167 0
-4018 4017 0
-4018 -2682 2167 0
-4018 2682 -2167 0
4018 -4017 2682 2167 0
4018 -4017 -2682 -2167 0
-4018 2683 -2168 0
1537 -2361 0
-4019 -1537 2361 0
-4019 1537 -2361 0
4019 1537 2361 0
4019 -1537 -2361 0
-4019 1538 -2362 0
-4020 4019 0
-4020 -1538 2362 0
-4020 1538 -2362 0
4020 -4019 1538 2362 0
4020 -4019 -1538 -2362 0
-4020 1539 -2363 0
-4021 4020 0
-4021 -1539 2363 0
-4021 1539 -2363 0
4021 -4020 1539 2363 0
4021 -4020 -1539 -2363 0
-4021 1540 -2364 0
-4022 4021 0
-4022 -1540 2364 0
-4022 1540 -2364 0
4022 -4021 1540 2364 0
4022 -4021 -1540 -2364 0
-4022 1541 -2365 0
-4023 4022 0
-4023 -1541 2365 0
-4023 1541 -2365 0
4023 -4022 1541 2365 0
4023 -4022 -1541 -2365 0
-4023 1542 -2366 0
-4024 4023 0
-4024 -1542 2366 0
-4024 1542 -2366 0
4024 -4023 1542 2366 0
4024 -4023 -1542 -2366 0
-4024 1543 -2367 0
-4025 4024 0
-4025 -1543 2367 0
-4025 1543 -2367 0
4025 -4024 1543 2367 0
4025 -4024 -1543 -2367 0
-4025 1544 -2368 0
-4026 4025 0
-4026 -1544 2368 0
-4026 1544 -2368 0
4026 -4025 1544 2368 0
4026 -4025 -1544 -2368 0
-4026 1545 -2369 0
-4027 4026 0
-4027 -1545 2369 0
-4027 1545 -2369 0
4027 -4026 1545 2369 0
4027 -4026 -1545 -2369 0
-4027 1546 -2370 0
-4028 4027 0
-4028 -1546 2370 0
-4028 1546 -2370 0
4028 -4027 1546 2370 0
4028 -4027 -1546 -2370 0
-4028 1547 -2371 0
-4029 4028 0
-4029 -1547 2371 0
-4029 1547 -2371 0
4029 -4028 1547 2371 0
4029 -4028 -1547 -2371 0
-4029 1548 -2372 0
-4030 4029 0
-4030 -1548 2372 0
-4030 1548 -2372 0
4030 -4029 1548 2372 0
4030 -4029 -1548 -2372 0
-4030 1549 -2373 0
-4031 4030 0
-4031 -1549 2373 0
-4031 1549 -2373 0
4031 -4030 1549 2373 0
4031 -4030 -1549 -2373 0
-4031 1550 -2374 0
-4032 4031 0
-4032 -1550 2374 0
-4032 1550 -2374 0
4032 -4031 1550 2374 0
4032 -4031 -1550 -2374 0
-4032 1640 -2464 0
-4033 4032 0
-4033 -1640 2464 0
-4033 1640 -2464 0
4033 -4032 1640 2464 0
4033 -4032 -1640 -2464 0
-4033 1641 -2465 0
-4034 4033 0
-4034 -1641 2465 0
-4034 1641 -2465 0
4034 -4033 1641 2465 0
4034 -4033 -1641 -2465 0
-4034 1642 -2466 0
-4035 4034 0
-4035 -1642 2466 0
-4035 1642 -2466 0
4035 -4034 1642 2466 0
4035 -4034 -1642 -2466 0
-4035 1643 -2467 0
-4036 4035 0
-4036 -1643 2467 0
-4036 1643 -2467 0
4036 -4035 1643 2467 0
4036 -4035 -1643 -2467 0
-4036 1644 -2468 0
-4037 4036 0
-4037 -1644 2468 0
-4037 1644 -2468 0
4037 -4036 1644 2468 0
4037 -4036 -1644 -2468 0
-4037 1645 -2469 0
-4038 4037 0
-4038 -1645 2469 0
-4038 1645 -2469 0
4038 -4037 1645 2469 0
4038 -4037 -1645 -2469 0
-4038 1646 -2470 0
-4039 4038 0
-4039 -1646 2470 0
-4039 1646 -2470 0
4039 -4038 1646 2470 0
4039 -4038 -1646 -2470 0
-4039 1647 -2471 0
-4040 4039 0
-4040 -1647 2471 0
-4040 1647 -2471 0
4040 -4039 1647 2471 0
4040 -4039 -1647 -2471 0
-4040 1648 -2472 0
-4041 4040 0
-4041 -1648 2472 0
-4041 1648 -2472 0
4041 -4040 1648 2472 0
4041 -4040 -1648 -2472 0
-4041 1649 -2473 0
-4042 4041 0
-4042 -1649 2473 0
-4042 1649 -2473 0
4042 -4041 1649 2473 0
4042 -4041 -1649 -2473 0
-4042 1650 -2474 0
-4043 4042 0
-4043 -1650 2474 0
-4043 1650 -2474 0
4043 -4042 1650 2474 0
4043 -4042 -1650 -2474 0
-4043 1651 -2475 0
-4044 4043 0
-4044 -1651 2475 0
-4044 1651 -2475 0
4044 -4043 1651 2475 0
4044 -4043 -1651 -2475 0
-4044 1652 -2476 0
-4045 4044 0
-4045 -1652 2476 0
-4045 1652 -2476 0
4045 -4044 1652 2476 0
4045 -4044 -1652 -2476 0
-4045 1653 -2477 0
-4046 4045 0
-4046 -1653 2477 0
-4046 1653 -2477 0
4046 -4045 1653 2477 0
4046 -4045 -1653 -2477 0
-4046 1743 -2567 0
-4047 4046 0
-4047 -1743 2567 0
-4047 1743 -2567 0
4047 -4046 1743 2567 0
4047 -4046 -1743 -2567 0
-4047 1744 -2568 0
-4048 4047 0
-4048 -1744 2568 0
-4048 1744 -2568 0
4048 -4047 1744 2568 0
4048 -4047 -1744 -2568 0
-4048 1745 -2569 0
-4049 4048 0
-4049 -1745 2569 0
-4049 1745 -2569 0
4049 -4048 1745 2569 0
4049 -4048 -1745 -2569 0
-4049 1746 -2570 0
-4050 4049 0
-4050 -1746 2570 0
-4050 1746 -2570 0
4050 -4049 1746 2570 0
4050 -4049 -1746 -2570 0
-4050 1747 -2571 0
-4051 4050 0
-4051 -1747 2571 0
-4051 1747 -2571 0
4051 -4050 1747 2571 0
4051 -4050 -1747 -2571 0
-4051 1748 -2572 0
-4052 4051 0
-4052 -1748 2572 0
-4052 1748 -2572 0
4052 -4051 1748 2572 0
4052 -4051 -1748 -2572 0
-4052 1749 -2573 0
-4053 4052 0
-4053 -1749 2573 0
-4053 1749 -2573 0
4053 -4052 1749 2573 0
4053 -4052 -1749 -2573 0
-4053 1750 -2574 0
-4054 4053 0
-4054 -1750 2574 0
-4054 1750 -2574 0
4054 -4053 1750 2574 0
4054 -4053 -1750 -2574 0
-4054 1751 -2575 0
-4055 4054 0
-4055 -1751 2575 0
-4055 1751 -2575 0
4055 -4054 1751 2575 0
4055 -4054 -1751 -2575 0
-4055 1752 -2576 0
-4056 4055 0
-4056 -1752 2576 0
-4056 1752 -2576 0
4056 -4055 1752 2576 0
4056 -4055 -1752 -2576 0
-4056 1753 -2577 0
-4057 4056 0
-4057 -1753 2577 0
-4057 1753 -2577 0
4057 -4056 1753 2577 0
4057 -4056 -1753 -2577 0
-4057 1754 -2578 0
-4058 4057 0
-4058 -1754 2578 0
-4058 1754 -2578 0
4058 -4057 1754 2578 0
4058 -4057 -1754 -2578 0
-4058 1755 -2579 0
-4059 4058 0
-4059 -1755 2579 0
-4059 1755 -2579 0
4059 -4058 1755 2579 0
4059 -4058 -1755 -2579 0
-4059 1756 -2580 0
-4060 4059 0
-4060 -1756 2580 0
-4060 1756 -2580 0
4060 -4059 1756 2580 0
4060 -4059 -1756 -2580 0
-4060 1846 -2670 0
-4061 4060 0
-4061 -1846 2670 0
-4061 1846 -2670 0
4061 -4060 1846 2670 0
4061 -4060 -1846 -2670 0
-4061 1847 -2671 0
-4062 4061 0
-4062 -1847 2671 0
-4062 1847 -2671 0
4062 -4061 1847 2671 0
4062 -4061 -1847 -2671 0
-4062 1848 -2672 0
-4063 4062 0
-4063 -1848 2672 0
-4063 1848 -2672 0
4063 -4062 1848 2672 0
4063 -4062 -1848 -2672 0
-4063 1849 -2673 0
-4064 4063 0
-4064 -1849 2673 0
-4064 1849 -2673 0
4064 -4063 1849 2673 0
4064 -4063 -1849 -2673 0
-4064 1850 -2674 0
-4065 4064 0
-4065 -1850 2674 0
-4065 1850 -2674 0
4065 -4064 1850 2674 0
4065 -4064 -1850 -2674 0
-4065 1851 -2675 0
-4066 4065 0
-4066 -1851 2675 0
-4066 1851 -2675 0
4066 -4065 1851 2675 0
4066 -4065 -1851 -2675 0
-4066 1852 -2676 0
-4067 4066 0
-4067 -1852 2676 0
-4067 1852 -2676 0
4067 -4066 1852 2676 0
4067 -4066 -1852 -2676 0
-4067 1853 -2677 0
-4068 4067 0
-4068 -1853 2677 0
-4068 1853 -2677 0
4068 -4067 1853 2677 0
4068 -4067 -1853 -2677 0
-4068 1854 -2678 0
-4069 4068 0
-4069 -1854 2678 0
-4069 1854 -2678 0
4069 -4068 1854 2678 0
4069 -4068 -1854 -2678 0
-4069 1855 -2679 0
-4070 4069 0
-4070 -1855 2679 0
-4070 1855 -2679 0
4070 -4069 1855 2679 0
4070 -4069 -1855 -2679 0
-4070 1856 -2680 0
-4071 4070 0
-4071 -1856 2680 0
-4071 1856 -2680 0
4071 -4070 1856 2680 0
4071 -4070 -1856 -2680 0
-4071 1857 -2681 0
-4072 4071 0
-4072 -1857 2681 0
-4072 1857 -2681 0
4072 -4071 1857 2681 0
4072 -4071 -1857 -2681 0
-4072 1858 -2682 0
-4073 4072 0
-4073 -1858 2682 0
-4073 1858 -2682 0
4073 -4072 1858 2682 0
4073 -4072 -1858 -2682 0
-4073 1859 -2683 0
-4074 4073 0
-4074 -1859 2683 0
-4074 1859 -2683 0
4074 -4073 1859 2683 0
4074 -4073 -1859 -2683 0
-4074 1949 -1537 0
-4075 4074 0
-4075 -1949 1537 0
-4075 1949 -1537 0
4075 -4074 1949 1537 0
4075 -4074 -1949 -1537 0
-4075 1950 -1538 0
-4076 4075 0
-4076 -1950 1538 0
-4076 1950 -1538 0
4076 -4075 1950 1538 0
4076 -4075 -1950 -1538 0
-4076 1951 -1539 0
-4077 4076 0
-4077 -1951 1539 0
-4077 1951 -1539 0
4077 -4076 1951 1539 0
4077 -4076 -1951 -1539 0
-4077 1952 -1540 0
-4078 4077 0
-4078 -1952 1540 0
-4078 1952 -1540 0
4078 -4077 1952 1540 0
4078 -4077 -1952 -1540 0
-4078 1953 -1541 0
-4079 4078 0
-4079 -1953 1541 0
-4079 1953 -1541 0
4079 -4078 1953 1541 0
4079 -4078 -1953 -1541 0
-4079 1954 -1542 0
-4080 4079 0
-4080 -1954 1542 0
-4080 1954 -1542 0
4080 -4079 1954 1542 0
4080 -4079 -1954 -1542 0
-4080 1955 -1543 0
-4081 4080 0
-4081 -1955 1543 0
-4081 1955 -1543 0
4081 -4080 1955 1543 0
4081 -4080 -1955 -1543 0
-4081 1956 -1544 0
-4082 4081 0
-4082 -1956 1544 0
-4082 1956 -1544 0
4082 -4081 1956 1544 0
4082 -4081 -1956 -1544 0
-4082 1957 -1545 0
-4083 4082 0
-4083 -1957 1545 0
-4083 1957 -1545 0
4083 -4082 1957 1545 0
4083 -4082 -1957 -1545 0
-4083 1958 -1546 0
-4084 4083 0
-4084 -1958 1546 0
-4084 1958 -1546 0
4084 -4083 1958 1546 0
4084 -4083 -1958 -1546 0
-4084 1959 -1547 0
-4085 4084 0
-4085 -1959 1547 0
-4085 1959 -1547 0
4085 -4084 1959 1547 0
4085 -4084 -1959 -1547 0
-4085 1960 -1548 0
-4086 4085 0
-4086 -1960 1548 0
-4086 1960 -1548 0
4086 -4085 1960 1548 0
4086 -4085 -1960 -1548 0
-4086 1961 -1549 0
-4087 4086 0
-4087 -1961 1549 0
-4087 1961 -1549 0
4087 -4086 1961 1549 0
4087 -4086 -1961 -1549 0
-4087 1962 -1550 0
-4088 4087 0
-4088 -1962 1550 0
-4088 1962 -1550 0
4088 -4087 1962 1550 0
4088 -4087 -1962 -1550 0
-4088 2052 -1640 0
-4089 4088 0
-4089 -2052 1640 0
-4089 2052 -1640 0
4089 -4088 2052 1640 0
4089 -4088 -2052 -1640 0
-4089 2053 -1641 0
-4090 4089 0
-4090 -2053 1641 0
-4090 2053 -1641 0
4090 -4089 2053 1641 0
4090 -4089 -2053 -1641 0
-4090 2054 -1642 0
-4091 4090 0
-4091 -2054 1642 0
-4091 2054 -1642 0
4091 -4090 2054 1642 0
4091 -4090 -2054 -1642 0
-4091 2055 -1643 0
-4092 4091 0
-4092 -2055 1643 0
-4092 2055 -1643 0
4092 -4091 2055 1643 0
4092 -4091 -2055 -1643 0
-4092 2056 -1644 0
-4093 4092 0
-4093 -2056 1644 0
-4093 2056 -1644 0
4093 -4092 2056 1644 0
4093 -4092 -2056 -1644 0
-4093 2057 -1645 0
-4094 4093 0
-4094 -2057 1645 0
-4094 2057 -1645 0
4094 -4093 2057 1645 0
4094 -4093 -2057 -1645 0
-4094 2058 -1646 0
-4095 4094 0
-4095 -2058 1646 0
-4095 2058 -1646 0
4095 -4094 2058 1646 0
4095 -4094 -2058 -1646 0
-4095 2059 -1647 0
-4096 4095 0
-4096 -2059 1647 0
-4096 2059 -1647 0
4096 -4095 2059 1647 0
4096 -4095 -2059 -1647 0
-4096 2060 -1648 0
-4097 4096 0
-4097 -2060 1648 0
-4097 2060 -1648 0
4097 -4096 2060 1648 0
4097 -4096 -2060 -1648 0
-4097 2061 -1649 0
-4098 4097 0
-4098 -2061 1649 0
-4098 2061 -1649 0
4098 -4097 2061 1649 0
4098 -4097 -2061 -1649 0
-4098 2062 -1650 0
-4099 4098 0
-4099 -2062 1650 0
-4099 2062 -1650 0
4099 -4098 2062 1650 0
4099 -4098 -2062 -1650 0
-4099 2063 -1651 0
-4100 4099 0
-4100 -2063 1651 0
-4100 2063 -1651 0
4100 -4099 2063 1651 0
4100 -4099 -2063 -1651 0
-4100 2064 -1652 0
-4101 4100 0
-4101 -2064 1652 0
-4101 2064 -1652 0
4101 -4100 2064 1652 0
4101 -4100 -2064 -1652 0
-4101 2065 -1653 0
-4102 4101 0
-4102 -2065 1653 0
-4102 2065 -1653 0
4102 -4101 2065 1653 0
4102 -4101 -2065 -1653 0
-4102 2155 -1743 0
-4103 4102 0
-4103 -2155 1743 0
-4103 2155 -1743 0
4103 -4102 2155 1743 0
4103 -4102 -2155 -1743 0
-4103 2156 -1744 0
-4104 4103 0
-4104 -2156 1744 0
-4104 2156 -1744 0
4104 -4103 2156 1744 0
4104 -4103 -2156 -1744 0
-4104 2157 -1745 0
-4105 4104 0
-4105 -2157 1745 0
-4105 2157 -1745 0
4105 -4104 2157 1745 0
4105 -4104 -2157 -1745 0
-4105 2158 -1746 0
-4106 4105 0
-4106 -2158 1746 0
-4106 2158 -1746 0
4106 -4105 2158 1746 0
4106 -4105 -2158 -1746 0
-4106 2159 -1747 0
-4107 4106 0
-4107 -2159 1747 0
-4107 2159 -1747 0
4107 -4106 2159 1747 0
4107 -4106 -2159 -1747 0
-4107 2160 -1748 0
-4108 4107 0
-4108 -2160 1748 0
-4108 2160 -1748 0
4108 -4107 2160 1748 0
4108 -4107 -2160 -1748 0
-4108 2161 -1749 0
-4109 4108 0
-4109 -2161 1749 0
-4109 2161 -1749 0
4109 -4108 2161 1749 0
4109 -4108 -2161 -1749 0
-4109 2162 -1750 0
-4110 4109 0
-4110 -2162 1750 0
-4110 2162 -1750 0
4110 -4109 2162 1750 0
4110 -4109 -2162 -1750 0
-4110 2163 -1751 0
-4111 4110 0
-4111 -2163 1751 0
-4111 2163 -1751 0
4111 -4110 2163 1751 0
4111 -4110 -2163 -1751 0
-4111 2164 -1752 0
-4112 4111 0
-4112 -2164 1752 0
-4112 2164 -1752 0
4112 -4111 2164 1752 0
4112 -4111 -2164 -1752 0
-4112 2165 -1753 0
-4113 4112 0
-4113 -2165 1753 0
-4113 2165 -1753 0
4113 -4112 2165 1753 0
4113 -4112 -2165 -1753 0
-4113 2166 -1754 0
-4114 4113 0
-4114 -2166 1754 0
-4114 2166 -1754 0
4114 -4113 2166 1754 0
4114 -4113 -2166 -1754 0
-4114 2167 -1755 0
-4115 4114 0
-4115 -2167 1755 0
-4115 2167 -1755 0
4115 -4114 2167 1755 0
4115 -4114 -2167 -1755 0
-4115 2168 -1756 0
-4116 4115 0
-4116 -2168 1756 0
-4116 2168 -1756 0
4116 -4115 2168 1756 0
4116 -4115 -2168 -1756 0
-4116 2258 -1846 0
-4117 4116 0
-4117 -2258 1846 0
-4117 2258 -1846 0
4117 -4116 2258 1846 0
4117 -4116 -2258 -1846 0
-4117 2259 -1847 0
-4118 4117 0
-4118 -2259 1847 0
-4118 2259 -1847 0
4118 -4117 2259 1847 0
4118 -4117 -2259 -1847 0
-4118 2260 -1848 0
-4119 4118 0
-4119 -2260 1848 0
-4119 2260 -1848 0
4119 -4118 2260 1848 0
4119 -4118 -2260 -1848 0
-4119 2261 -1849 0
-4120 4119 0
-4120 -2261 1849 0
-4120 2261 -1849 0
4120 -4119 2261 1849 0
4120 -4119 -2261 -1849 0
-4120 2262 -1850 0
-4121 4120 0
-4121 -2262 1850 0
-4121 2262 -1850 0
4121 -4120 2262 1850 0
4121 -4120 -2262 -1850 0
-4121 2263 -1851 0
-4122 4121 0
-4122 -2263 1851 0
-4122 2263 -1851 0
4122 -4121 2263 1851 0
4122 -4121 -2263 -1851 0
-4122 2264 -1852 0
-4123 4122 0
-4123 -2264 1852 0
-4123 2264 -1852 0
4123 -4122 2264 1852 0
4123 -4122 -2264 -1852 0
-4123 2265 -1853 0
-4124 4123 0
-4124 -2265 1853 0
-4124 2265 -1853 0
4124 -4123 2265 1853 0
4124 -4123 -2265 -1853 0
-4124 2266 -1854 0
-4125 4124 0
-4125 -2266 1854 0
-4125 2266 -1854 0
4125 -4124 2266 1854 0
4125 -4124 -2266 -1854 0
-4125 2267 -1855 0
-4126 4125 0
-4126 -2267 1855 0
-4126 2267 -1855 0
4126 -4125 2267 1855 0
4126 -4125 -2267 -1855 0
-4126 2268 -1856 0
-4127 4126 0
-4127 -2268 1856 0
-4127 2268 -1856 0
4127 -4126 2268 1856 0
4127 -4126 -2268 -1856 0
-4127 2269 -1857 0
-4128 4127 0
-4128 -2269 1857 0
-4128 2269 -1857 0
4128 -4127 2269 1857 0
4128 -4127 -2269 -1857 0
-4128 2270 -1858 0
-4129 4128 0
-4129 -2270 1858 0
-4129 2270 -1858 0
4129 -4128 2270 1858 0
4129 -4128 -2270 -1858 0
-4129 2271 -1859 0
-4130 4129 0
-4130 -2271 1859 0
-4130 2271 -1859 0
4130 -4129 2271 1859 0
4130 -4129 -2271 -1859 0
-4130 2361 -1949 0
-4131 4130 0
-4131 -2361 1949 0
-4131 2361 -1949 0
4131 -4130 2361 1949 0
4131 -4130 -2361 -1949 0
-4131 2362 -1950 0
-4132 4131 0
-4132 -2362 1950 0
-4132 2362 -1950 0
4132 -4131 2362 1950 0
4132 -4131 -2362 -1950 0
-4132 2363 -1951 0
-4133 4132 0
-4133 -2363 1951 0
-4133 2363 -1951 0
4133 -4132 2363 1951 0
4133 -4132 -2363 -1951 0
-4133 2364 -1952 0
-4134 4133 0
-4134 -2364 1952 0
-4134 2364 -1952 0
4134 -4133 2364 1952 0
4134 -4133 -2364 -1952 0
-4134 2365 -1953 0
-4135 4134 0
-4135 -2365 1953 0
-4135 2365 -1953 0
4135 -4134 2365 1953 0
4135 -4134 -2365 -1953 0
-4135 2366 -1954 0
-4136 4135 0
-4136 -2366 1954 0
-4136 2366 -1954 0
4136 -4135 2366 1954 0
4136 -4135 -2366 -1954 0
-4136 2367 -1955 0
-4137 4136 0
-4137 -2367 1955 0
-4137 2367 -1955 0
4137 -4136 2367 1955 0
4137 -4136 -2367 -1955 0
-4137 2368 -1956 0
-4138 4137 0
-4138 -2368 1956 0
-4138 2368 -1956 0
4138 -4137 2368 1956 0
4138 -4137 -2368 -1956 0
-4138 2369 -1957 0
-4139 4138 0
-4139 -2369 1957 0
-4139 2369 -1957 0
4139 -4138 2369 1957 0
4139 -4138 -2369 -1957 0
-4139 2370 -1958 0
-4140 4139 0
-4140 -2370 1958 0
-4140 2370 -1958 0
4140 -4139 2370 1958 0
4140 -4139 -2370 -1958 0
-4140 2371 -1959 0
-4141 4140 0
-4141 -2371 1959 0
-4141 2371 -1959 0
4141 -4140 2371 1959 0
4141 -4140 -2371 -1959 0
-4141 2372 -1960 0
-4142 4141 0
-4142 -2372 1960 0
-4142 2372 -1960 0
4142 -4141 2372 1960 0
4142 -4141 -2372 -1960 0
-4142 2373 -1961 0
-4143 4142 0
-4143 -2373 1961 0
-4143 2373 -1961 0
4143 -4142 2373 1961 0
4143 -4142 -2373 -1961 0
-4143 2374 -1962 0
-4144 4143 0
-4144 -2374 1962 0
-4144 2374 -1962 0
4144 -4143 2374 1962 0
4144 -4143 -2374 -1962 0
-4144 2464 -2052 0
-4145 4144 0
-4145 -2464 2052 0
-4145 2464 -2052 0
4145 -4144 2464 2052 0
4145 -4144 -2464 -2052 0
-4145 2465 -2053 0
-4146 4145 0
-4146 -2465 2053 0
-4146 2465 -2053 0
4146 -4145 2465 2053 0
4146 -4145 -2465 -2053 0
-4146 2466 -2054 0
-4147 4146 0
-4147 -2466 2054 0
-4147 2466 -2054 0
4147 -4146 2466 2054 0
4147 -4146 -2466 -2054 0
-4147 2467 -2055 0
-4148 4147 0
-4148 -2467 2055 0
-4148 2467 -2055 0
4148 -4147 2467 2055 0
4148 -4147 -2467 -2055 0
-4148 2468 -2056 0
-4149 4148 0
-4149 -2468 2056 0
-4149 2468 -2056 0
4149 -4148 2468 2056 0
4149 -4148 -2468 -2056 0
-4149 2469 -2057 0
-4150 4149 0
-4150 -2469 2057 0
-4150 2469 -2057 0
4150 -4149 2469 2057 0
4150 -4149 -2469 -2057 0
-4150 2470 -2058 0
-4151 4150 0
-4151 -2470 2058 0
-4151 2470 -2058 0
4151 -4150 2470 2058 0
4151 -4150 -2470 -2058 0
-4151 2471 -2059 0
-4152 4151 0
-4152 -2471 2059 0
-4152 2471 -2059 0
4152 -4151 2471 2059 0
4152 -4151 -2471 -2059 0
-4152 2472 -2060 0
-4153 4152 0
-4153 -2472 2060 0
-4153 2472 -2060 0
4153 -4152 2472 2060 0
4153 -4152 -2472 -2060 0
-4153 2473 -2061 0
-4154 4153 0
-4154 -2473 2061 0
-4154 2473 -2061 0
4154 -4153 2473 2061 0
4154 -4153 -2473 -2061 0
-4154 2474 -2062 0
-4155 4154 0
-4155 -2474 2062 0
-4155 2474 -2062 0
4155 -4154 2474 2062 0
4155 -4154 -2474 -2062 0
-4155 2475 -2063 0
-4156 4155 0
-4156 -2475 2063 0
-4156 2475 -2063 0
4156 -4155 2475 2063 0
4156 -4155 -2475 -2063 0
-4156 2476 -2064 0
-4157 4156 0
-4157 -2476 2064 0
-4157 2476 -2064 0
4157 -4156 2476 2064 0
4157 -4156 -2476 -2064 0
-4157 2477 -2065 0
-4158 4157 0
-4158 -2477 2065 0
-4158 2477 -2065 0
4158 -4157 2477 2065 0
4158 -4157 -2477 -2065 0
-4158 2567 -2155 0
-4159 4158 0
-4159 -2567 2155 0
-4159 2567 -2155 0
4159 -4158 2567 2155 0
4159 -4158 -2567 -2155 0
-4159 2568 -2156 0
-4160 4159 0
-4160 -2568 2156 0
-4160 2568 -2156 0
4160 -4159 2568 2156 0
4160 -4159 -2568 -2156 0
-4160 2569 -2157 0
-4161 4160 0
-4161 -2569 2157 0
-4161 2569 -2157 0
4161 -4160 2569 2157 0
4161 -4160 -2569 -2157 0
-4161 2570 -2158 0
-4162 4161 0
-4162 -2570 2158 0
-4162 2570 -2158 0
4162 -4161 2570 2158 0
4162 -4161 -2570 -2158 0
-4162 2571 -2159 0
-4163 4162 0
-4163 -2571 2159 0
-4163 2571 -2159 0
4163 -4162 2571 2159 0
4163 -4162 -2571 -2159 0
-4163 2572 -2160 0
-4164 4163 0
-4164 -2572 2160 0
-4164 2572 -2160 0
4164 -4163 2572 2160 0
4164 -4163 -2572 -2160 0
-4164 2573 -2161 0
-4165 4164 0
-4165 -2573 2161 0
-4165 2573 -2161 0
4165 -4164 2573 2161 0
4165 -4164 -2573 -2161 0
-4165 2574 -2162 0
-4166 4165 0
-4166 -2574 2162 0
-4166 2574 -2162 0
4166 -4165 2574 2162 0
4166 -4165 -2574 -2162 0
-4166 2575 -2163 0
-4167 4166 0
-4167 -2575 2163 0
-4167 2575 -2163 0
4167 -4166 2575 2163 0
4167 -4166 -2575 -2163 0
-4167 2576 -2164 0
-4168 4167 0
-4168 -2576 2164 0
-4168 2576 -2164 0
4168 -4167 2576 2164 0
4168 -4167 -2576 -2164 0
-4168 2577 -2165 0
-4169 4168 0
-4169 -2577 2165 0
-4169 2577 -2165 0
4169 -4168 2577 2165 0
4169 -4168 -2577 -2165 0
-4169 2578 -2166 0
-4170 4169 0
-4170 -2578 2166 0
-4170 2578 -2166 0
4170 -4169 2578 2166 0
4170 -4169 -2578 -2166 0
-4170 2579 -2167 0
-4171 4170 0
-4171 -2579 2167 0
-4171 2579 -2167 0
4171 -4170 2579 2167 0
4171 -4170 -2579 -2167 0
-4171 2580 -2168 0
-4172 4171 0
-4172 -2580 2168 0
-4172 2580 -2168 0
4172 -4171 2580 2168 0
4172 -4171 -2580 -2168 0
-4172 2670 -2258 0
-4173 4172 0
-4173 -2670 2258 0
-4173 2670 -2258 0
4173 -4172 2670 2258 0
4173 -4172 -2670 -2258 0
-4173 2671 -2259 0
-4174 4173 0
-4174 -2671 2259 0
-4174 2671 -2259 0
4174 -4173 2671 2259 0
4174 -4173 -2671 -2259 0
-4174 2672 -2260 0
-4175 4174 0
-4175 -2672 2260 0
-4175 2672 -2260 0
4175 -4174 2672 2260 0
4175 -4174 -2672 -2260 0
-4175 2673 -2261 0
-4176 4175 0
-4176 -2673 2261 0
-4176 2673 -2261 0
4176 -4175 2673 2261 0
4176 -4175 -2673 -2261 0
-4176 2674 -2262 0
-4177 4176 0
-4177 -2674 2262 0
-4177 2674 -2262 0
4177 -4176 2674 2262 0
4177 -4176 -2674 -2262 0
-4177 2675 -2263 0
-4178 4177 0
-4178 -2675 2263 0
-4178 2675 -2263 0
4178 -4177 2675 2263 0
4178 -4177 -2675 -2263 0
-4178 2676 -2264 0
-4179 4178 0
-4179 -2676 2264 0
-4179 2676 -2264 0
4179 -4178 2676 2264 0
4179 -4178 -2676 -2264 0
-4179 2677 -2265 0
-4180 4179 0
-4180 -2677 2265 0
-4180 2677 -2265 0
4180 -4179 2677 2265 0
4180 -4179 -2677 -2265 0
-4180 2678 -2266 0
-4181 4180 0
-4181 -2678 2266 0
-4181 2678 -2266 0
4181 -4180 2678 2266 0
4181 -4180 -2678 -2266 0
-4181 2679 -2267 0
-4182 4181 0
-4182 -2679 2267 0
-4182 2679 -2267 0
4182 -4181 2679 2267 0
4182 -4181 -2679 -2267 0
-4182 2680 -2268 0
-4183 4182 0
-4183 -2680 2268 0
-4183 2680 -2268 0
4183 -4182 2680 2268 0
4183 -4182 -2680 -2268 0
-4183 2681 -2269 0
-4184 4183 0
-4184 -2681 2269 0
-4184 2681 -2269 0
4184 -4183 2681 2269 0
4184 -4183 -2681 -2269 0
-4184 2682 -2270 0
-4185 4184 0
-4185 -2682 2270 0
-4185 2682 -2270 0
4185 -4184 2682 2270 0
4185 -4184 -2682 -2270 0
-4185 2683 -2271 0
1537 -2464 0
-4186 -1537 2464 0
-4186 1537 -2464 0
4186 1537 2464 0
4186 -1537 -2464 0
-4186 1538 -2465 0
-4187 4186 0
-4187 -1538 2465 0
-4187 1538 -2465 0
4187 -4186 1538 2465 0
4187 -4186 -1538 -2465 0
-4187 1539 -2466 0
-4188 4187 0
-4188 -1539 2466 0
-4188 1539 -2466 0
4188 -4187 1539 2466 0
4188 -4187 -1539 -2466 0
-4188 1540 -2467 0
-4189 4188 0
-4189 -1540 2467 0
-4189 1540 -2467 0
4189 -4188 1540 2467 0
4189 -4188 -1540 -2467 0
-4189 1541 -2468 0
-4190 4189 0
-4190 -1541 2468 0
-4190 1541 -2468 0
4190 -4189 1541 2468 0
4190 -4189 -1541 -2468 0
-4190 1542 -2469 0
-4191 4190 0
-4191 -1542 2469 0
-4191 1542 -2469 0
4191 -4190 1542 2469 0
4191 -4190 -1542 -2469 0
-4191 1543 -2470 0
-4192 4191 0
-4192 -1543 2470 0
-4192 1543 -2470 0
4192 -4191 1543 2470 0
4192 -4191 -1543 -2470 0
-4192 1544 -2471 0
-4193 4192 0
-4193 -1544 2471 0
-4193 1544 -2471 0
4193 -4192 1544 2471 0
4193 -4192 -1544 -2471 0
-4193 1545 -2472 0
-4194 4193 0
-4194 -1545 2472 0
-4194 1545 -2472 0
4194 -4193 1545 2472 0
4194 -4193 -1545 -2472 0
-4194 1546 -2473 0
-4195 4194 0
-4195 -1546 2473 0
-4195 1546 -2473 0
4195 -4194 1546 2473 0
4195 -4194 -1546 -2473 0
-4195 1547 -2474 0
-4196 4195 0
-4196 -1547 2474 0
-4196 1547 -2474 0
4196 -4195 1547 2474 0
4196 -4195 -1547 -2474 0
-4196 1548 -2475 0
-4197 4196 0
-4197 -1548 2475 0
-4197 1548 -2475 0
4197 -4196 1548 2475 0
4197 -4196 -1548 -2475 0
-4197 1549 -2476 0
-4198 4197 0
-4198 -1549 2476 0
-4198 1549 -2476 0
4198 -4197 1549 2476 0
4198 -4197 -1549 -2476 0
-4198 1550 -2477 0
-4199 4198 0
-4199 -1550 2477 0
-4199 1550 -2477 0
4199 -4198 1550 2477 0
4199 -4198 -1550 -2477 0
-4199 1640 -2567 0
-4200 4199 0
-4200 -1640 2567 0
-4200 1640 -2567 0
4200 -4199 1640 2567 0
4200 -4199 -1640 -2567 0
-4200 1641 -2568 0
-4201 4200 0
-4201 -1641 2568 0
-4201 1641 -2568 0
4201 -4200 1641 2568 0
4201 -4200 -1641 -2568 0
-4201 1642 -2569 0
-4202 4201 0
-4202 -1642 2569 0
-4202 1642 -2569 0
4202 -4201 1642 2569 0
4202 -4201 -1642 -2569 0
-4202 1643 -2570 0
-4203 4202 0
-4203 -1643 2570 0
-4203 1643 -2570 0
4203 -4202 1643 2570 0
4203 -4202 -1643 -2570 0
-4203 1644 -2571 0
-4204 4203 0
-4204 -1644 2571 0
-4204 1644 -2571 0
4204 -4203 1644 2571 0
4204 -4203 -1644 -2571 0
-4204 1645 -2572 0
-4205 4204 0
-4205 -1645 2572 0
-4205 1645 -2572 0
4205 -4204 1645 2572 0
4205 -4204 -1645 -2572 0
-4205 1646 -2573 0
-4206 4205 0
-4206 -1646 2573 0
-4206 1646 -2573 0
4206 -4205 1646 2573 0
4206 -4205 -1646 -2573 0
-4206 1647 -2574 0
-4207 4206 0
-4207 -1647 2574 0
-4207 1647 -2574 0
4207 -4206 1647 2574 0
4207 -4206 -1647 -2574 0
-4207 1648 -2575 0
-4208 4207 0
-4208 -1648 2575 0
-4208 1648 -2575 0
4208 -4207 1648 2575 0
4208 -4207 -1648 -2575 0
-4208 1649 -2576 0
-4209 4208 0
-4209 -1649 2576 0
-4209 1649 -2576 0
4209 -4208 1649 2576 0
4209 -4208 -1649 -2576 0
-4209 1650 -2577 0
-4210 4209 0
-4210 -1650 2577 0
-4210 1650 -2577 0
4210 -4209 1650 2577 0
4210 -4209 -1650 -2577 0
-4210 1651 -2578 0
-4211 4210 0
-4211 -1651 2578 0
-4211 1651 -2578 0
4211 -4210 1651 2578 0
4211 -4210 -1651 -2578 0
-4211 1652 -2579 0
-4212 4211 0
-4212 -1652 2579 0
-4212 1652 -2579 0
4212 -4211 1652 2579 0
4212 -4211 -1652 -2579 0
-4212 1653 -2580 0
-4213 4212 0
-4213 -1653 2580 0
-4213 1653 -2580 0
4213 -4212 1653 2580 0
4213 -4212 -1653 -2580 0
-4213 1743 -2670 0
-4214 4213 0
-4214 -1743 2670 0
-4214 1743 -2670 0
4214 -4213 1743 2670 0
4214 -4213 -1743 -2670 0
-4214 1744 -2671 0
-4215 4214 0
-4215 -1744 2671 0
-4215 1744 -2671 0
4215 -4214 1744 2671 0
4215 -4214 -1744 -2671 0
-4215 1745 -2672 0
-4216 4215 0
-4216 -1745 2672 0
-4216 1745 -2672 0
4216 -4215 1745 2672 0
4216 -4215 -1745 -2672 0
-4216 1746 -2673 0
-4217 4216 0
-4217 -1746 2673 0
-4217 1746 -2673 0
4217 -4216 1746 2673 0
4217 -4216 -1746 -2673 0
-4217 1747 -2674 0
-4218 4217 0
-4218 -1747 2674 0
-4218 1747 -2674 0
4218 -4217 1747 2674 0
4218 -4217 -1747 -2674 0
-4218 1748 -2675 0
-4219 4218 0
-4219 -1748 2675 0
-4219 1748 -2675 0
4219 -4218 1748 2675 0
4219 -4218 -1748 -2675 0
-4219 1749 -2676 0
-4220 4219 0
-4220 -1749 2676 0
-4220 1749 -2676 0
4220 -4219 1749 2676 0
4220 -4219 -1749 -2676 0
-4220 1750 -2677 0
-4221 4220 0
-4221 -1750 2677 0
-4221 1750 -2677 0
4221 -4220 1750 2677 0
4221 -4220 -1750 -2677 0
-4221 1751 -2678 0
-4222 4221 0
-4222 -1751 2678 0
-4222 1751 -2678 0
4222 -4221 1751 2678 0
4222 -4221 -1751 -2678 0
-4222 1752 -2679 0
-4223 4222 0
-4223 -1752 2679 0
-4223 1752 -2679 0
4223 -4222 1752 2679 0
4223 -4222 -1752 -2679 0
-4223 1753 -2680 0
-4224 4223 0
-4224 -1753 2680 0
-4224 1753 -2680 0
4224 -4223 1753 2680 0
4224 -4223 -1753 -2680 0
-4224 1754 -2681 0
-4225 4224 0
-4225 -1754 2681 0
-4225 1754 -2681 0
4225 -4224 1754 2681 0
4225 -4224 -1754 -2681 0
-4225 1755 -2682 0
-4226 4225 0
-4226 -1755 2682 0
-4226 1755 -2682 0
4226 -4225 1755 2682 0
4226 -4225 -1755 -2682 0
-4226 1756 -2683 0
-4227 4226 0
-4227 -1756 2683 0
-4227 1756 -2683 0
4227 -4226 1756 2683 0
4227 -4226 -1756 -2683 0
-4227 1846 -1537 0
-4228 4227 0
-4228 -1846 1537 0
-4228 1846 -1537 0
4228 -4227 1846 1537 0
4228 -4227 -1846 -1537 0
-4228 1847 -1538 0
-4229 4228 0
-4229 -1847 1538 0
-4229 1847 -1538 0
4229 -4228 1847 1538 0
4229 -4228 -1847 -1538 0
-4229 1848 -1539 0
-4230 4229 0
-4230 -1848 1539 0
-4230 1848 -1539 0
4230 -4229 1848 1539 0
4230 -4229 -1848 -1539 0
-4230 1849 -1540 0
-4231 4230 0
-4231 -1849 1540 0
-4231 1849 -1540 0
4231 -4230 1849 1540 0
4231 -4230 -1849 -1540 0
-4231 1850 -1541 0
-4232 4231 0
-4232 -1850 1541 0
-4232 1850 -1541 0
4232 -4231 1850 1541 0
4232 -4231 -1850 -1541 0
-4232 1851 -1542 0
-4233 4232 0
-4233 -1851 1542 0
-4233 1851 -1542 0
4233 -4232 1851 1542 0
4233 -4232 -1851 -1542 0
-4233 1852 -1543 0
-4234 4233 0
-4234 -1852 1543 0
-4234 1852 -1543 0
4234 -4233 1852 1543 0
4234 -4233 -1852 -1543 0
-4234 1853 -1544 0
-4235 4234 0
-4235 -1853 1544 0
-4235 1853 -1544 0
4235 -4234 1853 1544 0
4235 -4234 -1853 -1544 0
-4235 1854 -1545 0
-4236 4235 0
-4236 -1854 1545 0
-4236 1854 -1545 0
4236 -4235 1854 1545 0
4236 -4235 -1854 -1545 0
-4236 1855 -1546 0
-4237 4236 0
-4237 -1855 1546 0
-4237 1855 -1546 0
4237 -4236 1855 1546 0
4237 -4236 -1855 -1546 0
-4237 1856 -1547 0
-4238 4237 0
-4238 -1856 1547 0
-4238 1856 -1547 0
4238 -4237 1856 1547 0
4238 -4237 -1856 -1547 0
-4238 1857 -1548 0
-4239 4238 0
-4239 -1857 1548 0
-4239 1857 -1548 0
4239 -4238 1857 1548 0
4239 -4238 -1857 -1548 0
-4239 1858 -1549 0
-4240 4239 0
-4240 -1858 1549 0
-4240 1858 -1549 0
4240 -4239 1858 1549 0
4240 -4239 -1858 -1549 0
-4240 1859 -1550 0
-4241 4240 0
-4241 -1859 1550 0
-4241 1859 -1550 0
4241 -4240 1859 1550 0
4241 -4240 -1859 -1550 0
-4241 1949 -1640 0
-4242 4241 0
-4242 -1949 1640 0
-4242 1949 -1640 0
4242 -4241 1949 1640 0
4242 -4241 -1949 -1640 0
-4242 1950 -1641 0
-4243 4242 0
-4243 -1950 1641 0
-4243 1950 -1641 0
4243 -4242 1950 1641 0
4243 -4242 -1950 -1641 0
-4243 1951 -1642 0
-4244 4243 0
-4244 -1951 1642 0
-4244 1951 -1642 0
4244 -4243 1951 1642 0
4244 -4243 -1951 -1642 0
-4244 1952 -1643 0
-4245 4244 0
-4245 -1952 1643 0
-4245 1952 -1643 0
4245 -4244 1952 1643 0
4245 -4244 -1952 -1643 0
-4245 1953 -1644 0
-4246 4245 0
-4246 -1953 1644 0
-4246 1953 -1644 0
4246 -4245 1953 1644 0
4246 -4245 -1953 -1644 0
-4246 1954 -1645 0
-4247 4246 0
-4247 -1954 1645 0
-4247 1954 -1645 0
4247 -4246 1954 1645 0
4247 -4246 -1954 -1645 0
-4247 1955 -1646 0
-4248 4247 0
-4248 -1955 1646 0
-4248 1955 -1646 0
4248 -4247 1955 1646 0
4248 -4247 -1955 -1646 0
-4248 1956 -1647 0
-4249 4248 0
-4249 -1956 1647 0
-4249 1956 -1647 0
4249 -4248 1956 1647 0
4249 -4248 -1956 -1647 0
-4249 1957 -1648 0
-4250 4249 0
-4250 -1957 1648 0
-4250 1957 -1648 0
4250 -4249 1957 1648 0
4250 -4249 -1957 -1648 0
-4250 1958 -1649 0
-4251 4250 0
-4251 -1958 1649 0
-4251 1958 -1649 0
4251 -4250 1958 1649 0
4251 -4250 -1958 -1649 0
-4251 1959 -1650 0
-4252 4251 0
-4252 -1959 1650 0
-4252 1959 -1650 0
4252 -4251 1959 1650 0
4252 -4251 -1959 -1650 0
-4252 1960 -1651 0
-4253 4252 0
-4253 -1960 1651 0
-4253 1960 -1651 0
4253 -4252 1960 1651 0
4253 -4252 -1960 -1651 0
-4253 1961 -1652 0
-4254 4253 0
-4254 -1961 1652 0
-4254 1961 -1652 0
4254 -4253 1961 1652 0
4254 -4253 -1961 -1652 0
-4254 1962 -1653 0
-4255 4254 0
-4255 -1962 1653 0
-4255 1962 -1653 0
4255 -4254 1962 1653 0
4255 -4254 -1962 -1653 0
-4255 2052 -1743 0
-4256 4255 0
-4256 -2052 1743 0
-4256 2052 -1743 0
4256 -4255 2052 1743 0
4256 -4255 -2052 -1743 0
-4256 2053 -1744 0
-4257 4256 0
-4257 -2053 1744 0
-4257 2053 -1744 0
4257 -4256 2053 1744 0
4257 -4256 -2053 -1744 0
-4257 2054 -1745 0
-4258 4257 0
-4258 -2054 1745 0
-4258 2054 -1745 0
4258 -4257 2054 1745 0
4258 -4257 -2054 -1745 0
-4258 2055 -1746 0
-4259 4258 0
-4259 -2055 1746 0
-4259 2055 -1746 0
4259 -4258 2055 1746 0
4259 -4258 -2055 -1746 0
-4259 2056 -1747 0
-4260 4259 0
-4260 -2056 1747 0
-4260 2056 -1747 0
4260 -4259 2056 1747 0
4260 -4259 -2056 -1747 0
-4260 2057 -1748 0
-4261 4260 0
-4261 -2057 1748 0
-4261 2057 -1748 0
4261 -4260 2057 1748 0
4261 -4260 -2057 -1748 0
-4261 2058 -1749 0
-4262 4261 0
-4262 -2058 1749 0
-4262 2058 -1749 0
4262 -4261 2058 1749 0
4262 -4261 -2058 -1749 0
-4262 2059 -1750 0
-4263 4262 0
-4263 -2059 1750 0
-4263 2059 -1750 0
4263 -4262 2059 1750 0
4263 -4262 -2059 -1750 0
-4263 2060 -1751 0
-4264 4263 0
-4264 -2060 1751 0
-4264 2060 -1751 0
4264 -4263 2060 1751 0
4264 -4263 -2060 -1751 0
-4264 2061 -1752 0
-4265 4264 0
-4265 -2061 1752 0
-4265 2061 -1752 0
4265 -4264 2061 1752 0
4265 -4264 -2061 -1752 0
-4265 2062 -1753 0
-4266 4265 0
-4266 -2062 1753 0
-4266 2062 -1753 0
4266 -4265 2062 1753 0
4266 -4265 -2062 -1753 0
-4266 2063 -1754 0
-4267 4266 0
-4267 -2063 1754 0
-4267 2063 -1754 0
4267 -4266 2063 1754 0
4267 -4266 -2063 -1754 0
-4267 2064 -1755 0
-4268 4267 0
-4268 -2064 1755 0
-4268 2064 -1755 0
4268 -4267 2064 1755 0
4268 -4267 -2064 -1755 0
-4268 2065 -1756 0
-4269 4268 0
-4269 -2065 1756 0
-4269 2065 -1756 0
4269 -4268 2065 1756 0
4269 -4268 -2065 -1756 0
-4269 2155 -1846 0
-4270 4269 0
-4270 -2155 1846 0
-4270 2155 -1846 0
4270 -4269 2155 1846 0
4270 -4269 -2155 -1846 0
-4270 2156 -1847 0
-4271 4270 0
-4271 -2156 1847 0
-4271 2156 -1847 0
4271 -4270 2156 1847 0
4271 -4270 -2156 -1847 0
-4271 2157 -1848 0
-4272 4271 0
-4272 -2157 1848 0
-4272 2157 -1848 0
4272 -4271 2157 1848 0
4272 -4271 -2157 -1848 0
-4272 2158 -1849 0
-4273 4272 0
-4273 -2158 1849 0
-4273 2158 -1849 0
4273 -4272 2158 1849 0
4273 -4272 -2158 -1849 0
-4273 2159 -1850 0
-4274 4273 0
-4274 -2159 1850 0
-4274 2159 -1850 0
4274 -4273 2159 1850 0
4274 -4273 -2159 -1850 0
-4274 2160 -1851 0
-4275 4274 0
-4275 -2160 1851 0
-4275 2160 -1851 0
4275 -4274 2160 1851 0
4275 -4274 -2160 -1851 0
-4275 2161 -1852 0
-4276 4275 0
-4276 -2161 1852 0
-4276 2161 -1852 0
4276 -4275 2161 1852 0
4276 -4275 -2161 -1852 0
-4276 2162 -1853 0
-4277 4276 0
-4277 -2162 1853 0
-4277 2162 -1853 0
4277 -4276 2162 1853 0
4277 -4276 -2162 -1853 0
-4277 2163 -1854 0
-4278 4277 0
-4278 -2163 1854 0
-4278 2163 -1854 0
4278 -4277 2163 1854 0
4278 -4277 -2163 -1854 0
-4278 2164 -1855 0
-4279 4278 0
-4279 -2164 1855 0
-4279 2164 -1855 0
4279 -4278 2164 1855 0
4279 -4278 -2164 -1855 0
-4279 2165 -1856 0
-4280 4279 0
-4280 -2165 1856 0
-4280 2165 -1856 0
4280 -4279 2165 1856 0
4280 -4279 -2165 -1856 0
-4280 2166 -1857 0
-4281 4280 0
-4281 -2166 1857 0
-4281 2166 -1857 0
4281 -4280 2166 1857 0
4281 -4280 -2166 -1857 0
-4281 2167 -1858 0
-4282 4281 0
-4282 -2167 1858 0
-4282 2167 -1858 0
4282 -4281 2167 1858 0
4282 -4281 -2167 -1858 0
-4282 2168 -1859 0
-4283 4282 0
-4283 -2168 1859 0
-4283 2168 -1859 0
4283 -4282 2168 1859 0
4283 -4282 -2168 -1859 0
-4283 2258 -1949 0
-4284 4283 0
-4284 -2258 1949 0
-4284 2258 -1949 0
4284 -4283 2258 1949 0
4284 -4283 -2258 -1949 0
-4284 2259 -1950 0
-4285 4284 0
-4285 -2259 1950 0
-4285 2259 -1950 0
4285 -4284 2259 1950 0
4285 -4284 -2259 -1950 0
-4285 2260 -1951 0
-4286 4285 0
-4286 -2260 1951 0
-4286 2260 -1951 0
4286 -4285 2260 1951 0
4286 -4285 -2260 -1951 0
-4286 2261 -1952 0
-4287 4286 0
-4287 -2261 1952 0
-4287 2261 -1952 0
4287 -4286 2261 1952 0
4287 -4286 -2261 -1952 0
-4287 2262 -1953 0
-4288 4287 0
-4288 -2262 1953 0
-4288 2262 -1953 0
4288 -4287 2262 1953 0
4288 -4287 -2262 -1953 0
-4288 2263 -1954 0
-4289 4288 0
-4289 -2263 1954 0
-4289 2263 -1954 0
4289 -4288 2263 1954 0
4289 -4288 -2263 -1954 0
-4289 2264 -1955 0
-4290 4289 0
-4290 -2264 1955 0
-4290 2264 -1955 0
4290 -4289 2264 1955 0
4290 -4289 -2264 -1955 0
-4290 2265 -1956 0
-4291 4290 0
-4291 -2265 1956 0
-4291 2265 -1956 0
4291 -4290 2265 1956 0
4291 -4290 -2265 -1956 0
-4291 2266 -1957 0
-4292 4291 0
-4292 -2266 1957 0
-4292 2266 -1957 0
4292 -4291 2266 1957 0
4292 -4291 -2266 -1957 0
-4292 2267 -1958 0
-4293 4292 0
-4293 -2267 1958 0
-4293 2267 -1958 0
4293 -4292 2267 1958 0
4293 -4292 -2267 -1958 0
-4293 2268 -1959 0
-4294 4293 0
-4294 -2268 1959 0
-4294 2268 -1959 0
4294 -4293 2268 1959 0
4294 -4293 -2268 -1959 0
-4294 2269 -1960 0
-4295 4294 0
-4295 -2269 1960 0
-4295 2269 -1960 0
4295 -4294 2269 1960 0
4295 -4294 -2269 -1960 0
-4295 2270 -1961 0
-4296 4295 0
-4296 -2270 1961 0
-4296 2270 -1961 0
4296 -4295 2270 1961 0
4296 -4295 -2270 -1961 0
-4296 2271 -1962 0
-4297 4296 0
-4297 -2271 1962 0
-4297 2271 -1962 0
4297 -4296 2271 1962 0
4297 -4296 -2271 -1962 0
-4297 2361 -2052 0
-4298 4297 0
-4298 -2361 2052 0
-4298 2361 -2052 0
4298 -4297 2361 2052 0
4298 -4297 -2361 -2052 0
-4298 2362 -2053 0
-4299 4298 0
-4299 -2362 2053 0
-4299 2362 -2053 0
4299 -4298 2362 2053 0
4299 -4298 -2362 -2053 0
-4299 2363 -2054 0
-4300 4299 0
-4300 -2363 2054 0
-4300 2363 -2054 0
4300 -4299 2363 2054 0
4300 -4299 -2363 -2054 0
-4300 2364 -2055 0
-4301 4300 0
-4301 -2364 2055 0
-4301 2364 -2055 0
4301 -4300 2364 2055 0
4301 -4300 -2364 -2055 0
-4301 2365 -2056 0
-4302 4301 0
-4302 -2365 2056 0
-4302 2365 -2056 0
4302 -4301 2365 2056 0
4302 -4301 -2365 -2056 0
-4302 2366 -2057 0
-4303 4302 0
-4303 -2366 2057 0
-4303 2366 -2057 0
4303 -4302 2366 2057 0
4303 -4302 -2366 -2057 0
-4303 2367 -2058 0
-4304 4303 0
-4304 -2367 2058 0
-4304 2367 -2058 0
4304 -4303 2367 2058 0
4304 -4303 -2367 -2058 0
-4304 2368 -2059 0
-4305 4304 0
-4305 -2368 2059 0
-4305 2368 -2059 0
4305 -4304 2368 2059 0
4305 -4304 -2368 -2059 0
-4305 2369 -2060 0
-4306 4305 0
-4306 -2369 2060 0
-4306 2369 -2060 0
4306 -4305 2369 2060 0
4306 -4305 -2369 -2060 0
-4306 2370 -2061 0
-4307 4306 0
-4307 -2370 2061 0
-4307 2370 -2061 0
4307 -4306 2370 2061 0
4307 -4306 -2370 -2061 0
-4307 2371 -2062 0
-4308 4307 0
-4308 -2371 2062 0
-4308 2371 -2062 0
4308 -4307 2371 2062 0
4308 -4307 -2371 -2062 0
-4308 2372 -2063 0
-4309 4308 0
-4309 -2372 2063 0
-4309 2372 -2063 0
4309 -4308 2372 2063 0
4309 -4308 -2372 -2063 0
-4309 2373 -2064 0
-4310 4309 0
-4310 -2373 2064 0
-4310 2373 -2064 0
4310 -4309 2373 2064 0
4310 -4309 -2373 -2064 0
-4310 2374 -2065 0
-4311 4310 0
-4311 -2374 2065 0
-4311 2374 -2065 0
4311 -4310 2374 2065 0
4311 -4310 -2374 -2065 0
-4311 2464 -2155 0
-4312 4311 0
-4312 -2464 2155 0
-4312 2464 -2155 0
4312 -4311 2464 2155 0
4312 -4311 -2464 -2155 0
-4312 2465 -2156 0
-4313 4312 0
-4313 -2465 2156 0
-4313 2465 -2156 0
4313 -4312 2465 2156 0
4313 -4312 -2465 -2156 0
-4313 2466 -2157 0
-4314 4313 0
-4314 -2466 2157 0
-4314 2466 -2157 0
4314 -4313 2466 2157 0
4314 -4313 -2466 -2157 0
-4314 2467 -2158 0
-4315 4314 0
-4315 -2467 2158 0
-4315 2467 -2158 0
4315 -4314 2467 2158 0
4315 -4314 -2467 -2158 0
-4315 2468 -2159 0
-4316 4315 0
-4316 -2468 2159 0
-4316 2468 -2159 0
4316 -4315 2468 2159 0
4316 -4315 -2468 -2159 0
-4316 2469 -2160 0
-4317 4316 0
-4317 -2469 2160 0
-4317 2469 -2160 0
4317 -4316 2469 2160 0
4317 -4316 -2469 -2160 0
-4317 2470 -2161 0
-4318 4317 0
-4318 -2470 2161 0
-4318 2470 -2161 0
4318 -4317 2470 2161 0
4318 -4317 -2470 -2161 0
-4318 2471 -2162 0
-4319 4318 0
-4319 -2471 2162 0
-4319 2471 -2162 0
4319 -4318 2471 2162 0
4319 -4318 -2471 -2162 0
-4319 2472 -2163 0
-4320 4319 0
-4320 -2472 2163 0
-4320 2472 -2163 0
4320 -4319 2472 2163 0
4320 -4319 -2472 -2163 0
-4320 2473 -2164 0
-4321 4320 0
-4321 -2473 2164 0
-4321 2473 -2164 0
4321 -4320 2473 2164 0
4321 -4320 -2473 -2164 0
-4321 2474 -2165 0
-4322 4321 0
-4322 -2474 2165 0
-4322 2474 -2165 0
4322 -4321 2474 2165 0
4322 -4321 -2474 -2165 0
-4322 2475 -2166 0
-4323 4322 0
-4323 -2475 2166 0
-4323 2475 -2166 0
4323 -4322 2475 2166 0
4323 -4322 -2475 -2166 0
-4323 2476 -2167 0
-4324 4323 0
-4324 -2476 2167 0
-4324 2476 -2167 0
4324 -4323 2476 2167 0
4324 -4323 -2476 -2167 0
-4324 2477 -2168 0
-4325 4324 0
-4325 -2477 2168 0
-4325 2477 -2168 0
4325 -4324 2477 2168 0
4325 -4324 -2477 -2168 0
-4325 2567 -2258 0
-4326 4325 0
-4326 -2567 2258 0
-4326 2567 -2258 0
4326 -4325 2567 2258 0
4326 -4325 -2567 -2258 0
-4326 2568 -2259 0
-4327 4326 0
-4327 -2568 2259 0
-4327 2568 -2259 0
4327 -4326 2568 2259 0
4327 -4326 -2568 -2259 0
-4327 2569 -2260 0
-4328 4327 0
-4328 -2569 2260 0
-4328 2569 -2260 0
4328 -4327 2569 2260 0
4328 -4327 -2569 -2260 0
-4328 2570 -2261 0
-4329 4328 0
-4329 -2570 2261 0
-4329 2570 -2261 0
4329 -4328 2570 2261 0
4329 -4328 -2570 -2261 0
-4329 2571 -2262 0
-4330 4329 0
-4330 -2571 2262 0
-4330 2571 -2262 0
4330 -4329 2571 2262 0
4330 -4329 -2571 -2262 0
-4330 2572 -2263 0
-4331 4330 0
-4331 -2572 2263 0
-4331 2572 -2263 0
4331 -4330 2572 2263 0
4331 -4330 -2572 -2263 0
-4331 2573 -2264 0
-4332 4331 0
-4332 -2573 2264 0
-4332 2573 -2264 0
4332 -4331 2573 2264 0
4332 -4331 -2573 -2264 0
-4332 2574 -2265 0
-4333 4332 0
-4333 -2574 2265 0
-4333 2574 -2265 0
4333 -4332 2574 2265 0
4333 -4332 -2574 -2265 0
-4333 2575 -2266 0
-4334 4333 0
-4334 -2575 2266 0
-4334 2575 -2266 0
4334 -4333 2575 2266 0
4334 -4333 -2575 -2266 0
-4334 2576 -2267 0
-4335 4334 0
-4335 -2576 2267 0
-4335 2576 -2267 0
4335 -4334 2576 2267 0
4335 -4334 -2576 -2267 0
-4335 2577 -2268 0
-4336 4335 0
-4336 -2577 2268 0
-4336 2577 -2268 0
4336 -4335 2577 2268 0
4336 -4335 -2577 -2268 0
-4336 2578 -2269 0
-4337 4336 0
-4337 -2578 2269 0
-4337 2578 -2269 0
4337 -4336 2578 2269 0
4337 -4336 -2578 -2269 0
-4337 2579 -2270 0
-4338 4337 0
-4338 -2579 2270 0
-4338 2579 -2270 0
4338 -4337 2579 2270 0
4338 -4337 -2579 -2270 0
-4338 2580 -2271 0
-4339 4338 0
-4339 -2580 2271 0
-4339 2580 -2271 0
4339 -4338 2580 2271 0
4339 -4338 -2580 -2271 0
-4339 2670 -2361 0
-4340 4339 0
-4340 -2670 2361 0
-4340 2670 -2361 0
4340 -4339 2670 2361 0
4340 -4339 -2670 -2361 0
-4340 2671 -2362 0
-4341 4340 0
-4341 -2671 2362 0
-4341 2671 -2362 0
4341 -4340 2671 2362 0
4341 -4340 -2671 -2362 0
-4341 2672 -2363 0
-4342 4341 0
-4342 -2672 2363 0
-4342 2672 -2363 0
4342 -4341 2672 2363 0
4342 -4341 -2672 -2363 0
-4342 2673 -2364 0
-4343 4342 0
-4343 -2673 2364 0
-4343 2673 -2364 0
4343 -4342 2673 2364 0
4343 -4342 -2673 -2364 0
-4343 2674 -2365 0
-4344 4343 0
-4344 -2674 2365 0
-4344 2674 -2365 0
4344 -4343 2674 2365 0
4344 -4343 -2674 -2365 0
-4344 2675 -2366 0
-4345 4344 0
-4345 -2675 2366 0
-4345 2675 -2366 0
4345 -4344 2675 2366 0
4345 -4344 -2675 -2366 0
-4345 2676 -2367 0
-4346 4345 0
-4346 -2676 2367 0
-4346 2676 -2367 0
4346 -4345 2676 2367 0
4346 -4345 -2676 -2367 0
-4346 2677 -2368 0
-4347 4346 0
-4347 -2677 2368 0
-4347 2677 -2368 0
4347 -4346 2677 2368 0
4347 -4346 -2677 -2368 0
-4347 2678 -2369 0
-4348 4347 0
-4348 -2678 2369 0
-4348 2678 -2369 0
4348 -4347 2678 2369 0
4348 -4347 -2678 -2369 0
-4348 2679 -2370 0
-4349 4348 0
-4349 -2679 2370 0
-4349 2679 -2370 0
4349 -4348 2679 2370 0
4349 -4348 -2679 -2370 0
-4349 2680 -2371 0
-4350 4349 0
-4350 -2680 2371 0
-4350 2680 -2371 0
4350 -4349 2680 2371 0
4350 -4349 -2680 -2371 0
-4350 2681 -2372 0
-4351 4350 0
-4351 -2681 2372 0
-4351 2681 -2372 0
4351 -4350 2681 2372 0
4351 -4350 -2681 -2372 0
-4351 2682 -2373 0
-4352 4351 0
-4352 -2682 2373 0
-4352 2682 -2373 0
4352 -4351 2682 2373 0
4352 -4351 -2682 -2373 0
-4352 2683 -2374 0
1537 -2567 0
-4353 -1537 2567 0
-4353 1537 -2567 0
4353 1537 2567 0
4353 -1537 -2567 0
-4353 1538 -2568 0
-4354 4353 0
-4354 -1538 2568 0
-4354 1538 -2568 0
4354 -4353 1538 2568 0
4354 -4353 -1538 -2568 0
-4354 1539 -2569 0
-4355 4354 0
-4355 -1539 2569 0
-4355 1539 -2569 0
4355 -4354 1539 2569 0
4355 -4354 -1539 -2569 0
-4355 1540 -2570 0
-4356 4355 0
-4356 -1540 2570 0
-4356 1540 -2570 0
4356 -4355 1540 2570 0
4356 -4355 -1540 -2570 0
-4356 1541 -2571 0
-4357 4356 0
-4357 -1541 2571 0
-4357 1541 -2571 0
4357 -4356 1541 2571 0
4357 -4356 -1541 -2571 0
-4357 1542 -2572 0
-4358 4357 0
-4358 -1542 2572 0
-4358 1542 -2572 0
4358 -4357 1542 2572 0
4358 -4357 -1542 -2572 0
-4358 1543 -2573 0
-4359 4358 0
-4359 -1543 2573 0
-4359 1543 -2573 0
4359 -4358 1543 2573 0
4359 -4358 -1543 -2573 0
-4359 1544 -2574 0
-4360 4359 0
-4360 -1544 2574 0
-4360 1544 -2574 0
4360 -4359 1544 2574 0
4360 -4359 -1544 -2574 0
-4360 1545 -2575 0
-4361 4360 0
-4361 -1545 2575 0
-4361 1545 -2575 0
4361 -4360 1545 2575 0
4361 -4360 -1545 -2575 0
-4361 1546 -2576 0
-4362 4361 0
-4362 -1546 2576 0
-4362 1546 -2576 0
4362 -4361 1546 2576 0
4362 -4361 -1546 -2576 0
-4362 1547 -2577 0
-4363 4362 0
-4363 -1547 2577 0
-4363 1547 -2577 0
4363 -4362 1547 2577 0
4363 -4362 -1547 -2577 0
-4363 1548 -2578 0
-4364 4363 0
-4364 -1548 2578 0
-4364 1548 -2578 0
4364 -4363 1548 2578 0
4364 -4363 -1548 -2578 0
-4364 1549 -2579 0
-4365 4364 0
-4365 -1549 2579 0
-4365 1549 -2579 0
4365 -4364 1549 2579 0
4365 -4364 -1549 -2579 0
-4365 1550 -2580 0
-4366 4365 0
-4366 -1550 2580 0
-4366 1550 -2580 0
4366 -4365 1550 2580 0
4366 -4365 -1550 -2580 0
-4366 1640 -2670 0
-4367 4366 0
-4367 -1640 2670 0
-4367 1640 -2670 0
4367 -4366 1640 2670 0
4367 -4366 -1640 -2670 0
-4367 1641 -2671 0
-4368 4367 0
-4368 -1641 2671 0
-4368 1641 -2671 0
4368 -4367 1641 2671 0
4368 -4367 -1641 -2671 0
-4368 1642 -2672 0
-4369 4368 0
-4369 -1642 2672 0
-4369 1642 -2672 0
4369 -4368 1642 2672 0
4369 -4368 -1642 -2672 0
-4369 1643 -2673 0
-4370 4369 0
-4370 -1643 2673 0
-4370 1643 -2673 0
4370 -4369 1643 2673 0
4370 -4369 -1643 -2673 0
-4370 1644 -2674 0
-4371 4370 0
-4371 -1644 2674 0
-4371 1644 -2674 0
4371 -4370 1644 2674 0
4371 -4370 -1644 -2674 0
-4371 1645 -2675 0
-4372 4371 0
-4372 -1645 2675 0
-4372 1645 -2675 0
4372 -4371 1645 2675 0
4372 -4371 -1645 -2675 0
-4372 1646 -2676 0
-4373 4372 0
-4373 -1646 2676 0
-4373 1646 -2676 0
4373 -4372 1646 2676 0
4373 -4372 -1646 -2676 0
-4373 1647 -2677 0
-4374 4373 0
-4374 -1647 2677 0
-4374 1647 -2677 0
4374 -4373 1647 2677 0
4374 -4373 -1647 -2677 0
-4374 1648 -2678 0
-4375 4374 0
-4375 -1648 2678 0
-4375 1648 -2678 0
4375 -4374 1648 2678 0
4375 -4374 -1648 -2678 0
-4375 1649 -2679 0
-4376 4375 0
-4376 -1649 2679 0
-4376 1649 -2679 0
4376 -4375 1649 2679 0
4376 -4375 -1649 -2679 0
-4376 1650 -2680 0
-4377 4376 0
-4377 -1650 2680 0
-4377 1650 -2680 0
4377 -4376 1650 2680 0
4377 -4376 -1650 -2680 0
-4377 1651 -2681 0
-4378 4377 0
-4378 -1651 2681 0
-4378 1651 -2681 0
4378 -4377 1651 2681 0
4378 -4377 -1651 -2681 0
-4378 1652 -2682 0
-4379 4378 0
-4379 -1652 2682 0
-4379 1652 -2682 0
4379 -4378 1652 2682 0
4379 -4378 -1652 -2682 0
-4379 1653 -2683 0
-4380 4379 0
-4380 -1653 2683 0
-4380 1653 -2683 0
4380 -4379 1653 2683 0
4380 -4379 -1653 -2683 0
-4380 1743 -1537 0
-4381 4380 0
-4381 -1743 1537 0
-4381 1743 -1537 0
4381 -4380 1743 1537 0
4381 -4380 -1743 -1537 0
-4381 1744 -1538 0
-4382 4381 0
-4382 -1744 1538 0
-4382 1744 -1538 0
4382 -4381 1744 1538 0
4382 -4381 -1744 -1538 0
-4382 1745 -1539 0
-4383 4382 0
-4383 -1745 1539 0
-4383 1745 -1539 0
4383 -4382 1745 1539 0
4383 -4382 -1745 -1539 0
-4383 1746 -1540 0
-4384 4383 0
-4384 -1746 1540 0
-4384 1746 -1540 0
4384 -4383 1746 1540 0
4384 -4383 -1746 -1540 0
-4384 1747 -1541 0
-4385 4384 0
-4385 -1747 1541 0
-4385 1747 -1541 0
4385 -4384 1747 1541 0
4385 -4384 -1747 -1541 0
-4385 1748 -1542 0
-4386 4385 0
-4386 -1748 1542 0
-4386 1748 -1542 0
4386 -4385 1748 1542 0
4386 -4385 -1748 -1542 0
-4386 1749 -1543 0
-4387 4386 0
-4387 -1749 1543 0
-4387 1749 -1543 0
4387 -4386 1749 1543 0
4387 -4386 -1749 -1543 0
-4387 1750 -1544 0
-4388 4387 0
-4388 -1750 1544 0
-4388 1750 -1544 0
4388 -4387 1750 1544 0
4388 -4387 -1750 -1544 0
-4388 1751 -1545 0
-4389 4388 0
-4389 -1751 1545 0
-4389 1751 -1545 0
4389 -4388 1751 1545 0
4389 -4388 -1751 -1545 0
-4389 1752 -1546 0
-4390 4389 0
-4390 -1752 1546 0
-4390 1752 -1546 0
4390 -4389 1752 1546 0
4390 -4389 -1752 -1546 0
-4390 1753 -1547 0
-4391 4390 0
-4391 -1753 1547 0
-4391 1753 -1547 0
4391 -4390 1753 1547 0
4391 -4390 -1753 -1547 0
-4391 1754 -1548 0
-4392 4391 0
-4392 -1754 1548 0
-4392 1754 -1548 0
4392 -4391 1754 1548 0
4392 -4391 -1754 -1548 0
-4392 1755 -1549 0
-4393 4392 0
-4393 -1755 1549 0
-4393 1755 -1549 0
4393 -4392 1755 1549 0
4393 -4392 -1755 -1549 0
-4393 1756 -1550 0
-4394 4393 0
-4394 -1756 1550 0
-4394 1756 -1550 0
4394 -4393 1756 1550 0
4394 -4393 -1756 -1550 0
-4394 1846 -1640 0
-4395 4394 0
-4395 -1846 1640 0
-4395 1846 -1640 0
4395 -4394 1846 1640 0
4395 -4394 -1846 -1640 0
-4395 1847 -1641 0
-4396 4395 0
-4396 -1847 1641 0
-4396 1847 -1641 0
4396 -4395 1847 1641 0
4396 -4395 -1847 -1641 0
-4396 1848 -1642 0
-4397 4396 0
-4397 -1848 1642 0
-4397 1848 -1642 0
4397 -4396 1848 1642 0
4397 -4396 -1848 -1642 0
-4397 1849 -1643 0
-4398 4397 0
-4398 -1849 1643 0
-4398 1849 -1643 0
4398 -4397 1849 1643 0
4398 -4397 -1849 -1643 0
-4398 1850 -1644 0
-4399 4398 0
-4399 -1850 1644 0
-4399 1850 -1644 0
4399 -4398 1850 1644 0
4399 -4398 -1850 -1644 0
-4399 1851 -1645 0
-4400 4399 0
-4400 -1851 1645 0
-4400 1851 -1645 0
4400 -4399 1851 1645 0
4400 -4399 -1851 -1645 0
-4400 1852 -1646 0
-4401 4400 0
-4401 -1852 1646 0
-4401 1852 -1646 0
4401 -4400 1852 1646 0
4401 -4400 -1852 -1646 0
-4401 1853 -1647 0
-4402 4401 0
-4402 -1853 1647 0
-4402 1853 -1647 0
4402 -4401 1853 1647 0
4402 -4401 -1853 -1647 0
-4402 1854 -1648 0
-4403 4402 0
-4403 -1854 1648 0
-4403 1854 -1648 0
4403 -4402 1854 1648 0
4403 -4402 -1854 -1648 0
-4403 1855 -1649 0
-4404 4403 0
-4404 -1855 1649 0
-4404 1855 -1649 0
4404 -4403 1855 1649 0
4404 -4403 -1855 -1649 0
-4404 1856 -1650 0
-4405 4404 0
-4405 -1856 1650 0
-4405 1856 -1650 0
4405 -4404 1856 1650 0
4405 -4404 -1856 -1650 0
-4405 1857 -1651 0
-4406 4405 0
-4406 -1857 1651 0
-4406 1857 -1651 0
4406 -4405 1857 1651 0
4406 -4405 -1857 -1651 0
-4406 1858 -1652 0
-4407 4406 0
-4407 -1858 1652 0
-4407 1858 -1652 0
4407 -4406 1858 1652 0
4407 -4406 -1858 -1652 0
-4407 1859 -1653 0
-4408 4407 0
-4408 -1859 1653 0
-4408 1859 -1653 0
4408 -4407 1859 1653 0
4408 -4407 -1859 -1653 0
-4408 1949 -1743 0
-4409 4408 0
-4409 -1949 1743 0
-4409 1949 -1743 0
4409 -4408 1949 1743 0
4409 -4408 -1949 -1743 0
-4409 1950 -1744 0
-4410 4409 0
-4410 -1950 1744 0
-4410 1950 -1744 0
4410 -4409 1950 1744 0
4410 -4409 -1950 -1744 0
-4410 1951 -1745 0
-4411 4410 0
-4411 -1951 1745 0
-4411 1951 -1745 0
4411 -4410 1951 1745 0
4411 -4410 -1951 -1745 0
-4411 1952 -1746 0
-4412 4411 0
-4412 -1952 1746 0
-4412 1952 -1746 0
4412 -4411 1952 1746 0
4412 -4411 -1952 -1746 0
-4412 1953 -1747 0
-4413 4412 0
-4413 -1953 1747 0
-4413 1953 -1747 0
4413 -4412 1953 1747 0
4413 -4412 -1953 -1747 0
-4413 1954 -1748 0
-4414 4413 0
-4414 -1954 1748 0
-4414 1954 -1748 0
4414 -4413 1954 1748 0
4414 -4413 -1954 -1748 0
-4414 1955 -1749 0
-4415 4414 0
-4415 -1955 1749 0
-4415 1955 -1749 0
4415 -4414 1955 1749 0
4415 -4414 -1955 -1749 0
-4415 1956 -1750 0
-4416 4415 0
-4416 -1956 1750 0
-4416 1956 -1750 0
4416 -4415 1956 1750 0
4416 -4415 -1956 -1750 0
-4416 1957 -1751 0
-4417 4416 0
-4417 -1957 1751 0
-4417 1957 -1751 0
4417 -4416 1957 1751 0
4417 -4416 -1957 -1751 0
-4417 1958 -1752 0
-4418 4417 0
-4418 -1958 1752 0
-4418 1958 -1752 0
4418 -4417 1958 1752 0
4418 -4417 -1958 -1752 0
-4418 1959 -1753 0
-4419 4418 0
-4419 -1959 1753 0
-4419 1959 -1753 0
4419 -4418 1959 1753 0
4419 -4418 -1959 -1753 0
-4419 1960 -1754 0
-4420 4419 0
-4420 -1960 1754 0
-4420 1960 -1754 0
4420 -4419 1960 1754 0
4420 -4419 -1960 -1754 0
-4420 1961 -1755 0
-4421 4420 0
-4421 -1961 1755 0
-4421 1961 -1755 0
4421 -4420 1961 1755 0
4421 -4420 -1961 -1755 0
-4421 1962 -1756 0
-4422 4421 0
-4422 -1962 1756 0
-4422 1962 -1756 0
4422 -4421 1962 1756 0
4422 -4421 -1962 -1756 0
-4422 2052 -1846 0
-4423 4422 0
-4423 -2052 1846 0
-4423 2052 -1846 0
4423 -4422 2052 1846 0
4423 -4422 -2052 -1846 0
-4423 2053 -1847 0
-4424 4423 0
-4424 -2053 1847 0
-4424 2053 -1847 0
4424 -4423 2053 1847 0
4424 -4423 -2053 -1847 0
-4424 2054 -1848 0
-4425 4424 0
-4425 -2054 1848 0
-4425 2054 -1848 0
4425 -4424 2054 1848 0
4425 -4424 -2054 -1848 0
-4425 2055 -1849 0
-4426 4425 0
-4426 -2055 1849 0
-4426 2055 -1849 0
4426 -4425 2055 1849 0
4426 -4425 -2055 -1849 0
-4426 2056 -1850 0
-4427 4426 0
-4427 -2056 1850 0
-4427 2056 -1850 0
4427 -4426 2056 1850 0
4427 -4426 -2056 -1850 0
-4427 2057 -1851 0
-4428 4427 0
-4428 -2057 1851 0
-4428 2057 -1851 0
4428 -4427 2057 1851 0
4428 -4427 -2057 -1851 0
-4428 2058 -1852 0
-4429 4428 0
-4429 -2058 1852 0
-4429 2058 -1852 0
4429 -4428 2058 1852 0
4429 -4428 -2058 -1852 0
-4429 2059 -1853 0
-4430 4429 0
-4430 -2059 1853 0
-4430 2059 -1853 0
4430 -4429 2059 1853 0
4430 -4429 -2059 -1853 0
-4430 2060 -1854 0
-4431 4430 0
-4431 -2060 1854 0
-4431 2060 -1854 0
4431 -4430 2060 1854 0
4431 -4430 -2060 -1854 0
-4431 2061 -1855 0
-4432 4431 0
-4432 -2061 1855 0
-4432 2061 -1855 0
4432 -4431 2061 1855 0
4432 -4431 -2061 -1855 0
-4432 2062 -1856 0
-4433 4432 0
-4433 -2062 1856 0
-4433 2062 -1856 0
4433 -4432 2062 1856 0
4433 -4432 -2062 -1856 0
-4433 2063 -1857 0
-4434 4433 0
-4434 -2063 1857 0
-4434 2063 -1857 0
4434 -4433 2063 1857 0
4434 -4433 -2063 -1857 0
-4434 2064 -1858 0
-4435 4434 0
-4435 -2064 1858 0
-4435 2064 -1858 0
4435 -4434 2064 1858 0
4435 -4434 -2064 -1858 0
-4435 2065 -1859 0
-4436 4435 0
-4436 -2065 1859 0
-4436 2065 -1859 0
4436 -4435 2065 1859 0
4436 -4435 -2065 -1859 0
-4436 2155 -1949 0
-4437 4436 0
-4437 -2155 1949 0
-4437 2155 -1949 0
4437 -4436 2155 1949 0
4437 -4436 -2155 -1949 0
-4437 2156 -1950 0
-4438 4437 0
-4438 -2156 1950 0
-4438 2156 -1950 0
4438 -4437 2156 1950 0
4438 -4437 -2156 -1950 0
-4438 2157 -1951 0
-4439 4438 0
-4439 -2157 1951 0
-4439 2157 -1951 0
4439 -4438 2157 1951 0
4439 -4438 -2157 -1951 0
-4439 2158 -1952 0
-4440 4439 0
-4440 -2158 1952 0
-4440 2158 -1952 0
4440 -4439 2158 1952 0
4440 -4439 -2158 -1952 0
-4440 2159 -1953 0
-4441 4440 0
-4441 -2159 1953 0
-4441 2159 -1953 0
4441 -4440 2159 1953 0
4441 -4440 -2159 -1953 0
-4441 2160 -1954 0
-4442 4441 0
-4442 -2160 1954 0
-4442 2160 -1954 0
4442 -4441 2160 1954 0
4442 -4441 -2160 -1954 0
-4442 2161 -1955 0
-4443 4442 0
-4443 -2161 1955 0
-4443 2161 -1955 0
4443 -4442 2161 1955 0
4443 -4442 -2161 -1955 0
-4443 2162 -1956 0
-4444 4443 0
-4444 -2162 1956 0
-4444 2162 -1956 0
4444 -4443 2162 1956 0
4444 -4443 -2162 -1956 0
-4444 2163 -1957 0
-4445 4444 0
-4445 -2163 1957 0
-4445 2163 -1957 0
4445 -4444 2163 1957 0
4445 -4444 -2163 -1957 0
-4445 2164 -1958 0
-4446 4445 0
-4446 -2164 1958 0
-4446 2164 -1958 0
4446 -4445 2164 1958 0
4446 -4445 -2164 -1958 0
-4446 2165 -1959 0
-4447 4446 0
-4447 -2165 1959 0
-4447 2165 -1959 0
4447 -4446 2165 1959 0
4447 -4446 -2165 -1959 0
-4447 2166 -1960 0
-4448 4447 0
-4448 -2166 1960 0
-4448 2166 -1960 0
4448 -4447 2166 1960 0
4448 -4447 -2166 -1960 0
-4448 2167 -1961 0
-4449 4448 0
-4449 -2167 1961 0
-4449 2167 -1961 0
4449 -4448 2167 1961 0
4449 -4448 -2167 -1961 0
-4449 2168 -1962 0
-4450 4449 0
-4450 -2168 1962 0
-4450 2168 -1962 0
4450 -4449 2168 1962 0
4450 -4449 -2168 -1962 0
-4450 2258 -2052 0
-4451 4450 0
-4451 -2258 2052 0
-4451 2258 -2052 0
4451 -4450 2258 2052 0
4451 -4450 -2258 -2052 0
-4451 2259 -2053 0
-4452 4451 0
-4452 -2259 2053 0
-4452 2259 -2053 0
4452 -4451 2259 2053 0
4452 -4451 -2259 -2053 0
-4452 2260 -2054 0
-4453 4452 0
-4453 -2260 2054 0
-4453 2260 -2054 0
4453 -4452 2260 2054 0
4453 -4452 -2260 -2054 0
-4453 2261 -2055 0
-4454 4453 0
-4454 -2261 2055 0
-4454 2261 -2055 0
4454 -4453 2261 2055 0
4454 -4453 -2261 -2055 0
-4454 2262 -2056 0
-4455 4454 0
-4455 -2262 2056 0
-4455 2262 -2056 0
4455 -4454 2262 2056 0
4455 -4454 -2262 -2056 0
-4455 2263 -2057 0
-4456 4455 0
-4456 -2263 2057 0
-4456 2263 -2057 0
4456 -4455 2263 2057 0
4456 -4455 -2263 -2057 0
-4456 2264 -2058 0
-4457 4456 0
-4457 -2264 2058 0
-4457 2264 -2058 0
4457 -4456 2264 2058 0
4457 -4456 -2264 -2058 0
-4457 2265 -2059 0
-4458 4457 0
-4458 -2265 2059 0
-4458 2265 -2059 0
4458 -4457 2265 2059 0
4458 -4457 -2265 -2059 0
-4458 2266 -2060 0
-4459 4458 0
-4459 -2266 2060 0
-4459 2266 -2060 0
4459 -4458 2266 2060 0
4459 -4458 -2266 -2060 0
-4459 2267 -2061 0
-4460 4459 0
-4460 -2267 2061 0
-4460 2267 -2061 0
4460 -4459 2267 2061 0
4460 -4459 -2267 -2061 0
-4460 2268 -2062 0
-4461 4460 0
-4461 -2268 2062 0
-4461 2268 -2062 0
4461 -4460 2268 2062 0
4461 -4460 -2268 -2062 0
-4461 2269 -2063 0
-4462 4461 0
-4462 -2269 2063 0
-4462 2269 -2063 0
4462 -4461 2269 2063 0
4462 -4461 -2269 -2063 0
-4462 2270 -2064 0
-4463 4462 0
-4463 -2270 2064 0
-4463 2270 -2064 0
4463 -4462 2270 2064 0
4463 -4462 -2270 -2064 0
-4463 2271 -2065 0
-4464 4463 0
-4464 -2271 2065 0
-4464 2271 -2065 0
4464 -4463 2271 2065 0
4464 -4463 -2271 -2065 0
-4464 2361 -2155 0
-4465 4464 0
-4465 -2361 2155 0
-4465 2361 -2155 0
4465 -4464 2361 2155 0
4465 -4464 -2361 -2155 0
-4465 2362 -2156 0
-4466 4465 0
-4466 -2362 2156 0
-4466 2362 -2156 0
4466 -4465 2362 2156 0
4466 -4465 -2362 -2156 0
-4466 2363 -2157 0
-4467 4466 0
-4467 -2363 2157 0
-4467 2363 -2157 0
4467 -4466 2363 2157 0
4467 -4466 -2363 -2157 0
-4467 2364 -2158 0
-4468 4467 0
-4468 -2364 2158 0
-4468 2364 -2158 0
4468 -4467 2364 2158 0
4468 -4467 -2364 -2158 0
-4468 2365 -2159 0
-4469 4468 0
-4469 -2365 2159 0
-4469 2365 -2159 0
4469 -4468 2365 2159 0
4469 -4468 -2365 -2159 0
-4469 2366 -2160 0
-4470 4469 0
-4470 -2366 2160 0
-4470 2366 -2160 0
4470 -4469 2366 2160 0
4470 -4469 -2366 -2160 0
-4470 2367 -2161 0
-4471 4470 0
-4471 -2367 2161 0
-4471 2367 -2161 0
4471 -4470 2367 2161 0
4471 -4470 -2367 -2161 0
-4471 2368 -2162 0
-4472 4471 0
-4472 -2368 2162 0
-4472 2368 -2162 0
4472 -4471 2368 2162 0
4472 -4471 -2368 -2162 0
-4472 2369 -2163 0
-4473 4472 0
-4473 -2369 2163 0
-4473 2369 -2163 0
4473 -4472 2369 2163 0
4473 -4472 -2369 -2163 0
-4473 2370 -2164 0
-4474 4473 0
-4474 -2370 2164 0
-4474 2370 -2164 0
4474 -4473 2370 2164 0
4474 -4473 -2370 -2164 0
-4474 2371 -2165 0
-4475 4474 0
-4475 -2371 2165 0
-4475 2371 -2165 0
4475 -4474 2371 2165 0
4475 -4474 -2371 -2165 0
-4475 2372 -2166 0
-4476 4475 0
-4476 -2372 2166 0
-4476 2372 -2166 0
4476 -4475 2372 2166 0
4476 -4475 -2372 -2166 0
-4476 2373 -2167 0
-4477 4476 0
-4477 -2373 2167 0
-4477 2373 -2167 0
4477 -4476 2373 2167 0
4477 -4476 -2373 -2167 0
-4477 2374 -2168 0
-4478 4477 0
-4478 -2374 2168 0
-4478 2374 -2168 0
4478 -4477 2374 2168 0
4478 -4477 -2374 -2168 0
-4478 2464 -2258 0
-4479 4478 0
-4479 -2464 2258 0
-4479 2464 -2258 0
4479 -4478 2464 2258 0
4479 -4478 -2464 -2258 0
-4479 2465 -2259 0
-4480 4479 0
-4480 -2465 2259 0
-4480 2465 -2259 0
4480 -4479 2465 2259 0
4480 -4479 -2465 -2259 0
-4480 2466 -2260 0
-4481 4480 0
-4481 -2466 2260 0
-4481 2466 -2260 0
4481 -4480 2466 2260 0
4481 -4480 -2466 -2260 0
-4481 2467 -2261 0
-4482 4481 0
-4482 -2467 2261 0
-4482 2467 -2261 0
4482 -4481 2467 2261 0
4482 -4481 -2467 -2261 0
-4482 2468 -2262 0
-4483 4482 0
-4483 -2468 2262 0
-4483 2468 -2262 0
4483 -4482 2468 2262 0
4483 -4482 -2468 -2262 0
-4483 2469 -2263 0
-4484 4483 0
-4484 -2469 2263 0
-4484 2469 -2263 0
4484 -4483 2469 2263 0
4484 -4483 -2469 -2263 0
-4484 2470 -2264 0
-4485 4484 0
-4485 -2470 2264 0
-4485 2470 -2264 0
4485 -4484 2470 2264 0
4485 -4484 -2470 -2264 0
-4485 2471 -2265 0
-4486 4485 0
-4486 -2471 2265 0
-4486 2471 -2265 0
4486 -4485 2471 2265 0
4486 -4485 -2471 -2265 0
-4486 2472 -2266 0
-4487 4486 0
-4487 -2472 2266 0
-4487 2472 -2266 0
4487 -4486 2472 2266 0
4487 -4486 -2472 -2266 0
-4487 2473 -2267 0
-4488 4487 0
-4488 -2473 2267 0
-4488 2473 -2267 0
4488 -4487 2473 2267 0
4488 -4487 -2473 -2267 0
-4488 2474 -2268 0
-4489 4488 0
-4489 -2474 2268 0
-4489 2474 -2268 0
4489 -4488 2474 2268 0
4489 -4488 -2474 -2268 0
-4489 2475 -2269 0
-4490 4489 0
-4490 -2475 2269 0
-4490 2475 -2269 0
4490 -4489 2475 2269 0
4490 -4489 -2475 -2269 0
-4490 2476 -2270 0
-4491 4490 0
-4491 -2476 2270 0
-4491 2476 -2270 0
4491 -4490 2476 2270 0
4491 -4490 -2476 -2270 0
-4491 2477 -2271 0
-4492 4491 0
-4492 -2477 2271 0
-4492 2477 -2271 0
4492 -4491 2477 2271 0
4492 -4491 -2477 -2271 0
-4492 2567 -2361 0
-4493 4492 0
-4493 -2567 2361 0
-4493 2567 -2361 0
4493 -4492 2567 2361 0
4493 -4492 -2567 -2361 0
-4493 2568 -2362 0
-4494 4493 0
-4494 -2568 2362 0
-4494 2568 -2362 0
4494 -4493 2568 2362 0
4494 -4493 -2568 -2362 0
-4494 2569 -2363 0
-4495 4494 0
-4495 -2569 2363 0
-4495 2569 -2363 0
4495 -4494 2569 2363 0
4495 -4494 -2569 -2363 0
-4495 2570 -2364 0
-4496 4495 0
-4496 -2570 2364 0
-4496 2570 -2364 0
4496 -4495 2570 2364 0
4496 -4495 -2570 -2364 0
-4496 2571 -2365 0
-4497 4496 0
-4497 -2571 2365 0
-4497 2571 -2365 0
4497 -4496 2571 2365 0
4497 -4496 -2571 -2365 0
-4497 2572 -2366 0
-4498 4497 0
-4498 -2572 2366 0
-4498 2572 -2366 0
4498 -4497 2572 2366 0
4498 -4497 -2572 -2366 0
-4498 2573 -2367 0
-4499 4498 0
-4499 -2573 2367 0
-4499 2573 -2367 0
4499 -4498 2573 2367 0
4499 -4498 -2573 -2367 0
-4499 2574 -2368 0
-4500 4499 0
-4500 -2574 2368 0
-4500 2574 -2368 0
4500 -4499 2574 2368 0
4500 -4499 -2574 -2368 0
-4500 2575 -2369 0
-4501 4500 0
-4501 -2575 2369 0
-4501 2575 -2369 0
4501 -4500 2575 2369 0
4501 -4500 -2575 -2369 0
-4501 2576 -2370 0
-4502 4501 0
-4502 -2576 2370 0
-4502 2576 -2370 0
4502 -4501 2576 2370 0
4502 -4501 -2576 -2370 0
-4502 2577 -2371 0
-4503 4502 0
-4503 -2577 2371 0
-4503 2577 -2371 0
4503 -4502 2577 2371 0
4503 -4502 -2577 -2371 0
-4503 2578 -2372 0
-4504 4503 0
-4504 -2578 2372 0
-4504 2578 -2372 0
4504 -4503 2578 2372 0
4504 -4503 -2578 -2372 0
-4504 2579 -2373 0
-4505 4504 0
-4505 -2579 2373 0
-4505 2579 -2373 0
4505 -4504 2579 2373 0
4505 -4504 -2579 -2373 0
-4505 2580 -2374 0
-4506 4505 0
-4506 -2580 2374 0
-4506 2580 -2374 0
4506 -4505 2580 2374 0
4506 -4505 -2580 -2374 0
-4506 2670 -2464 0
-4507 4506 0
-4507 -2670 2464 0
-4507 2670 -2464 0
4507 -4506 2670 2464 0
4507 -4506 -2670 -2464 0
-4507 2671 -2465 0
-4508 4507 0
-4508 -2671 2465 0
-4508 2671 -2465 0
4508 -4507 2671 2465 0
4508 -4507 -2671 -2465 0
-4508 2672 -2466 0
-4509 4508 0
-4509 -2672 2466 0
-4509 2672 -2466 0
4509 -4508 2672 2466 0
4509 -4508 -2672 -2466 0
-4509 2673 -2467 0
-4510 4509 0
-4510 -2673 2467 0
-4510 2673 -2467 0
4510 -4509 2673 2467 0
4510 -4509 -2673 -2467 0
-4510 2674 -2468 0
-4511 4510 0
-4511 -2674 2468 0
-4511 2674 -2468 0
4511 -4510 2674 2468 0
4511 -4510 -2674 -2468 0
-4511 2675 -2469 0
-4512 4511 0
-4512 -2675 2469 0
-4512 2675 -2469 0
4512 -4511 2675 2469 0
4512 -4511 -2675 -2469 0
-4512 2676 -2470 0
-4513 4512 0
-4513 -2676 2470 0
-4513 2676 -2470 0
4513 -4512 2676 2470 0
4513 -4512 -2676 -2470 0
-4513 2677 -2471 0
-4514 4513 0
-4514 -2677 2471 0
-4514 2677 -2471 0
4514 -4513 2677 2471 0
4514 -4513 -2677 -2471 0
-4514 2678 -2472 0
-4515 4514 0
-4515 -2678 2472 0
-4515 2678 -2472 0
4515 -4514 2678 2472 0
4515 -4514 -2678 -2472 0
-4515 2679 -2473 0
-4516 4515 0
-4516 -2679 2473 0
-4516 2679 -2473 0
4516 -4515 2679 2473 0
4516 -4515 -2679 -2473 0
-4516 2680 -2474 0
-4517 4516 0
-4517 -2680 2474 0
-4517 2680 -2474 0
4517 -4516 2680 2474 0
4517 -4516 -2680 -2474 0
-4517 2681 -2475 0
-4518 4517 0
-4518 -2681 2475 0
-4518 2681 -2475 0
4518 -4517 2681 2475 0
4518 -4517 -2681 -2475 0
-4518 2682 -2476 0
-4519 4518 0
-4519 -2682 2476 0
-4519 2682 -2476 0
4519 -4518 2682 2476 0
4519 -4518 -2682 -2476 0
-4519 2683 -2477 0
1537 -2670 0
-4520 -1537 2670 0
-4520 1537 -2670 0
4520 1537 2670 0
4520 -1537 -2670 0
-4520 1538 -2671 0
-4521 4520 0
-4521 -1538 2671 0
-4521 1538 -2671 0
4521 -4520 1538 2671 0
4521 -4520 -1538 -2671 0
-4521 1539 -2672 0
-4522 4521 0
-4522 -1539 2672 0
-4522 1539 -2672 0
4522 -4521 1539 2672 0
4522 -4521 -1539 -2672 0
-4522 1540 -2673 0
-4523 4522 0
-4523 -1540 2673 0
-4523 1540 -2673 0
4523 -4522 1540 2673 0
4523 -4522 -1540 -2673 0
-4523 1541 -2674 0
-4524 4523 0
-4524 -1541 2674 0
-4524 1541 -2674 0
4524 -4523 1541 2674 0
4524 -4523 -1541 -2674 0
-4524 1542 -2675 0
-4525 4524 0
-4525 -1542 2675 0
-4525 1542 -2675 0
4525 -4524 1542 2675 0
4525 -4524 -1542 -2675 0
-4525 1543 -2676 0
-4526 4525 0
-4526 -1543 2676 0
-4526 1543 -2676 0
4526 -4525 1543 2676 0
4526 -4525 -1543 -2676 0
-4526 1544 -2677 0
-4527 4526 0
-4527 -1544 2677 0
-4527 1544 -2677 0
4527 -4526 1544 2677 0
4527 -4526 -1544 -2677 0
-4527 1545 -2678 0
-4528 4527 0
-4528 -1545 2678 0
-4528 1545 -2678 0
4528 -4527 1545 2678 0
4528 -4527 -1545 -2678 0
-4528 1546 -2679 0
-4529 4528 0
-4529 -1546 2679 0
-4529 1546 -2679 0
4529 -4528 1546 2679 0
4529 -4528 -1546 -2679 0
-4529 1547 -2680 0
-4530 4529 0
-4530 -1547 2680 0
-4530 1547 -2680 0
4530 -4529 1547 2680 0
4530 -4529 -1547 -2680 0
-4530 1548 -2681 0
-4531 4530 0
-4531 -1548 2681 0
-4531 1548 -2681 0
4531 -4530 1548 2681 0
4531 -4530 -1548 -2681 0
-4531 1549 -2682 0
-4532 4531 0
-4532 -1549 2682 0
-4532 1549 -2682 0
4532 -4531 1549 2682 0
4532 -4531 -1549 -2682 0
-4532 1550 -2683 0
-4533 4532 0
-4533 -1550 2683 0
-4533 1550 -2683 0
4533 -4532 1550 2683 0
4533 -4532 -1550 -2683 0
-4533 1640 -1537 0
-4534 4533 0
-4534 -1640 1537 0
-4534 1640 -1537 0
4534 -4533 1640 1537 0
4534 -4533 -1640 -1537 0
-4534 1641 -1538 0
-4535 4534 0
-4535 -1641 1538 0
-4535 1641 -1538 0
4535 -4534 1641 1538 0
4535 -4534 -1641 -1538 0
-4535 1642 -1539 0
-4536 4535 0
-4536 -1642 1539 0
-4536 1642 -1539 0
4536 -4535 1642 1539 0
4536 -4535 -1642 -1539 0
-4536 1643 -1540 0
-4537 4536 0
-4537 -1643 1540 0
-4537 1643 -1540 0
4537 -4536 1643 1540 0
4537 -4536 -1643 -1540 0
-4537 1644 -1541 0
-4538 4537 0
-4538 -1644 1541 0
-4538 1644 -1541 0
4538 -4537 1644 1541 0
4538 -4537 -1644 -1541 0
-4538 1645 -1542 0
-4539 4538 0
-4539 -1645 1542 0
-4539 1645 -1542 0
4539 -4538 1645 1542 0
4539 -4538 -1645 -1542 0
-4539 1646 -1543 0
-4540 4539 0
-4540 -1646 1543 0
-4540 1646 -1543 0
4540 -4539 1646 1543 0
4540 -4539 -1646 -1543 0
-4540 1647 -1544 0
-4541 4540 0
-4541 -1647 1544 0
-4541 1647 -1544 0
4541 -4540 1647 1544 0
4541 -4540 -1647 -1544 0
-4541 1648 -1545 0
-4542 4541 0
-4542 -1648 1545 0
-4542 1648 -1545 0
4542 -4541 1648 1545 0
4542 -4541 -1648 -1545 0
-4542 1649 -1546 0
-4543 4542 0
-4543 -1649 1546 0
-4543 1649 -1546 0
4543 -4542 1649 1546 0
4543 -4542 -1649 -1546 0
-4543 1650 -1547 0
-4544 4543 0
-4544 -1650 1547 0
-4544 1650 -1547 0
4544 -4543 1650 1547 0
4544 -4543 -1650 -1547 0
-4544 1651 -1548 0
-4545 4544 0
-4545 -1651 1548 0
-4545 1651 -1548 0
4545 -4544 1651 1548 0
4545 -4544 -1651 -1548 0
-4545 1652 -1549 0
-4546 4545 0
-4546 -1652 1549 0
-4546 1652 -1549 0
4546 -4545 1652 1549 0
4546 -4545 -1652 -1549 0
-4546 1653 -1550 0
-4547 4546 0
-4547 -1653 1550 0
-4547 1653 -1550 0
4547 -4546 1653 1550 0
4547 -4546 -1653 -1550 0
-4547 1743 -1640 0
-4548 4547 0
-4548 -1743 1640 0
-4548 1743 -1640 0
4548 -4547 1743 1640 0
4548 -4547 -1743 -1640 0
-4548 1744 -1641 0
-4549 4548 0
-4549 -1744 1641 0
-4549 1744 -1641 0
4549 -4548 1744 1641 0
4549 -4548 -1744 -1641 0
-4549 1745 -1642 0
-4550 4549 0
-4550 -1745 1642 0
-4550 1745 -1642 0
4550 -4549 1745 1642 0
4550 -4549 -1745 -1642 0
-4550 1746 -1643 0
-4551 4550 0
-4551 -1746 1643 0
-4551 1746 -1643 0
4551 -4550 1746 1643 0
4551 -4550 -1746 -1643 0
-4551 1747 -1644 0
-4552 4551 0
-4552 -1747 1644 0
-4552 1747 -1644 0
4552 -4551 1747 1644 0
4552 -4551 -1747 -1644 0
-4552 1748 -1645 0
-4553 4552 0
-4553 -1748 1645 0
-4553 1748 -1645 0
4553 -4552 1748 1645 0
4553 -4552 -1748 -1645 0
-4553 1749 -1646 0
-4554 4553 0
-4554 -1749 1646 0
-4554 1749 -1646 0
4554 -4553 1749 1646 0
4554 -4553 -1749 -1646 0
-4554 1750 -1647 0
-4555 4554 0
-4555 -1750 1647 0
-4555 1750 -1647 0
4555 -4554 1750 1647 0
4555 -4554 -1750 -1647 0
-4555 1751 -1648 0
-4556 4555 0
-4556 -1751 1648 0
-4556 1751 -1648 0
4556 -4555 1751 1648 0
4556 -4555 -1751 -1648 0
-4556 1752 -1649 0
-4557 4556 0
-4557 -1752 1649 0
-4557 1752 -1649 0
4557 -4556 1752 1649 0
4557 -4556 -1752 -1649 0
-4557 1753 -1650 0
-4558 4557 0
-4558 -1753 1650 0
-4558 1753 -1650 0
4558 -4557 1753 1650 0
4558 -4557 -1753 -1650 0
-4558 1754 -1651 0
-4559 4558 0
-4559 -1754 1651 0
-4559 1754 -1651 0
4559 -4558 1754 1651 0
4559 -4558 -1754 -1651 0
-4559 1755 -1652 0
-4560 4559 0
-4560 -1755 1652 0
-4560 1755 -1652 0
4560 -4559 1755 1652 0
4560 -4559 -1755 -1652 0
-4560 1756 -1653 0
-4561 4560 0
-4561 -1756 1653 0
-4561 1756 -1653 0
4561 -4560 1756 1653 0
4561 -4560 -1756 -1653 0
-4561 1846 -1743 0
-4562 4561 0
-4562 -1846 1743 0
-4562 1846 -1743 0
4562 -4561 1846 1743 0
4562 -4561 -1846 -1743 0
-4562 1847 -1744 0
-4563 4562 0
-4563 -1847 1744 0
-4563 1847 -1744 0
4563 -4562 1847 1744 0
4563 -4562 -1847 -1744 0
-4563 1848 -1745 0
-4564 4563 0
-4564 -1848 1745 0
-4564 1848 -1745 0
4564 -4563 1848 1745 0
4564 -4563 -1848 -1745 0
-4564 1849 -1746 0
-4565 4564 0
-4565 -1849 1746 0
-4565 1849 -1746 0
4565 -4564 1849 1746 0
4565 -4564 -1849 -1746 0
-4565 1850 -1747 0
-4566 4565 0
-4566 -1850 1747 0
-4566 1850 -1747 0
4566 -4565 1850 1747 0
4566 -4565 -1850 -1747 0
-4566 1851 -1748 0
-4567 4566 0
-4567 -1851 1748 0
-4567 1851 -1748 0
4567 -4566 1851 1748 0
4567 -4566 -1851 -1748 0
-4567 1852 -1749 0
-4568 4567 0
-4568 -1852 1749 0
-4568 1852 -1749 0
4568 -4567 1852 1749 0
4568 -4567 -1852 -1749 0
-4568 1853 -1750 0
-4569 4568 0
-4569 -1853 1750 0
-4569 1853 -1750 0
4569 -4568 1853 1750 0
4569 -4568 -1853 -1750 0
-4569 1854 -1751 0
-4570 4569 0
-4570 -1854 1751 0
-4570 1854 -1751 0
4570 -4569 1854 1751 0
4570 -4569 -1854 -1751 0
-4570 1855 -1752 0
-4571 4570 0
-4571 -1855 1752 0
-4571 1855 -1752 0
4571 -4570 1855 1752 0
4571 -4570 -1855 -1752 0
-4571 1856 -1753 0
-4572 4571 0
-4572 -1856 1753 0
-4572 1856 -1753 0
4572 -4571 1856 1753 0
4572 -4571 -1856 -1753 0
-4572 1857 -1754 0
-4573 4572 0
-4573 -1857 1754 0
-4573 1857 -1754 0
4573 -4572 1857 1754 0
4573 -4572 -1857 -1754 0
-4573 1858 -1755 0
-4574 4573 0
-4574 -1858 1755 0
-4574 1858 -1755 0
4574 -4573 1858 1755 0
4574 -4573 -1858 -1755 0
-4574 1859 -1756 0
-4575 4574 0
-4575 -1859 1756 0
-4575 1859 -1756 0
4575 -4574 1859 1756 0
4575 -4574 -1859 -1756 0
-4575 1949 -1846 0
-4576 4575 0
-4576 -1949 1846 0
-4576 1949 -1846 0
4576 -4575 1949 1846 0
4576 -4575 -1949 -1846 0
-4576 1950 -1847 0
-4577 4576 0
-4577 -1950 1847 0
-4577 1950 -1847 0
4577 -4576 1950 1847 0
4577 -4576 -1950 -1847 0
-4577 1951 -1848 0
-4578 4577 0
-4578 -1951 1848 0
-4578 1951 -1848 0
4578 -4577 1951 1848 0
4578 -4577 -1951 -1848 0
-4578 1952 -1849 0
-4579 4578 0
-4579 -1952 1849 0
-4579 1952 -1849 0
4579 -4578 1952 1849 0
4579 -4578 -1952 -1849 0
-4579 1953 -1850 0
-4580 4579 0
-4580 -1953 1850 0
-4580 1953 -1850 0
4580 -4579 1953 1850 0
4580 -4579 -1953 -1850 0
-4580 1954 -1851 0
-4581 4580 0
-4581 -1954 1851 0
-4581 1954 -1851 0
4581 -4580 1954 1851 0
4581 -4580 -1954 -1851 0
-4581 1955 -1852 0
-4582 4581 0
-4582 -1955 1852 0
-4582 1955 -1852 0
4582 -4581 1955 1852 0
4582 -4581 -1955 -1852 0
-4582 1956 -1853 0
-4583 4582 0
-4583 -1956 1853 0
-4583 1956 -1853 0
4583 -4582 1956 1853 0
4583 -4582 -1956 -1853 0
-4583 1957 -1854 0
-4584 4583 0
-4584 -1957 1854 0
-4584 1957 -1854 0
4584 -4583 1957 1854 0
4584 -4583 -1957 -1854 0
-4584 1958 -1855 0
-4585 4584 0
-4585 -1958 1855 0
-4585 1958 -1855 0
4585 -4584 1958 1855 0
4585 -4584 -1958 -1855 0
-4585 1959 -1856 0
-4586 4585 0
-4586 -1959 1856 0
-4586 1959 -1856 0
4586 -4585 1959 1856 0
4586 -4585 -1959 -1856 0
-4586 1960 -1857 0
-4587 4586 0
-4587 -1960 1857 0
-4587 1960 -1857 0
4587 -4586 1960 1857 0
4587 -4586 -1960 -1857 0
-4587 1961 -1858 0
-4588 4587 0
-4588 -1961 1858 0
-4588 1961 -1858 0
4588 -4587 1961 1858 0
4588 -4587 -1961 -1858 0
-4588 1962 -1859 0
-4589 4588 0
-4589 -1962 1859 0
-4589 1962 -1859 0
4589 -4588 1962 1859 0
4589 -4588 -1962 -1859 0
-4589 2052 -1949 0
-4590 4589 0
-4590 -2052 1949 0
-4590 2052 -1949 0
4590 -4589 2052 1949 0
4590 -4589 -2052 -1949 0
-4590 2053 -1950 0
-4591 4590 0
-4591 -2053 1950 0
-4591 2053 -1950 0
4591 -4590 2053 1950 0
4591 -4590 -2053 -1950 0
-4591 2054 -1951 0
-4592 4591 0
-4592 -2054 1951 0
-4592 2054 -1951 0
4592 -4591 2054 1951 0
4592 -4591 -2054 -1951 0
-4592 2055 -1952 0
-4593 4592 0
-4593 -2055 1952 0
-4593 2055 -1952 0
4593 -4592 2055 1952 0
4593 -4592 -2055 -1952 0
-4593 2056 -1953 0
-4594 4593 0
-4594 -2056 1953 0
-4594 2056 -1953 0
4594 -4593 2056 1953 0
4594 -4593 -2056 -1953 0
-4594 2057 -1954 0
-4595 4594 0
-4595 -2057 1954 0
-4595 2057 -1954 0
4595 -4594 2057 1954 0
4595 -4594 -2057 -1954 0
-4595 2058 -1955 0
-4596 4595 0
-4596 -2058 1955 0
-4596 2058 -1955 0
4596 -4595 2058 1955 0
4596 -4595 -2058 -1955 0
-4596 2059 -1956 0
-4597 4596 0
-4597 -2059 1956 0
-4597 2059 -1956 0
4597 -4596 2059 1956 0
4597 -4596 -2059 -1956 0
-4597 2060 -1957 0
-4598 4597 0
-4598 -2060 1957 0
-4598 2060 -1957 0
4598 -4597 2060 1957 0
4598 -4597 -2060 -1957 0
-4598 2061 -1958 0
-4599 4598 0
-4599 -2061 1958 0
-4599 2061 -1958 0
4599 -4598 2061 1958 0
4599 -4598 -2061 -1958 0
-4599 2062 -1959 0
-4600 4599 0
-4600 -2062 1959 0
-4600 2062 -1959 0
4600 -4599 2062 1959 0
4600 -4599 -2062 -1959 0
-4600 2063 -1960 0
-4601 4600 0
-4601 -2063 1960 0
-4601 2063 -1960 0
4601 -4600 2063 1960 0
4601 -4600 -2063 -1960 0
-4601 2064 -1961 0
-4602 4601 0
-4602 -2064 1961 0
-4602 2064 -1961 0
4602 -4601 2064 1961 0
4602 -4601 -2064 -1961 0
-4602 2065 -1962 0
-4603 4602 0
-4603 -2065 1962 0
-4603 2065 -1962 0
4603 -4602 2065 1962 0
4603 -4602 -2065 -1962 0
-4603 2155 -2052 0
-4604 4603 0
-4604 -2155 2052 0
-4604 2155 -2052 0
4604 -4603 2155 2052 0
4604 -4603 -2155 -2052 0
-4604 2156 -2053 0
-4605 4604 0
-4605 -2156 2053 0
-4605 2156 -2053 0
4605 -4604 2156 2053 0
4605 -4604 -2156 -2053 0
-4605 2157 -2054 0
-4606 4605 0
-4606 -2157 2054 0
-4606 2157 -2054 0
4606 -4605 2157 2054 0
4606 -4605 -2157 -2054 0
-4606 2158 -2055 0
-4607 4606 0
-4607 -2158 2055 0
-4607 2158 -2055 0
4607 -4606 2158 2055 0
4607 -4606 -2158 -2055 0
-4607 2159 -2056 0
-4608 4607 0
-4608 -2159 2056 0
-4608 2159 -2056 0
4608 -4607 2159 2056 0
4608 -4607 -2159 -2056 0
-4608 2160 -2057 0
-4609 4608 0
-4609 -2160 2057 0
-4609 2160 -2057 0
4609 -4608 2160 2057 0
4609 -4608 -2160 -2057 0
-4609 2161 -2058 0
-4610 4609 0
-4610 -2161 2058 0
-4610 2161 -2058 0
4610 -4609 2161 2058 0
4610 -4609 -2161 -2058 0
-4610 2162 -2059 0
-4611 4610 0
-4611 -2162 2059 0
-4611 2162 -2059 0
4611 -4610 2162 2059 0
4611 -4610 -2162 -2059 0
-4611 2163 -2060 0
-4612 4611 0
-4612 -2163 2060 0
-4612 2163 -2060 0
4612 -4611 2163 2060 0
4612 -4611 -2163 -2060 0
-4612 2164 -2061 0
-4613 4612 0
-4613 -2164 2061 0
-4613 2164 -2061 0
4613 -4612 2164 2061 0
4613 -4612 -2164 -2061 0
-4613 2165 -2062 0
-4614 4613 0
-4614 -2165 2062 0
-4614 2165 -2062 0
4614 -4613 2165 2062 0
4614 -4613 -2165 -2062 0
-4614 2166 -2063 0
-4615 4614 0
-4615 -2166 2063 0
-4615 2166 -2063 0
4615 -4614 2166 2063 0
4615 -4614 -2166 -2063 0
-4615 2167 -2064 0
-4616 4615 0
-4616 -2167 2064 0
-4616 2167 -2064 0
4616 -4615 2167 2064 0
4616 -4615 -2167 -2064 0
-4616 2168 -2065 0
-4617 4616 0
-4617 -2168 2065 0
-4617 2168 -2065 0
4617 -4616 2168 2065 0
4617 -4616 -2168 -2065 0
-4617 2258 -2155 0
-4618 4617 0
-4618 -2258 2155 0
-4618 2258 -2155 0
4618 -4617 2258 2155 0
4618 -4617 -2258 -2155 0
-4618 2259 -2156 0
-4619 4618 0
-4619 -2259 2156 0
-4619 2259 -2156 0
4619 -4618 2259 2156 0
4619 -4618 -2259 -2156 0
-4619 2260 -2157 0
-4620 4619 0
-4620 -2260 2157 0
-4620 2260 -2157 0
4620 -4619 2260 2157 0
4620 -4619 -2260 -2157 0
-4620 2261 -2158 0
-4621 4620 0
-4621 -2261 2158 0
-4621 2261 -2158 0
4621 -4620 2261 2158 0
4621 -4620 -2261 -2158 0
-4621 2262 -2159 0
-4622 4621 0
-4622 -2262 2159 0
-4622 2262 -2159 0
4622 -4621 2262 2159 0
4622 -4621 -2262 -2159 0
-4622 2263 -2160 0
-4623 4622 0
-4623 -2263 2160 0
-4623 2263 -2160 0
4623 -4622 2263 2160 0
4623 -4622 -2263 -2160 0
-4623 2264 -2161 0
-4624 4623 0
-4624 -2264 2161 0
-4624 2264 -2161 0
4624 -4623 2264 2161 0
4624 -4623 -2264 -2161 0
-4624 2265 -2162 0
-4625 4624 0
-4625 -2265 2162 0
-4625 2265 -2162 0
4625 -4624 2265 2162 0
4625 -4624 -2265 -2162 0
-4625 2266 -2163 0
-4626 4625 0
-4626 -2266 2163 0
-4626 2266 -2163 0
4626 -4625 2266 2163 0
4626 -4625 -2266 -2163 0
-4626 2267 -2164 0
-4627 4626 0
-4627 -2267 2164 0
-4627 2267 -2164 0
4627 -4626 2267 2164 0
4627 -4626 -2267 -2164 0
-4627 2268 -2165 0
-4628 4627 0
-4628 -2268 2165 0
-4628 2268 -2165 0
4628 -4627 2268 2165 0
4628 -4627 -2268 -2165 0
-4628 2269 -2166 0
-4629 4628 0
-4629 -2269 2166 0
-4629 2269 -2166 0
4629 -4628 2269 2166 0
4629 -4628 -2269 -2166 0
-4629 2270 -2167 0
-4630 4629 0
-4630 -2270 2167 0
-4630 2270 -2167 0
4630 -4629 2270 2167 0
4630 -4629 -2270 -2167 0
-4630 2271 -2168 0
-4631 4630 0
-4631 -2271 2168 0
-4631 2271 -2168 0
4631 -4630 2271 2168 0
4631 -4630 -2271 -2168 0
-4631 2361 -2258 0
-4632 4631 0
-4632 -2361 2258 0
-4632 2361 -2258 0
4632 -4631 2361 2258 0
4632 -4631 -2361 -2258 0
-4632 2362 -2259 0
-4633 4632 0
-4633 -2362 2259 0
-4633 2362 -2259 0
4633 -4632 2362 2259 0
4633 -4632 -2362 -2259 0
-4633 2363 -2260 0
-4634 4633 0
-4634 -2363 2260 0
-4634 2363 -2260 0
4634 -4633 2363 2260 0
4634 -4633 -2363 -2260 0
-4634 2364 -2261 0
-4635 4634 0
-4635 -2364 2261 0
-4635 2364 -2261 0
4635 -4634 2364 2261 0
4635 -4634 -2364 -2261 0
-4635 2365 -2262 0
-4636 4635 0
-4636 -2365 2262 0
-4636 2365 -2262 0
4636 -4635 2365 2262 0
4636 -4635 -2365 -2262 0
-4636 2366 -2263 0
-4637 4636 0
-4637 -2366 2263 0
-4637 2366 -2263 0
4637 -4636 2366 2263 0
4637 -4636 -2366 -2263 0
-4637 2367 -2264 0
-4638 4637 0
-4638 -2367 2264 0
-4638 2367 -2264 0
4638 -4637 2367 2264 0
4638 -4637 -2367 -2264 0
-4638 2368 -2265 0
-4639 4638 0
-4639 -2368 2265 0
-4639 2368 -2265 0
4639 -4638 2368 2265 0
4639 -4638 -2368 -2265 0
-4639 2369 -2266 0
-4640 4639 0
-4640 -2369 2266 0
-4640 2369 -2266 0
4640 -4639 2369 2266 0
4640 -4639 -2369 -2266 0
-4640 2370 -2267 0
-4641 4640 0
-4641 -2370 2267 0
-4641 2370 -2267 0
4641 -4640 2370 2267 0
4641 -4640 -2370 -2267 0
-4641 2371 -2268 0
-4642 4641 0
-4642 -2371 2268 0
-4642 2371 -2268 0
4642 -4641 2371 2268 0
4642 -4641 -2371 -2268 0
-4642 2372 -2269 0
-4643 4642 0
-4643 -2372 2269 0
-4643 2372 -2269 0
4643 -4642 2372 2269 0
4643 -4642 -2372 -2269 0
-4643 2373 -2270 0
-4644 4643 0
-4644 -2373 2270 0
-4644 2373 -2270 0
4644 -4643 2373 2270 0
4644 -4643 -2373 -2270 0
-4644 2374 -2271 0
-4645 4644 0
-4645 -2374 2271 0
-4645 2374 -2271 0
4645 -4644 2374 2271 0
4645 -4644 -2374 -2271 0
-4645 2464 -2361 0
-4646 4645 0
-4646 -2464 2361 0
-4646 2464 -2361 0
4646 -4645 2464 2361 0
4646 -4645 -2464 -2361 0
-4646 2465 -2362 0
-4647 4646 0
-4647 -2465 2362 0
-4647 2465 -2362 0
4647 -4646 2465 2362 0
4647 -4646 -2465 -2362 0
-4647 2466 -2363 0
-4648 4647 0
-4648 -2466 2363 0
-4648 2466 -2363 0
4648 -4647 2466 2363 0
4648 -4647 -2466 -2363 0
-4648 2467 -2364 0
-4649 4648 0
-4649 -2467 2364 0
-4649 2467 -2364 0
4649 -4648 2467 2364 0
4649 -4648 -2467 -2364 0
-4649 2468 -2365 0
-4650 4649 0
-4650 -2468 2365 0
-4650 2468 -2365 0
4650 -4649 2468 2365 0
4650 -4649 -2468 -2365 0
-4650 2469 -2366 0
-4651 4650 0
-4651 -2469 2366 0
-4651 2469 -2366 0
4651 -4650 2469 2366 0
4651 -4650 -2469 -2366 0
-4651 2470 -2367 0
-4652 4651 0
-4652 -2470 2367 0
-4652 2470 -2367 0
4652 -4651 2470 2367 0
4652 -4651 -2470 -2367 0
-4652 2471 -2368 0
-4653 4652 0
-4653 -2471 2368 0
-4653 2471 -2368 0
4653 -4652 2471 2368 0
4653 -4652 -2471 -2368 0
-4653 2472 -2369 0
-4654 4653 0
-4654 -2472 2369 0
-4654 2472 -2369 0
4654 -4653 2472 2369 0
4654 -4653 -2472 -2369 0
-4654 2473 -2370 0
-4655 4654 0
-4655 -2473 2370 0
-4655 2473 -2370 0
4655 -4654 2473 2370 0
4655 -4654 -2473 -2370 0
-4655 2474 -2371 0
-4656 4655 0
-4656 -2474 2371 0
-4656 2474 -2371 0
4656 -4655 2474 2371 0
4656 -4655 -2474 -2371 0
-4656 2475 -2372 0
-4657 4656 0
-4657 -2475 2372 0
-4657 2475 -2372 0
4657 -4656 2475 2372 0
4657 -4656 -2475 -2372 0
-4657 2476 -2373 0
-4658 4657 0
-4658 -2476 2373 0
-4658 2476 -2373 0
4658 -4657 2476 2373 0
4658 -4657 -2476 -2373 0
-4658 2477 -2374 0
-4659 4658 0
-4659 -2477 2374 0
-4659 2477 -2374 0
4659 -4658 2477 2374 0
4659 -4658 -2477 -2374 0
-4659 2567 -2464 0
-4660 4659 0
-4660 -2567 2464 0
-4660 2567 -2464 0
4660 -4659 2567 2464 0
4660 -4659 -2567 -2464 0
-4660 2568 -2465 0
-4661 4660 0
-4661 -2568 2465 0
-4661 2568 -2465 0
4661 -4660 2568 2465 0
4661 -4660 -2568 -2465 0
-4661 2569 -2466 0
-4662 4661 0
-4662 -2569 2466 0
-4662 2569 -2466 0
4662 -4661 2569 2466 0
4662 -4661 -2569 -2466 0
-4662 2570 -2467 0
-4663 4662 0
-4663 -2570 2467 0
-4663 2570 -2467 0
4663 -4662 2570 2467 0
4663 -4662 -2570 -2467 0
-4663 2571 -2468 0
-4664 4663 0
-4664 -2571 2468 0
-4664 2571 -2468 0
4664 -4663 2571 2468 0
4664 -4663 -2571 -2468 0
-4664 2572 -2469 0
-4665 4664 0
-4665 -2572 2469 0
-4665 2572 -2469 0
4665 -4664 2572 2469 0
4665 -4664 -2572 -2469 0
-4665 2573 -2470 0
-4666 4665 0
-4666 -2573 2470 0
-4666 2573 -2470 0
4666 -4665 2573 2470 0
4666 -4665 -2573 -2470 0
-4666 2574 -2471 0
-4667 4666 0
-4667 -2574 2471 0
-4667 2574 -2471 0
4667 -4666 2574 2471 0
4667 -4666 -2574 -2471 0
-4667 2575 -2472 0
-4668 4667 0
-4668 -2575 2472 0
-4668 2575 -2472 0
4668 -4667 2575 2472 0
4668 -4667 -2575 -2472 0
-4668 2576 -2473 0
-4669 4668 0
-4669 -2576 2473 0
-4669 2576 -2473 0
4669 -4668 2576 2473 0
4669 -4668 -2576 -2473 0
-4669 2577 -2474 0
-4670 4669 0
-4670 -2577 2474 0
-4670 2577 -2474 0
4670 -4669 2577 2474 0
4670 -4669 -2577 -2474 0
-4670 2578 -2475 0
-4671 4670 0
-4671 -2578 2475 0
-4671 2578 -2475 0
4671 -4670 2578 2475 0
4671 -4670 -2578 -2475 0
-4671 2579 -2476 0
-4672 4671 0
-4672 -2579 2476 0
-4672 2579 -2476 0
4672 -4671 2579 2476 0
4672 -4671 -2579 -2476 0
-4672 2580 -2477 0
-4673 4672 0
-4673 -2580 2477 0
-4673 2580 -2477 0
4673 -4672 2580 2477 0
4673 -4672 -2580 -2477 0
-4673 2670 -2567 0
-4674 4673 0
-4674 -2670 2567 0
-4674 2670 -2567 0
4674 -4673 2670 2567 0
4674 -4673 -2670 -2567 0
-4674 2671 -2568 0
-4675 4674 0
-4675 -2671 2568 0
-4675 2671 -2568 0
4675 -4674 2671 2568 0
4675 -4674 -2671 -2568 0
-4675 2672 -2569 0
-4676 4675 0
-4676 -2672 2569 0
-4676 2672 -2569 0
4676 -4675 2672 2569 0
4676 -4675 -2672 -2569 0
-4676 2673 -2570 0
-4677 4676 0
-4677 -2673 2570 0
-4677 2673 -2570 0
4677 -4676 2673 2570 0
4677 -4676 -2673 -2570 0
-4677 2674 -2571 0
-4678 4677 0
-4678 -2674 2571 0
-4678 2674 -2571 0
4678 -4677 2674 2571 0
4678 -4677 -2674 -2571 0
-4678 2675 -2572 0
-4679 4678 0
-4679 -2675 2572 0
-4679 2675 -2572 0
4679 -4678 2675 2572 0
4679 -4678 -2675 -2572 0
-4679 2676 -2573 0
-4680 4679 0
-4680 -2676 2573 0
-4680 2676 -2573 0
4680 -4679 2676 2573 0
4680 -4679 -2676 -2573 0
-4680 2677 -2574 0
-4681 4680 0
-4681 -2677 2574 0
-4681 2677 -2574 0
4681 -4680 2677 2574 0
4681 -4680 -2677 -2574 0
-4681 2678 -2575 0
-4682 4681 0
-4682 -2678 2575 0
-4682 2678 -2575 0
4682 -4681 2678 2575 0
4682 -4681 -2678 -2575 0
-4682 2679 -2576 0
-4683 4682 0
-4683 -2679 2576 0
-4683 2679 -2576 0
4683 -4682 2679 2576 0
4683 -4682 -2679 -2576 0
-4683 2680 -2577 0
-4684 4683 0
-4684 -2680 2577 0
-4684 2680 -2577 0
4684 -4683 2680 2577 0
4684 -4683 -2680 -2577 0
-4684 2681 -2578 0
-4685 4684 0
-4685 -2681 2578 0
-4685 2681 -2578 0
4685 -4684 2681 2578 0
4685 -4684 -2681 -2578 0
-4685 2682 -2579 0
-4686 4685 0
-4686 -2682 2579 0
-4686 2682 -2579 0
4686 -4685 2682 2579 0
4686 -4685 -2682 -2579 0
-4686 2683 -2580 0
1 -2 0
-4687 -1 2 0
-4687 1 -2 0
4687 1 2 0
4687 -1 -2 0
-4687 2 -3 0
-4688 4687 0
-4688 -2 3 0
-4688 2 -3 0
4688 -4687 2 3 0
4688 -4687 -2 -3 0
-4688 3 -4 0
-4689 4688 0
-4689 -3 4 0
-4689 3 -4 0
4689 -4688 3 4 0
4689 -4688 -3 -4 0
-4689 4 -5 0
-4690 4689 0
-4690 -4 5 0
-4690 4 -5 0
4690 -4689 4 5 0
4690 -4689 -4 -5 0
-4690 5 -6 0
-4691 4690 0
-4691 -5 6 0
-4691 5 -6 0
4691 -4690 5 6 0
4691 -4690 -5 -6 0
-4691 6 -7 0
-4692 4691 0
-4692 -6 7 0
-4692 6 -7 0
4692 -4691 6 7 0
4692 -4691 -6 -7 0
-4692 7 -8 0
-4693 4692 0
-4693 -7 8 0
-4693 7 -8 0
4693 -4692 7 8 0
4693 -4692 -7 -8 0
-4693 8 -9 0
-4694 4693 0
-4694 -8 9 0
-4694 8 -9 0
4694 -4693 8 9 0
4694 -4693 -8 -9 0
-4694 9 -10 0
-4695 4694 0
-4695 -9 10 0
-4695 9 -10 0
4695 -4694 9 10 0
4695 -4694 -9 -10 0
-4695 10 -11 0
-4696 4695 0
-4696 -10 11 0
-4696 10 -11 0
4696 -4695 10 11 0
4696 -4695 -10 -11 0
-4696 11 -12 0
-4697 4696 0
-4697 -11 12 0
-4697 11 -12 0
4697 -4696 11 12 0
4697 -4696 -11 -12 0
-4697 12 -1 0
-4698 4697 0
-4698 -12 1 0
-4698 12 -1 0
4698 -4697 12 1 0
4698 -4697 -12 -1 0
-4698 145 -146 0
-4699 4698 0
-4699 -145 146 0
-4699 145 -146 0
4699 -4698 145 146 0
4699 -4698 -145 -146 0
-4699 146 -147 0
-4700 4699 0
-4700 -146 147 0
-4700 146 -147 0
4700 -4699 146 147 0
4700 -4699 -146 -147 0
-4700 147 -148 0
-4701 4700 0
-4701 -147 148 0
-4701 147 -148 0
4701 -4700 147 148 0
4701 -4700 -147 -148 0
-4701 148 -149 0
-4702 4701 0
-4702 -148 149 0
-4702 148 -149 0
4702 -4701 148 149 0
4702 -4701 -148 -149 0
-4702 149 -150 0
-4703 4702 0
-4703 -149 150 0
-4703 149 -150 0
4703 -4702 149 150 0
4703 -4702 -149 -150 0
-4703 150 -151 0
-4704 4703 0
-4704 -150 151 0
-4704 150 -151 0
4704 -4703 150 151 0
4704 -4703 -150 -151 0
-4704 151 -152 0
-4705 4704 0
-4705 -151 152 0
-4705 151 -152 0
4705 -4704 151 152 0
4705 -4704 -151 -152 0
-4705 152 -153 0
-4706 4705 0
-4706 -152 153 0
-4706 152 -153 0
4706 -4705 152 153 0
4706 -4705 -152 -153 0
-4706 153 -154 0
-4707 4706 0
-4707 -153 154 0
-4707 153 -154 0
4707 -4706 153 154 0
4707 -4706 -153 -154 0
-4707 154 -155 0
-4708 4707 0
-4708 -154 155 0
-4708 154 -155 0
4708 -4707 154 155 0
4708 -4707 -154 -155 0
-4708 155 -156 0
-4709 4708 0
-4709 -155 156 0
-4709 155 -156 0
4709 -4708 155 156 0
4709 -4708 -155 -156 0
-4709 156 -145 0
1 -3 0
-4710 -1 3 0
-4710 1 -3 0
4710 1 3 0
4710 -1 -3 0
-4710 2 -4 0
-4711 4710 0
-4711 -2 4 0
-4711 2 -4 0
4711 -4710 2 4 0
4711 -4710 -2 -4 0
-4711 3 -5 0
-4712 4711 0
-4712 -3 5 0
-4712 3 -5 0
4712 -4711 3 5 0
4712 -4711 -3 -5 0
-4712 4 -6 0
-4713 4712 0
-4713 -4 6 0
-4713 4 -6 0
4713 -4712 4 6 0
4713 -4712 -4 -6 0
-4713 5 -7 0
-4714 4713 0
-4714 -5 7 0
-4714 5 -7 0
4714 -4713 5 7 0
4714 -4713 -5 -7 0
-4714 6 -8 0
-4715 4714 0
-4715 -6 8 0
-4715 6 -8 0
4715 -4714 6 8 0
4715 -4714 -6 -8 0
-4715 7 -9 0
-4716 4715 0
-4716 -7 9 0
-4716 7 -9 0
4716 -4715 7 9 0
4716 -4715 -7 -9 0
-4716 8 -10 0
-4717 4716 0
-4717 -8 10 0
-4717 8 -10 0
4717 -4716 8 10 0
4717 -4716 -8 -10 0
-4717 9 -11 0
-4718 4717 0
-4718 -9 11 0
-4718 9 -11 0
4718 -4717 9 11 0
4718 -4717 -9 -11 0
-4718 10 -12 0
-4719 4718 0
-4719 -10 12 0
-4719 10 -12 0
4719 -4718 10 12 0
4719 -4718 -10 -12 0
-4719 11 -1 0
-4720 4719 0
-4720 -11 1 0
-4720 11 -1 0
4720 -4719 11 1 0
4720 -4719 -11 -1 0
-4720 12 -2 0
-4721 4720 0
-4721 -12 2 0
-4721 12 -2 0
4721 -4720 12 2 0
4721 -4720 -12 -2 0
-4721 145 -147 0
-4722 4721 0
-4722 -145 147 0
-4722 145 -147 0
4722 -4721 145 147 0
4722 -4721 -145 -147 0
-4722 146 -148 0
-4723 4722 0
-4723 -146 148 0
-4723 146 -148 0
4723 -4722 146 148 0
4723 -4722 -146 -148 0
-4723 147 -149 0
-4724 4723 0
-4724 -147 149 0
-4724 147 -149 0
4724 -4723 147 149 0
4724 -4723 -147 -149 0
-4724 148 -150 0
-4725 4724 0
-4725 -148 150 0
-4725 148 -150 0
4725 -4724 148 150 0
4725 -4724 -148 -150 0
-4725 149 -151 0
-4726 4725 0
-4726 -149 151 0
-4726 149 -151 0
4726 -4725 149 151 0
4726 -4725 -149 -151 0
-4726 150 -152 0
-4727 4726 0
-4727 -150 152 0
-4727 150 -152 0
4727 -4726 150 152 0
4727 -4726 -150 -152 0
-4727 151 -153 0
-4728 4727 0
-4728 -151 153 0
-4728 151 -153 0
4728 -4727 151 153 0
4728 -4727 -151 -153 0
-4728 152 -154 0
-4729 4728 0
-4729 -152 154 0
-4729 152 -154 0
4729 -4728 152 154 0
4729 -4728 -152 -154 0
-4729 153 -155 0
-4730 4729 0
-4730 -153 155 0
-4730 153 -155 0
4730 -4729 153 155 0
4730 -4729 -153 -155 0
-4730 154 -156 0
-4731 4730 0
-4731 -154 156 0
-4731 154 -156 0
4731 -4730 154 156 0
4731 -4730 -154 -156 0
-4731 155 -145 0
-4732 4731 0
-4732 -155 145 0
-4732 155 -145 0
4732 -4731 155 145 0
4732 -4731 -155 -145 0
-4732 156 -146 0
1 -4 0
-4733 -1 4 0
-4733 1 -4 0
4733 1 4 0
4733 -1 -4 0
-4733 2 -5 0
-4734 4733 0
-4734 -2 5 0
-4734 2 -5 0
4734 -4733 2 5 0
4734 -4733 -2 -5 0
-4734 3 -6 0
-4735 4734 0
-4735 -3 6 0
-4735 3 -6 0
4735 -4734 3 6 0
4735 -4734 -3 -6 0
-4735 4 -7 0
-4736 4735 0
-4736 -4 7 0
-4736 4 -7 0
4736 -4735 4 7 0
4736 -4735 -4 -7 0
-4736 5 -8 0
-4737 4736 0
-4737 -5 8 0
-4737 5 -8 0
4737 -4736 5 8 0
4737 -4736 -5 -8 0
-4737 6 -9 0
-4738 4737 0
-4738 -6 9 0
-4738 6 -9 0
4738 -4737 6 9 0
4738 -4737 -6 -9 0
-4738 7 -10 0
-4739 4738 0
-4739 -7 10 0
-4739 7 -10 0
4739 -4738 7 10 0
4739 -4738 -7 -10 0
-4739 8 -11 0
-4740 4739 0
-4740 -8 11 0
-4740 8 -11 0
4740 -4739 8 11 0
4740 -4739 -8 -11 0
-4740 9 -12 0
-4741 4740 0
-4741 -9 12 0
-4741 9 -12 0
4741 -4740 9 12 0
4741 -4740 -9 -12 0
-4741 10 -1 0
-4742 4741 0
-4742 -10 1 0
-4742 10 -1 0
4742 -4741 10 1 0
4742 -4741 -10 -1 0
-4742 11 -2 0
-4743 4742 0
-4743 -11 2 0
-4743 11 -2 0
4743 -4742 11 2 0
4743 -4742 -11 -2 0
-4743 12 -3 0
-4744 4743 0
-4744 -12 3 0
-4744 12 -3 0
4744 -4743 12 3 0
4744 -4743 -12 -3 0
-4744 145 -148 0
-4745 4744 0
-4745 -145 148 0
-4745 145 -148 0
4745 -4744 145 148 0
4745 -4744 -145 -148 0
-4745 146 -149 0
-4746 4745 0
-4746 -146 149 0
-4746 146 -149 0
4746 -4745 146 149 0
4746 -4745 -146 -149 0
-4746 147 -150 0
-4747 4746 0
-4747 -147 150 0
-4747 147 -150 0
4747 -4746 147 150 0
4747 -4746 -147 -150 0
-4747 148 -151 0
-4748 4747 0
-4748 -148 151 0
-4748 148 -151 0
4748 -4747 148 151 0
4748 -4747 -148 -151 0
-4748 149 -152 0
-4749 4748 0
-4749 -149 152 0
-4749 149 -152 0
4749 -4748 149 152 0
4749 -4748 -149 -152 0
-4749 150 -153 0
-4750 4749 0
-4750 -150 153 0
-4750 150 -153 0
4750 -4749 150 153 0
4750 -4749 -150 -153 0
-4750 151 -154 0
-4751 4750 0
-4751 -151 154 0
-4751 151 -154 0
4751 -4750 151 154 0
4751 -4750 -151 -154 0
-4751 152 -155 0
-4752 4751 0
-4752 -152 155 0
-4752 152 -155 0
4752 -4751 152 155 0
4752 -4751 -152 -155 0
-4752 153 -156 0
-4753 4752 0
-4753 -153 156 0
-4753 153 -156 0
4753 -4752 153 156 0
4753 -4752 -153 -156 0
-4753 154 -145 0
-4754 4753 0
-4754 -154 145 0
-4754 154 -145 0
4754 -4753 154 145 0
4754 -4753 -154 -145 0
-4754 155 -146 0
-4755 4754 0
-4755 -155 146 0
-4755 155 -146 0
4755 -4754 155 146 0
4755 -4754 -155 -146 0
-4755 156 -147 0
1 -5 0
-4756 -1 5 0
-4756 1 -5 0
4756 1 5 0
4756 -1 -5 0
-4756 2 -6 0
-4757 4756 0
-4757 -2 6 0
-4757 2 -6 0
4757 -4756 2 6 0
4757 -4756 -2 -6 0
-4757 3 -7 0
-4758 4757 0
-4758 -3 7 0
-4758 3 -7 0
4758 -4757 3 7 0
4758 -4757 -3 -7 0
-4758 4 -8 0
-4759 4758 0
-4759 -4 8 0
-4759 4 -8 0
4759 -4758 4 8 0
4759 -4758 -4 -8 0
-4759 5 -9 0
-4760 4759 0
-4760 -5 9 0
-4760 5 -9 0
4760 -4759 5 9 0
4760 -4759 -5 -9 0
-4760 6 -10 0
-4761 4760 0
-4761 -6 10 0
-4761 6 -10 0
4761 -4760 6 10 0
4761 -4760 -6 -10 0
-4761 7 -11 0
-4762 4761 0
-4762 -7 11 0
-4762 7 -11 0
4762 -4761 7 11 0
4762 -4761 -7 -11 0
-4762 8 -12 0
-4763 4762 0
-4763 -8 12 0
-4763 8 -12 0
4763 -4762 8 12 0
4763 -4762 -8 -12 0
-4763 9 -1 0
-4764 4763 0
-4764 -9 1 0
-4764 9 -1 0
4764 -4763 9 1 0
4764 -4763 -9 -1 0
-4764 10 -2 0
-4765 4764 0
-4765 -10 2 0
-4765 10 -2 0
4765 -4764 10 2 0
4765 -4764 -10 -2 0
-4765 11 -3 0
-4766 4765 0
-4766 -11 3 0
-4766 11 -3 0
4766 -4765 11 3 0
4766 -4765 -11 -3 0
-4766 12 -4 0
-4767 4766 0
-4767 -12 4 0
-4767 12 -4 0
4767 -4766 12 4 0
4767 -4766 -12 -4 0
-4767 145 -149 0
-4768 4767 0
-4768 -145 149 0
-4768 145 -149 0
4768 -4767 145 149 0
4768 -4767 -145 -149 0
-4768 146 -150 0
-4769 4768 0
-4769 -146 150 0
-4769 146 -150 0
4769 -4768 146 150 0
4769 -4768 -146 -150 0
-4769 147 -151 0
-4770 4769 0
-4770 -147 151 0
-4770 147 -151 0
4770 -4769 147 151 0
4770 -4769 -147 -151 0
-4770 148 -152 0
-4771 4770 0
-4771 -148 152 0
-4771 148 -152 0
4771 -4770 148 152 0
4771 -4770 -148 -152 0
-4771 149 -153 0
-4772 4771 0
-4772 -149 153 0
-4772 149 -153 0
4772 -4771 149 153 0
4772 -4771 -149 -153 0
-4772 150 -154 0
-4773 4772 0
-4773 -150 154 0
-4773 150 -154 0
4773 -4772 150 154 0
4773 -4772 -150 -154 0
-4773 151 -155 0
-4774 4773 0
-4774 -151 155 0
-4774 151 -155 0
4774 -4773 151 155 0
4774 -4773 -151 -155 0
-4774 152 -156 0
-4775 4774 0
-4775 -152 156 0
-4775 152 -156 0
4775 -4774 152 156 0
4775 -4774 -152 -156 0
-4775 153 -145 0
-4776 4775 0
-4776 -153 145 0
-4776 153 -145 0
4776 -4775 153 145 0
4776 -4775 -153 -145 0
-4776 154 -146 0
-4777 4776 0
-4777 -154 146 0
-4777 154 -146 0
4777 -4776 154 146 0
4777 -4776 -154 -146 0
-4777 155 -147 0
-4778 4777 0
-4778 -155 147 0
-4778 155 -147 0
4778 -4777 155 147 0
4778 -4777 -155 -147 0
-4778 156 -148 0
1 -6 0
-4779 -1 6 0
-4779 1 -6 0
4779 1 6 0
4779 -1 -6 0
-4779 2 -7 0
-4780 4779 0
-4780 -2 7 0
-4780 2 -7 0
4780 -4779 2 7 0
4780 -4779 -2 -7 0
-4780 3 -8 0
-4781 4780 0
-4781 -3 8 0
-4781 3 -8 0
4781 -4780 3 8 0
4781 -4780 -3 -8 0
-4781 4 -9 0
-4782 4781 0
-4782 -4 9 0
-4782 4 -9 0
4782 -4781 4 9 0
4782 -4781 -4 -9 0
-4782 5 -10 0
-4783 4782 0
-4783 -5 10 0
-4783 5 -10 0
4783 -4782 5 10 0
4783 -4782 -5 -10 0
-4783 6 -11 0
-4784 4783 0
-4784 -6 11 0
-4784 6 -11 0
4784 -4783 6 11 0
4784 -4783 -6 -11 0
-4784 7 -12 0
-4785 4784 0
-4785 -7 12 0
-4785 7 -12 0
4785 -4784 7 12 0
4785 -4784 -7 -12 0
-4785 8 -1 0
-4786 4785 0
-4786 -8 1 0
-4786 8 -1 0
4786 -4785 8 1 0
4786 -4785 -8 -1 0
-4786 9 -2 0
-4787 4786 0
-4787 -9 2 0
-4787 9 -2 0
4787 -4786 9 2 0
4787 -4786 -9 -2 0
-4787 10 -3 0
-4788 4787 0
-4788 -10 3 0
-4788 10 -3 0
4788 -4787 10 3 0
4788 -4787 -10 -3 0
-4788 11 -4 0
-4789 4788 0
-4789 -11 4 0
-4789 11 -4 0
4789 -4788 11 4 0
4789 -4788 -11 -4 0
-4789 12 -5 0
-4790 4789 0
-4790 -12 5 0
-4790 12 -5 0
4790 -4789 12 5 0
4790 -4789 -12 -5 0
-4790 145 -150 0
-4791 4790 0
-4791 -145 150 0
-4791 145 -150 0
4791 -4790 145 150 0
4791 -4790 -145 -150 0
-4791 146 -151 0
-4792 4791 0
-4792 -146 151 0
-4792 146 -151 0
4792 -4791 146 151 0
4792 -4791 -146 -151 0
-4792 147 -152 0
-4793 4792 0
-4793 -147 152 0
-4793 147 -152 0
4793 -4792 147 152 0
4793 -4792 -147 -152 0
-4793 148 -153 0
-4794 4793 0
-4794 -148 153 0
-4794 148 -153 0
4794 -4793 148 153 0
4794 -4793 -148 -153 0
-4794 149 -154 0
-4795 4794 0
-4795 -149 154 0
-4795 149 -154 0
4795 -4794 149 154 0
4795 -4794 -149 -154 0
-4795 150 -155 0
-4796 4795 0
-4796 -150 155 0
-4796 150 -155 0
4796 -4795 150 155 0
4796 -4795 -150 -155 0
-4796 151 -156 0
-4797 4796 0
-4797 -151 156 0
-4797 151 -156 0
4797 -4796 151 156 0
4797 -4796 -151 -156 0
-4797 152 -145 0
-4798 4797 0
-4798 -152 145 0
-4798 152 -145 0
4798 -4797 152 145 0
4798 -4797 -152 -145 0
-4798 153 -146 0
-4799 4798 0
-4799 -153 146 0
-4799 153 -146 0
4799 -4798 153 146 0
4799 -4798 -153 -146 0
-4799 154 -147 0
-4800 4799 0
-4800 -154 147 0
-4800 154 -147 0
4800 -4799 154 147 0
4800 -4799 -154 -147 0
-4800 155 -148 0
-4801 4800 0
-4801 -155 148 0
-4801 155 -148 0
4801 -4800 155 148 0
4801 -4800 -155 -148 0
-4801 156 -149 0
1 -7 0
-4802 -1 7 0
-4802 1 -7 0
4802 1 7 0
4802 -1 -7 0
-4802 2 -8 0
-4803 4802 0
-4803 -2 8 0
-4803 2 -8 0
4803 -4802 2 8 0
4803 -4802 -2 -8 0
-4803 3 -9 0
-4804 4803 0
-4804 -3 9 0
-4804 3 -9 0
4804 -4803 3 9 0
4804 -4803 -3 -9 0
-4804 4 -10 0
-4805 4804 0
-4805 -4 10 0
-4805 4 -10 0
4805 -4804 4 10 0
4805 -4804 -4 -10 0
-4805 5 -11 0
-4806 4805 0
-4806 -5 11 0
-4806 5 -11 0
4806 -4805 5 11 0
4806 -4805 -5 -11 0
-4806 6 -12 0
-4807 4806 0
-4807 -6 12 0
-4807 6 -12 0
4807 -4806 6 12 0
4807 -4806 -6 -12 0
-4807 7 -1 0
-4808 4807 0
-4808 -7 1 0
-4808 7 -1 0
4808 -4807 7 1 0
4808 -4807 -7 -1 0
-4808 8 -2 0
-4809 4808 0
-4809 -8 2 0
-4809 8 -2 0
4809 -4808 8 2 0
4809 -4808 -8 -2 0
-4809 9 -3 0
-4810 4809 0
-4810 -9 3 0
-4810 9 -3 0
4810 -4809 9 3 0
4810 -4809 -9 -3 0
-4810 10 -4 0
-4811 4810 0
-4811 -10 4 0
-4811 10 -4 0
4811 -4810 10 4 0
4811 -4810 -10 -4 0
-4811 11 -5 0
-4812 4811 0
-4812 -11 5 0
-4812 11 -5 0
4812 -4811 11 5 0
4812 -4811 -11 -5 0
-4812 12 -6 0
-4813 4812 0
-4813 -12 6 0
-4813 12 -6 0
4813 -4812 12 6 0
4813 -4812 -12 -6 0
-4813 145 -151 0
-4814 4813 0
-4814 -145 151 0
-4814 145 -151 0
4814 -4813 145 151 0
4814 -4813 -145 -151 0
-4814 146 -152 0
-4815 4814 0
-4815 -146 152 0
-4815 146 -152 0
4815 -4814 146 152 0
4815 -4814 -146 -152 0
-4815 147 -153 0
-4816 4815 0
-4816 -147 153 0
-4816 147 -153 0
4816 -4815 147 153 0
4816 -4815 -147 -153 0
-4816 148 -154 0
-4817 4816 0
-4817 -148 154 0
-4817 148 -154 0
4817 -4816 148 154 0
4817 -4816 -148 -154 0
-4817 149 -155 0
-4818 4817 0
-4818 -149 155 0
-4818 149 -155 0
4818 -4817 149 155 0
4818 -4817 -149 -155 0
-4818 150 -156 0
-4819 4818 0
-4819 -150 156 0
-4819 150 -156 0
4819 -4818 150 156 0
4819 -4818 -150 -156 0
-4819 151 -145 0
-4820 4819 0
-4820 -151 145 0
-4820 151 -145 0
4820 -4819 151 145 0
4820 -4819 -151 -145 0
-4820 152 -146 0
-4821 4820 0
-4821 -152 146 0
-4821 152 -146 0
4821 -4820 152 146 0
4821 -4820 -152 -146 0
-4821 153 -147 0
-4822 4821 0
-4822 -153 147 0
-4822 153 -147 0
4822 -4821 153 147 0
4822 -4821 -153 -147 0
-4822 154 -148 0
-4823 4822 0
-4823 -154 148 0
-4823 154 -148 0
4823 -4822 154 148 0
4823 -4822 -154 -148 0
-4823 155 -149 0
-4824 4823 0
-4824 -155 149 0
-4824 155 -149 0
4824 -4823 155 149 0
4824 -4823 -155 -149 0
-4824 156 -150 0
1 -8 0
-4825 -1 8 0
-4825 1 -8 0
4825 1 8 0
4825 -1 -8 0
-4825 2 -9 0
-4826 4825 0
-4826 -2 9 0
-4826 2 -9 0
4826 -4825 2 9 0
4826 -4825 -2 -9 0
-4826 3 -10 0
-4827 4826 0
-4827 -3 10 0
-4827 3 -10 0
4827 -4826 3 10 0
4827 -4826 -3 -10 0
-4827 4 -11 0
-4828 4827 0
-4828 -4 11 0
-4828 4 -11 0
4828 -4827 4 11 0
4828 -4827 -4 -11 0
-4828 5 -12 0
-4829 4828 0
-4829 -5 12 0
-4829 5 -12 0
4829 -4828 5 12 0
4829 -4828 -5 -12 0
-4829 6 -1 0
-4830 4829 0
-4830 -6 1 0
-4830 6 -1 0
4830 -4829 6 1 0
4830 -4829 -6 -1 0
-4830 7 -2 0
-4831 4830 0
-4831 -7 2 0
-4831 7 -2 0
4831 -4830 7 2 0
4831 -4830 -7 -2 0
-4831 8 -3 0
-4832 4831 0
-4832 -8 3 0
-4832 8 -3 0
4832 -4831 8 3 0
4832 -4831 -8 -3 0
-4832 9 -4 0
-4833 4832 0
-4833 -9 4 0
-4833 9 -4 0
4833 -4832 9 4 0
4833 -4832 -9 -4 0
-4833 10 -5 0
-4834 4833 0
-4834 -10 5 0
-4834 10 -5 0
4834 -4833 10 5 0
4834 -4833 -10 -5 0
-4834 11 -6 0
-4835 4834 0
-4835 -11 6 0
-4835 11 -6 0
4835 -4834 11 6 0
4835 -4834 -11 -6 0
-4835 12 -7 0
-4836 4835 0
-4836 -12 7 0
-4836 12 -7 0
4836 -4835 12 7 0
4836 -4835 -12 -7 0
-4836 145 -152 0
-4837 4836 0
-4837 -145 152 0
-4837 145 -152 0
4837 -4836 145 152 0
4837 -4836 -145 -152 0
-4837 146 -153 0
-4838 4837 0
-4838 -146 153 0
-4838 146 -153 0
4838 -4837 146 153 0
4838 -4837 -146 -153 0
-4838 147 -154 0
-4839 4838 0
-4839 -147 154 0
-4839 147 -154 0
4839 -4838 147 154 0
4839 -4838 -147 -154 0
-4839 148 -155 0
-4840 4839 0
-4840 -148 155 0
-4840 148 -155 0
4840 -4839 148 155 0
4840 -4839 -148 -155 0
-4840 149 -156 0
-4841 4840 0
-4841 -149 156 0
-4841 149 -156 0
4841 -4840 149 156 0
4841 -4840 -149 -156 0
-4841 150 -145 0
-4842 4841 0
-4842 -150 145 0
-4842 150 -145 0
4842 -4841 150 145 0
4842 -4841 -150 -145 0
-4842 151 -146 0
-4843 4842 0
-4843 -151 146 0
-4843 151 -146 0
4843 -4842 151 146 0
4843 -4842 -151 -146 0
-4843 152 -147 0
-4844 4843 0
-4844 -152 147 0
-4844 152 -147 0
4844 -4843 152 147 0
4844 -4843 -152 -147 0
-4844 153 -148 0
-4845 4844 0
-4845 -153 148 0
-4845 153 -148 0
4845 -4844 153 148 0
4845 -4844 -153 -148 0
-4845 154 -149 0
-4846 4845 0
-4846 -154 149 0
-4846 154 -149 0
4846 -4845 154 149 0
4846 -4845 -154 -149 0
-4846 155 -150 0
-4847 4846 0
-4847 -155 150 0
-4847 155 -150 0
4847 -4846 155 150 0
4847 -4846 -155 -150 0
-4847 156 -151 0
1 -9 0
-4848 -1 9 0
-4848 1 -9 0
4848 1 9 0
4848 -1 -9 0
-4848 2 -10 0
-4849 4848 0
-4849 -2 10 0
-4849 2 -10 0
4849 -4848 2 10 0
4849 -4848 -2 -10 0
-4849 3 -11 0
-4850 4849 0
-4850 -3 11 0
-4850 3 -11 0
4850 -4849 3 11 0
4850 -4849 -3 -11 0
-4850 4 -12 0
-4851 4850 0
-4851 -4 12 0
-4851 4 -12 0
4851 -4850 4 12 0
4851 -4850 -4 -12 0
-4851 5 -1 0
-4852 4851 0
-4852 -5 1 0
-4852 5 -1 0
4852 -4851 5 1 0
4852 -4851 -5 -1 0
-4852 6 -2 0
-4853 4852 0
-4853 -6 2 0
-4853 6 -2 0
4853 -4852 6 2 0
4853 -4852 -6 -2 0
-4853 7 -3 0
-4854 4853 0
-4854 -7 3 0
-4854 7 -3 0
4854 -4853 7 3 0
4854 -4853 -7 -3 0
-4854 8 -4 0
-4855 4854 0
-4855 -8 4 0
-4855 8 -4 0
4855 -4854 8 4 0
4855 -4854 -8 -4 0
-4855 9 -5 0
-4856 4855 0
-4856 -9 5 0
-4856 9 -5 0
4856 -4855 9 5 0
4856 -4855 -9 -5 0
-4856 10 -6 0
-4857 4856 0
-4857 -10 6 0
-4857 10 -6 0
4857 -4856 10 6 0
4857 -4856 -10 -6 0
-4857 11 -7 0
-4858 4857 0
-4858 -11 7 0
-4858 11 -7 0
4858 -4857 11 7 0
4858 -4857 -11 -7 0
-4858 12 -8 0
-4859 4858 0
-4859 -12 8 0
-4859 12 -8 0
4859 -4858 12 8 0
4859 -4858 -12 -8 0
-4859 145 -153 0
-4860 4859 0
-4860 -145 153 0
-4860 145 -153 0
4860 -4859 145 153 0
4860 -4859 -145 -153 0
-4860 146 -154 0
-4861 4860 0
-4861 -146 154 0
-4861 146 -154 0
4861 -4860 146 154 0
4861 -4860 -146 -154 0
-4861 147 -155 0
-4862 4861 0
-4862 -147 155 0
-4862 147 -155 0
4862 -4861 147 155 0
4862 -4861 -147 -155 0
-4862 148 -156 0
-4863 4862 0
-4863 -148 156 0
-4863 148 -156 0
4863 -4862 148 156 0
4863 -4862 -148 -156 0
-4863 149 -145 0
-4864 4863 0
-4864 -149 145 0
-4864 149 -145 0
4864 -4863 149 145 0
4864 -4863 -149 -145 0
-4864 150 -146 0
-4865 4864 0
-4865 -150 146 0
-4865 150 -146 0
4865 -4864 150 146 0
4865 -4864 -150 -146 0
-4865 151 -147 0
-4866 4865 0
-4866 -151 147 0
-4866 151 -147 0
4866 -4865 151 147 0
4866 -4865 -151 -147 0
-4866 152 -148 0
-4867 4866 0
-4867 -152 148 0
-4867 152 -148 0
4867 -4866 152 148 0
4867 -4866 -152 -148 0
-4867 153 -149 0
-4868 4867 0
-4868 -153 149 0
-4868 153 -149 0
4868 -4867 153 149 0
4868 -4867 -153 -149 0
-4868 154 -150 0
-4869 4868 0
-4869 -154 150 0
-4869 154 -150 0
4869 -4868 154 150 0
4869 -4868 -154 -150 0
-4869 155 -151 0
-4870 4869 0
-4870 -155 151 0
-4870 155 -151 0
4870 -4869 155 151 0
4870 -4869 -155 -151 0
-4870 156 -152 0
1 -10 0
-4871 -1 10 0
-4871 1 -10 0
4871 1 10 0
4871 -1 -10 0
-4871 2 -11 0
-4872 4871 0
-4872 -2 11 0
-4872 2 -11 0
4872 -4871 2 11 0
4872 -4871 -2 -11 0
-4872 3 -12 0
-4873 4872 0
-4873 -3 12 0
-4873 3 -12 0
4873 -4872 3 12 0
4873 -4872 -3 -12 0
-4873 4 -1 0
-4874 4873 0
-4874 -4 1 0
-4874 4 -1 0
4874 -4873 4 1 0
4874 -4873 -4 -1 0
-4874 5 -2 0
-4875 4874 0
-4875 -5 2 0
-4875 5 -2 0
4875 -4874 5 2 0
4875 -4874 -5 -2 0
-4875 6 -3 0
-4876 4875 0
-4876 -6 3 0
-4876 6 -3 0
4876 -4875 6 3 0
4876 -4875 -6 -3 0
-4876 7 -4 0
-4877 4876 0
-4877 -7 4 0
-4877 7 -4 0
4877 -4876 7 4 0
4877 -4876 -7 -4 0
-4877 8 -5 0
-4878 4877 0
-4878 -8 5 0
-4878 8 -5 0
4878 -4877 8 5 0
4878 -4877 -8 -5 0
-4878 9 -6 0
-4879 4878 0
-4879 -9 6 0
-4879 9 -6 0
4879 -4878 9 6 0
4879 -4878 -9 -6 0
-4879 10 -7 0
-4880 4879 0
-4880 -10 7 0
-4880 10 -7 0
4880 -4879 10 7 0
4880 -4879 -10 -7 0
-4880 11 -8 0
-4881 4880 0
-4881 -11 8 0
-4881 11 -8 0
4881 -4880 11 8 0
4881 -4880 -11 -8 0
-4881 12 -9 0
-4882 4881 0
-4882 -12 9 0
-4882 12 -9 0
4882 -4881 12 9 0
4882 -4881 -12 -9 0
-4882 145 -154 0
-4883 4882 0
-4883 -145 154 0
-4883 145 -154 0
4883 -4882 145 154 0
4883 -4882 -145 -154 0
-4883 146 -155 0
-4884 4883 0
-4884 -146 155 0
-4884 146 -155 0
4884 -4883 146 155 0
4884 -4883 -146 -155 0
-4884 147 -156 0
-4885 4884 0
-4885 -147 156 0
-4885 147 -156 0
4885 -4884 147 156 0
4885 -4884 -147 -156 0
-4885 148 -145 0
-4886 4885 0
-4886 -148 145 0
-4886 148 -145 0
4886 -4885 148 145 0
4886 -4885 -148 -145 0
-4886 149 -146 0
-4887 4886 0
-4887 -149 146 0
-4887 149 -146 0
4887 -4886 149 146 0
4887 -4886 -149 -146 0
-4887 150 -147 0
-4888 4887 0
-4888 -150 147 0
-4888 150 -147 0
4888 -4887 150 147 0
4888 -4887 -150 -147 0
-4888 151 -148 0
-4889 4888 0
-4889 -151 148 0
-4889 151 -148 0
4889 -4888 151 148 0
4889 -4888 -151 -148 0
-4889 152 -149 0
-4890 4889 0
-4890 -152 149 0
-4890 152 -149 0
4890 -4889 152 149 0
4890 -4889 -152 -149 0
-4890 153 -150 0
-4891 4890 0
-4891 -153 150 0
-4891 153 -150 0
4891 -4890 153 150 0
4891 -4890 -153 -150 0
-4891 154 -151 0
-4892 4891 0
-4892 -154 151 0
-4892 154 -151 0
4892 -4891 154 151 0
4892 -4891 -154 -151 0
-4892 155 -152 0
-4893 4892 0
-4893 -155 152 0
-4893 155 -152 0
4893 -4892 155 152 0
4893 -4892 -155 -152 0
-4893 156 -153 0
1 -11 0
-4894 -1 11 0
-4894 1 -11 0
4894 1 11 0
4894 -1 -11 0
-4894 2 -12 0
-4895 4894 0
-4895 -2 12 0
-4895 2 -12 0
4895 -4894 2 12 0
4895 -4894 -2 -12 0
-4895 3 -1 0
-4896 4895 0
-4896 -3 1 0
-4896 3 -1 0
4896 -4895 3 1 0
4896 -4895 -3 -1 0
-4896 4 -2 0
-4897 4896 0
-4897 -4 2 0
-4897 4 -2 0
4897 -4896 4 2 0
4897 -4896 -4 -2 0
-4897 5 -3 0
-4898 4897 0
-4898 -5 3 0
-4898 5 -3 0
4898 -4897 5 3 0
4898 -4897 -5 -3 0
-4898 6 -4 0
-4899 4898 0
-4899 -6 4 0
-4899 6 -4 0
4899 -4898 6 4 0
4899 -4898 -6 -4 0
-4899 7 -5 0
-4900 4899 0
-4900 -7 5 0
-4900 7 -5 0
4900 -4899 7 5 0
4900 -4899 -7 -5 0
-4900 8 -6 0
-4901 4900 0
-4901 -8 6 0
-4901 8 -6 0
4901 -4900 8 6 0
4901 -4900 -8 -6 0
-4901 9 -7 0
-4902 4901 0
-4902 -9 7 0
-4902 9 -7 0
4902 -4901 9 7 0
4902 -4901 -9 -7 0
-4902 10 -8 0
-4903 4902 0
-4903 -10 8 0
-4903 10 -8 0
4903 -4902 10 8 0
4903 -4902 -10 -8 0
-4903 11 -9 0
-4904 4903 0
-4904 -11 9 0
-4904 11 -9 0
4904 -4903 11 9 0
4904 -4903 -11 -9 0
-4904 12 -10 0
-4905 4904 0
-4905 -12 10 0
-4905 12 -10 0
4905 -4904 12 10 0
4905 -4904 -12 -10 0
-4905 145 -155 0
-4906 4905 0
-4906 -145 155 0
-4906 145 -155 0
4906 -4905 145 155 0
4906 -4905 -145 -155 0
-4906 146 -156 0
-4907 4906 0
-4907 -146 156 0
-4907 146 -156 0
4907 -4906 146 156 0
4907 -4906 -146 -156 0
-4907 147 -145 0
-4908 4907 0
-4908 -147 145 0
-4908 147 -145 0
4908 -4907 147 145 0
4908 -4907 -147 -145 0
-4908 148 -146 0
-4909 4908 0
-4909 -148 146 0
-4909 148 -146 0
4909 -4908 148 146 0
4909 -4908 -148 -146 0
-4909 149 -147 0
-4910 4909 0
-4910 -149 147 0
-4910 149 -147 0
4910 -4909 149 147 0
4910 -4909 -149 -147 0
-4910 150 -148 0
-4911 4910 0
-4911 -150 148 0
-4911 150 -148 0
4911 -4910 150 148 0
4911 -4910 -150 -148 0
-4911 151 -149 0
-4912 4911 0
-4912 -151 149 0
-4912 151 -149 0
4912 -4911 151 149 0
4912 -4911 -151 -149 0
-4912 152 -150 0
-4913 4912 0
-4913 -152 150 0
-4913 152 -150 0
4913 -4912 152 150 0
4913 -4912 -152 -150 0
-4913 153 -151 0
-4914 4913 0
-4914 -153 151 0
-4914 153 -151 0
4914 -4913 153 151 0
4914 -4913 -153 -151 0
-4914 154 -152 0
-4915 4914 0
-4915 -154 152 0
-4915 154 -152 0
4915 -4914 154 152 0
4915 -4914 -154 -152 0
-4915 155 -153 0
-4916 4915 0
-4916 -155 153 0
-4916 155 -153 0
4916 -4915 155 153 0
4916 -4915 -155 -153 0
-4916 156 -154 0
1 -12 0
-4917 -1 12 0
-4917 1 -12 0
4917 1 12 0
4917 -1 -12 0
-4917 2 -1 0
-4918 4917 0
-4918 -2 1 0
-4918 2 -1 0
4918 -4917 2 1 0
4918 -4917 -2 -1 0
-4918 3 -2 0
-4919 4918 0
-4919 -3 2 0
-4919 3 -2 0
4919 -4918 3 2 0
4919 -4918 -3 -2 0
-4919 4 -3 0
-4920 4919 0
-4920 -4 3 0
-4920 4 -3 0
4920 -4919 4 3 0
4920 -4919 -4 -3 0
-4920 5 -4 0
-4921 4920 0
-4921 -5 4 0
-4921 5 -4 0
4921 -4920 5 4 0
4921 -4920 -5 -4 0
-4921 6 -5 0
-4922 4921 0
-4922 -6 5 0
-4922 6 -5 0
4922 -4921 6 5 0
4922 -4921 -6 -5 0
-4922 7 -6 0
-4923 4922 0
-4923 -7 6 0
-4923 7 -6 0
4923 -4922 7 6 0
4923 -4922 -7 -6 0
-4923 8 -7 0
-4924 4923 0
-4924 -8 7 0
-4924 8 -7 0
4924 -4923 8 7 0
4924 -4923 -8 -7 0
-4924 9 -8 0
-4925 4924 0
-4925 -9 8 0
-4925 9 -8 0
4925 -4924 9 8 0
4925 -4924 -9 -8 0
-4925 10 -9 0
-4926 4925 0
-4926 -10 9 0
-4926 10 -9 0
4926 -4925 10 9 0
4926 -4925 -10 -9 0
-4926 11 -10 0
-4927 4926 0
-4927 -11 10 0
-4927 11 -10 0
4927 -4926 11 10 0
4927 -4926 -11 -10 0
-4927 12 -11 0
-4928 4927 0
-4928 -12 11 0
-4928 12 -11 0
4928 -4927 12 11 0
4928 -4927 -12 -11 0
-4928 145 -156 0
-4929 4928 0
-4929 -145 156 0
-4929 145 -156 0
4929 -4928 145 156 0
4929 -4928 -145 -156 0
-4929 146 -145 0
-4930 4929 0
-4930 -146 145 0
-4930 146 -145 0
4930 -4929 146 145 0
4930 -4929 -146 -145 0
-4930 147 -146 0
-4931 4930 0
-4931 -147 146 0
-4931 147 -146 0
4931 -4930 147 146 0
4931 -4930 -147 -146 0
-4931 148 -147 0
-4932 4931 0
-4932 -148 147 0
-4932 148 -147 0
4932 -4931 148 147 0
4932 -4931 -148 -147 0
-4932 149 -148 0
-4933 4932 0
-4933 -149 148 0
-4933 149 -148 0
4933 -4932 149 148 0
4933 -4932 -149 -148 0
-4933 150 -149 0
-4934 4933 0
-4934 -150 149 0
-4934 150 -149 0
4934 -4933 150 149 0
4934 -4933 -150 -149 0
-4934 151 -150 0
-4935 4934 0
-4935 -151 150 0
-4935 151 -150 0
4935 -4934 151 150 0
4935 -4934 -151 -150 0
-4935 152 -151 0
-4936 4935 0
-4936 -152 151 0
-4936 152 -151 0
4936 -4935 152 151 0
4936 -4935 -152 -151 0
-4936 153 -152 0
-4937 4936 0
-4937 -153 152 0
-4937 153 -152 0
4937 -4936 153 152 0
4937 -4936 -153 -152 0
-4937 154 -153 0
-4938 4937 0
-4938 -154 153 0
-4938 154 -153 0
4938 -4937 154 153 0
4938 -4937 -154 -153 0
-4938 155 -154 0
-4939 4938 0
-4939 -155 154 0
-4939 155 -154 0
4939 -4938 155 154 0
4939 -4938 -155 -154 0
-4939 156 -155 0
-1640 1537 0
-1641 1538 0
-1642 1539 0
-1643 1540 0
-1644 1541 0
-1645 1542 0
-1646 1543 0
-1647 1544 0
-1648 1545 0
-1649 1546 0
-1650 1547 0
-1651 1548 0
-1652 1549 0
-1653 1550 0
-1654 1551 0
-1743 1537 0
-1744 1538 0
-1745 1539 0
-1746 1540 0
-1747 1541 0
-1748 1542 0
-1749 1543 0
-1750 1544 0
-1751 1545 0
-1752 1546 0
-1753 1547 0
-1754 1548 0
-1755 1549 0
-1756 1550 0
-1757 1551 0
-1846 1537 0
-1847 1538 0
-1848 1539 0
-1849 1540 0
-1850 1541 0
-1851 1542 0
-1852 1543 0
-1853 1544 0
-1854 1545 0
-1855 1546 0
-1856 1547 0
-1857 1548 0
-1858 1549 0
-1859 1550 0
-1860 1551 0
-1949 1537 0
-1950 1538 0
-1951 1539 0
-1952 1540 0
-1953 1541 0
-1954 1542 0
-1955 1543 0
-1956 1544 0
-1957 1545 0
-1958 1546 0
-1959 1547 0
-1960 1548 0
-1961 1549 0
-1962 1550 0
-1963 1551 0
-2052 1537 0
-2053 1538 0
-2054 1539 0
-2055 1540 0
-2056 1541 0
-2057 1542 0
-2058 1543 0
-2059 1544 0
-2060 1545 0
-2061 1546 0
-2062 1547 0
-2063 1548 0
-2064 1549 0
-2065 1550 0
-2066 1551 0
-2155 1537 0
-2156 1538 0
-2157 1539 0
-2158 1540 0
-2159 1541 0
-2160 1542 0
-2161 1543 0
-2162 1544 0
-2163 1545 0
-2164 1546 0
-2165 1547 0
-2166 1548 0
-2167 1549 0
-2168 1550 0
-2169 1551 0
-2258 1537 0
-2259 1538 0
-2260 1539 0
-2261 1540 0
-2262 1541 0
-2263 1542 0
-2264 1543 0
-2265 1544 0
-2266 1545 0
-2267 1546 0
-2268 1547 0
-2269 1548 0
-2270 1549 0
-2271 1550 0
-2272 1551 0
-2361 1537 0
-2362 1538 0
-2363 1539 0
-2364 1540 0
-2365 1541 0
-2366 1542 0
-2367 1543 0
-2368 1544 0
-2369 1545 0
-2370 1546 0
-2371 1547 0
-2372 1548 0
-2373 1549 0
-2374 1550 0
-2375 1551 0
-2464 1537 0
-2465 1538 0
-2466 1539 0
-2467 1540 0
-2468 1541 0
-2469 1542 0
-2470 1543 0
-2471 1544 0
-2472 1545 0
-2473 1546 0
-2474 1547 0
-2475 1548 0
-2476 1549 0
-2477 1550 0
-2478 1551 0
-2567 1537 0
-2568 1538 0
-2569 1539 0
-2570 1540 0
-2571 1541 0
-2572 1542 0
-2573 1543 0
-2574 1544 0
-2575 1545 0
-2576 1546 0
-2577 1547 0
-2578 1548 0
-2579 1549 0
-2580 1550 0
-2581 1551 0
-2670 1537 0
-2671 1538 0
-2672 1539 0
-2673 1540 0
-2674 1541 0
-2675 1542 0
-2676 1543 0
-2677 1544 0
-2678 1545 0
-2679 1546 0
-2680 1547 0
-2681 1548 0
-2682 1549 0
-2683 1550 0
-2684 1551 0
1537 -2846 0
