p cnf 5249 31208
-289 10 121 0
-289 -10 -121 0
289 -10 121 0
289 10 -121 0
-290 289 133 0
-290 -289 -133 0
290 -289 133 0
290 289 -133 0
-291 290 150 0
-291 -290 -150 0
291 -290 150 0
291 290 -150 0
-292 291 155 0
-292 -291 -155 0
292 -291 155 0
292 291 -155 0
-293 292 253 0
-293 -292 -253 0
293 -292 253 0
293 292 -253 0
-293 0
-294 11 122 0
-294 -11 -122 0
294 -11 122 0
294 11 -122 0
-295 294 134 0
-295 -294 -134 0
295 -294 134 0
295 294 -134 0
-296 295 151 0
-296 -295 -151 0
296 -295 151 0
296 295 -151 0
-297 296 156 0
-297 -296 -156 0
297 -296 156 0
297 296 -156 0
-298 297 254 0
-298 -297 -254 0
298 -297 254 0
298 297 -254 0
-298 0
-299 12 123 0
-299 -12 -123 0
299 -12 123 0
299 12 -123 0
-300 299 135 0
-300 -299 -135 0
300 -299 135 0
300 299 -135 0
-301 300 145 0
-301 -300 -145 0
301 -300 145 0
301 300 -145 0
-302 301 152 0
-302 -301 -152 0
302 -301 152 0
302 301 -152 0
-303 302 255 0
-303 -302 -255 0
303 -302 255 0
303 302 -255 0
-303 0
-304 1 124 0
-304 -1 -124 0
304 -1 124 0
304 1 -124 0
-305 304 136 0
-305 -304 -136 0
305 -304 136 0
305 304 -136 0
-306 305 146 0
-306 -305 -146 0
306 -305 146 0
306 305 -146 0
-307 306 153 0
-307 -306 -153 0
307 -306 153 0
307 306 -153 0
-308 307 256 0
-308 -307 -256 0
308 -307 256 0
308 307 -256 0
-308 0
-309 2 125 0
-309 -2 -125 0
309 -2 125 0
309 2 -125 0
-310 309 137 0
-310 -309 -137 0
310 -309 137 0
310 309 -137 0
-311 310 147 0
-311 -310 -147 0
311 -310 147 0
311 310 -147 0
-312 311 154 0
-312 -311 -154 0
312 -311 154 0
312 311 -154 0
-313 312 257 0
-313 -312 -257 0
313 -312 257 0
313 312 -257 0
-313 0
-314 3 126 0
-314 -3 -126 0
314 -3 126 0
314 3 -126 0
-315 314 138 0
-315 -314 -138 0
315 -314 138 0
315 314 -138 0
-316 315 148 0
-316 -315 -148 0
316 -315 148 0
316 315 -148 0
-317 316 155 0
-317 -316 -155 0
317 -316 155 0
317 316 -155 0
-318 317 258 0
-318 -317 -258 0
318 -317 258 0
318 317 -258 0
-318 0
-319 4 127 0
-319 -4 -127 0
319 -4 127 0
319 4 -127 0
-320 319 139 0
-320 -319 -139 0
320 -319 139 0
320 319 -139 0
-321 320 149 0
-321 -320 -149 0
321 -320 149 0
321 320 -149 0
-322 321 156 0
-322 -321 -156 0
322 -321 156 0
322 321 -156 0
-323 322 259 0
-323 -322 -259 0
323 -322 259 0
323 322 -259 0
-323 0
-324 5 128 0
-324 -5 -128 0
324 -5 128 0
324 5 -128 0
-325 324 140 0
-325 -324 -140 0
325 -324 140 0
325 324 -140 0
-326 325 145 0
-326 -325 -145 0
326 -325 145 0
326 325 -145 0
-327 326 150 0
-327 -326 -150 0
327 -326 150 0
327 326 -150 0
-328 327 260 0
-328 -327 -260 0
328 -327 260 0
328 327 -260 0
-328 0
-329 6 129 0
-329 -6 -129 0
329 -6 129 0
329 6 -129 0
-330 329 141 0
-330 -329 -141 0
330 -329 141 0
330 329 -141 0
-331 330 146 0
-331 -330 -146 0
331 -330 146 0
331 330 -146 0
-332 331 151 0
-332 -331 -151 0
332 -331 151 0
332 331 -151 0
-333 332 261 0
-333 -332 -261 0
333 -332 261 0
333 332 -261 0
-333 0
-334 7 130 0
-334 -7 -130 0
334 -7 130 0
334 7 -130 0
-335 334 142 0
-335 -334 -142 0
335 -334 142 0
335 334 -142 0
-336 335 147 0
-336 -335 -147 0
336 -335 147 0
336 335 -147 0
-337 336 152 0
-337 -336 -152 0
337 -336 152 0
337 336 -152 0
-338 337 262 0
-338 -337 -262 0
338 -337 262 0
338 337 -262 0
-338 0
-339 8 131 0
-339 -8 -131 0
339 -8 131 0
339 8 -131 0
-340 339 143 0
-340 -339 -143 0
340 -339 143 0
340 339 -143 0
-341 340 148 0
-341 -340 -148 0
341 -340 148 0
341 340 -148 0
-342 341 153 0
-342 -341 -153 0
342 -341 153 0
342 341 -153 0
-343 342 263 0
-343 -342 -263 0
343 -342 263 0
343 342 -263 0
-343 0
-344 9 132 0
-344 -9 -132 0
344 -9 132 0
344 9 -132 0
-345 344 144 0
-345 -344 -144 0
345 -344 144 0
345 344 -144 0
-346 345 149 0
-346 -345 -149 0
346 -345 149 0
346 345 -149 0
-347 346 154 0
-347 -346 -154 0
347 -346 154 0
347 346 -154 0
-348 347 264 0
-348 -347 -264 0
348 -347 264 0
348 347 -264 0
-348 0
-349 1 22 0
-349 -1 -22 0
349 -1 22 0
349 1 -22 0
-350 349 133 0
-350 -349 -133 0
350 -349 133 0
350 349 -133 0
-351 350 162 0
-351 -350 -162 0
351 -350 162 0
351 350 -162 0
-352 351 167 0
-352 -351 -167 0
352 -351 167 0
352 351 -167 0
-353 352 265 0
-353 -352 -265 0
353 -352 265 0
353 352 -265 0
-353 0
-354 2 23 0
-354 -2 -23 0
354 -2 23 0
354 2 -23 0
-355 354 134 0
-355 -354 -134 0
355 -354 134 0
355 354 -134 0
-356 355 163 0
-356 -355 -163 0
356 -355 163 0
356 355 -163 0
-357 356 168 0
-357 -356 -168 0
357 -356 168 0
357 356 -168 0
-358 357 266 0
-358 -357 -266 0
358 -357 266 0
358 357 -266 0
-358 0
-359 3 24 0
-359 -3 -24 0
359 -3 24 0
359 3 -24 0
-360 359 135 0
-360 -359 -135 0
360 -359 135 0
360 359 -135 0
-361 360 157 0
-361 -360 -157 0
361 -360 157 0
361 360 -157 0
-362 361 164 0
-362 -361 -164 0
362 -361 164 0
362 361 -164 0
-363 362 267 0
-363 -362 -267 0
363 -362 267 0
363 362 -267 0
-363 0
-364 4 13 0
-364 -4 -13 0
364 -4 13 0
364 4 -13 0
-365 364 136 0
-365 -364 -136 0
365 -364 136 0
365 364 -136 0
-366 365 158 0
-366 -365 -158 0
366 -365 158 0
366 365 -158 0
-367 366 165 0
-367 -366 -165 0
367 -366 165 0
367 366 -165 0
-368 367 268 0
-368 -367 -268 0
368 -367 268 0
368 367 -268 0
-368 0
-369 5 14 0
-369 -5 -14 0
369 -5 14 0
369 5 -14 0
-370 369 137 0
-370 -369 -137 0
370 -369 137 0
370 369 -137 0
-371 370 159 0
-371 -370 -159 0
371 -370 159 0
371 370 -159 0
-372 371 166 0
-372 -371 -166 0
372 -371 166 0
372 371 -166 0
-373 372 269 0
-373 -372 -269 0
373 -372 269 0
373 372 -269 0
-373 0
-374 6 15 0
-374 -6 -15 0
374 -6 15 0
374 6 -15 0
-375 374 138 0
-375 -374 -138 0
375 -374 138 0
375 374 -138 0
-376 375 160 0
-376 -375 -160 0
376 -375 160 0
376 375 -160 0
-377 376 167 0
-377 -376 -167 0
377 -376 167 0
377 376 -167 0
-378 377 270 0
-378 -377 -270 0
378 -377 270 0
378 377 -270 0
-378 0
-379 7 16 0
-379 -7 -16 0
379 -7 16 0
379 7 -16 0
-380 379 139 0
-380 -379 -139 0
380 -379 139 0
380 379 -139 0
-381 380 161 0
-381 -380 -161 0
381 -380 161 0
381 380 -161 0
-382 381 168 0
-382 -381 -168 0
382 -381 168 0
382 381 -168 0
-383 382 271 0
-383 -382 -271 0
383 -382 271 0
383 382 -271 0
-383 0
-384 8 17 0
-384 -8 -17 0
384 -8 17 0
384 8 -17 0
-385 384 140 0
-385 -384 -140 0
385 -384 140 0
385 384 -140 0
-386 385 157 0
-386 -385 -157 0
386 -385 157 0
386 385 -157 0
-387 386 162 0
-387 -386 -162 0
387 -386 162 0
387 386 -162 0
-388 387 272 0
-388 -387 -272 0
388 -387 272 0
388 387 -272 0
-388 0
-389 9 18 0
-389 -9 -18 0
389 -9 18 0
389 9 -18 0
-390 389 141 0
-390 -389 -141 0
390 -389 141 0
390 389 -141 0
-391 390 158 0
-391 -390 -158 0
391 -390 158 0
391 390 -158 0
-392 391 163 0
-392 -391 -163 0
392 -391 163 0
392 391 -163 0
-393 392 273 0
-393 -392 -273 0
393 -392 273 0
393 392 -273 0
-393 0
-394 10 19 0
-394 -10 -19 0
394 -10 19 0
394 10 -19 0
-395 394 142 0
-395 -394 -142 0
395 -394 142 0
395 394 -142 0
-396 395 159 0
-396 -395 -159 0
396 -395 159 0
396 395 -159 0
-397 396 164 0
-397 -396 -164 0
397 -396 164 0
397 396 -164 0
-398 397 274 0
-398 -397 -274 0
398 -397 274 0
398 397 -274 0
-398 0
-399 11 20 0
-399 -11 -20 0
399 -11 20 0
399 11 -20 0
-400 399 143 0
-400 -399 -143 0
400 -399 143 0
400 399 -143 0
-401 400 160 0
-401 -400 -160 0
401 -400 160 0
401 400 -160 0
-402 401 165 0
-402 -401 -165 0
402 -401 165 0
402 401 -165 0
-403 402 275 0
-403 -402 -275 0
403 -402 275 0
403 402 -275 0
-403 0
-404 12 21 0
-404 -12 -21 0
404 -12 21 0
404 12 -21 0
-405 404 144 0
-405 -404 -144 0
405 -404 144 0
405 404 -144 0
-406 405 161 0
-406 -405 -161 0
406 -405 161 0
406 405 -161 0
-407 406 166 0
-407 -406 -166 0
407 -406 166 0
407 406 -166 0
-408 407 276 0
-408 -407 -276 0
408 -407 276 0
408 407 -276 0
-408 0
-409 1 13 0
-409 -1 -13 0
409 -1 13 0
409 1 -13 0
-410 409 34 0
-410 -409 -34 0
410 -409 34 0
410 409 -34 0
-411 410 174 0
-411 -410 -174 0
411 -410 174 0
411 410 -174 0
-412 411 179 0
-412 -411 -179 0
412 -411 179 0
412 411 -179 0
-413 412 277 0
-413 -412 -277 0
413 -412 277 0
413 412 -277 0
-413 0
-414 2 14 0
-414 -2 -14 0
414 -2 14 0
414 2 -14 0
-415 414 35 0
-415 -414 -35 0
415 -414 35 0
415 414 -35 0
-416 415 175 0
-416 -415 -175 0
416 -415 175 0
416 415 -175 0
-417 416 180 0
-417 -416 -180 0
417 -416 180 0
417 416 -180 0
-418 417 278 0
-418 -417 -278 0
418 -417 278 0
418 417 -278 0
-418 0
-419 3 15 0
-419 -3 -15 0
419 -3 15 0
419 3 -15 0
-420 419 36 0
-420 -419 -36 0
420 -419 36 0
420 419 -36 0
-421 420 169 0
-421 -420 -169 0
421 -420 169 0
421 420 -169 0
-422 421 176 0
-422 -421 -176 0
422 -421 176 0
422 421 -176 0
-423 422 279 0
-423 -422 -279 0
423 -422 279 0
423 422 -279 0
-423 0
-424 4 16 0
-424 -4 -16 0
424 -4 16 0
424 4 -16 0
-425 424 25 0
-425 -424 -25 0
425 -424 25 0
425 424 -25 0
-426 425 170 0
-426 -425 -170 0
426 -425 170 0
426 425 -170 0
-427 426 177 0
-427 -426 -177 0
427 -426 177 0
427 426 -177 0
-428 427 280 0
-428 -427 -280 0
428 -427 280 0
428 427 -280 0
-428 0
-429 5 17 0
-429 -5 -17 0
429 -5 17 0
429 5 -17 0
-430 429 26 0
-430 -429 -26 0
430 -429 26 0
430 429 -26 0
-431 430 171 0
-431 -430 -171 0
431 -430 171 0
431 430 -171 0
-432 431 178 0
-432 -431 -178 0
432 -431 178 0
432 431 -178 0
-433 432 281 0
-433 -432 -281 0
433 -432 281 0
433 432 -281 0
-433 0
-434 6 18 0
-434 -6 -18 0
434 -6 18 0
434 6 -18 0
-435 434 27 0
-435 -434 -27 0
435 -434 27 0
435 434 -27 0
-436 435 172 0
-436 -435 -172 0
436 -435 172 0
436 435 -172 0
-437 436 179 0
-437 -436 -179 0
437 -436 179 0
437 436 -179 0
-438 437 282 0
-438 -437 -282 0
438 -437 282 0
438 437 -282 0
-438 0
-439 7 19 0
-439 -7 -19 0
439 -7 19 0
439 7 -19 0
-440 439 28 0
-440 -439 -28 0
440 -439 28 0
440 439 -28 0
-441 440 173 0
-441 -440 -173 0
441 -440 173 0
441 440 -173 0
-442 441 180 0
-442 -441 -180 0
442 -441 180 0
442 441 -180 0
-443 442 283 0
-443 -442 -283 0
443 -442 283 0
443 442 -283 0
-443 0
-444 8 20 0
-444 -8 -20 0
444 -8 20 0
444 8 -20 0
-445 444 29 0
-445 -444 -29 0
445 -444 29 0
445 444 -29 0
-446 445 169 0
-446 -445 -169 0
446 -445 169 0
446 445 -169 0
-447 446 174 0
-447 -446 -174 0
447 -446 174 0
447 446 -174 0
-448 447 284 0
-448 -447 -284 0
448 -447 284 0
448 447 -284 0
-448 0
-449 9 21 0
-449 -9 -21 0
449 -9 21 0
449 9 -21 0
-450 449 30 0
-450 -449 -30 0
450 -449 30 0
450 449 -30 0
-451 450 170 0
-451 -450 -170 0
451 -450 170 0
451 450 -170 0
-452 451 175 0
-452 -451 -175 0
452 -451 175 0
452 451 -175 0
-453 452 285 0
-453 -452 -285 0
453 -452 285 0
453 452 -285 0
-453 0
-454 10 22 0
-454 -10 -22 0
454 -10 22 0
454 10 -22 0
-455 454 31 0
-455 -454 -31 0
455 -454 31 0
455 454 -31 0
-456 455 171 0
-456 -455 -171 0
456 -455 171 0
456 455 -171 0
-457 456 176 0
-457 -456 -176 0
457 -456 176 0
457 456 -176 0
-458 457 286 0
-458 -457 -286 0
458 -457 286 0
458 457 -286 0
-458 0
-459 11 23 0
-459 -11 -23 0
459 -11 23 0
459 11 -23 0
-460 459 32 0
-460 -459 -32 0
460 -459 32 0
460 459 -32 0
-461 460 172 0
-461 -460 -172 0
461 -460 172 0
461 460 -172 0
-462 461 177 0
-462 -461 -177 0
462 -461 177 0
462 461 -177 0
-463 462 287 0
-463 -462 -287 0
463 -462 287 0
463 462 -287 0
-463 0
-464 12 24 0
-464 -12 -24 0
464 -12 24 0
464 12 -24 0
-465 464 33 0
-465 -464 -33 0
465 -464 33 0
465 464 -33 0
-466 465 173 0
-466 -465 -173 0
466 -465 173 0
466 465 -173 0
-467 466 178 0
-467 -466 -178 0
467 -466 178 0
467 466 -178 0
-468 467 288 0
-468 -467 -288 0
468 -467 288 0
468 467 -288 0
-468 0
-469 13 25 0
-469 -13 -25 0
469 -13 25 0
469 13 -25 0
-470 469 46 0
-470 -469 -46 0
470 -469 46 0
470 469 -46 0
-471 470 145 0
-471 -470 -145 0
471 -470 145 0
471 470 -145 0
-472 471 186 0
-472 -471 -186 0
472 -471 186 0
472 471 -186 0
-473 472 191 0
-473 -472 -191 0
473 -472 191 0
473 472 -191 0
-473 0
-474 14 26 0
-474 -14 -26 0
474 -14 26 0
474 14 -26 0
-475 474 47 0
-475 -474 -47 0
475 -474 47 0
475 474 -47 0
-476 475 146 0
-476 -475 -146 0
476 -475 146 0
476 475 -146 0
-477 476 187 0
-477 -476 -187 0
477 -476 187 0
477 476 -187 0
-478 477 192 0
-478 -477 -192 0
478 -477 192 0
478 477 -192 0
-478 0
-479 15 27 0
-479 -15 -27 0
479 -15 27 0
479 15 -27 0
-480 479 48 0
-480 -479 -48 0
480 -479 48 0
480 479 -48 0
-481 480 147 0
-481 -480 -147 0
481 -480 147 0
481 480 -147 0
-482 481 181 0
-482 -481 -181 0
482 -481 181 0
482 481 -181 0
-483 482 188 0
-483 -482 -188 0
483 -482 188 0
483 482 -188 0
-483 0
-484 16 28 0
-484 -16 -28 0
484 -16 28 0
484 16 -28 0
-485 484 37 0
-485 -484 -37 0
485 -484 37 0
485 484 -37 0
-486 485 148 0
-486 -485 -148 0
486 -485 148 0
486 485 -148 0
-487 486 182 0
-487 -486 -182 0
487 -486 182 0
487 486 -182 0
-488 487 189 0
-488 -487 -189 0
488 -487 189 0
488 487 -189 0
-488 0
-489 17 29 0
-489 -17 -29 0
489 -17 29 0
489 17 -29 0
-490 489 38 0
-490 -489 -38 0
490 -489 38 0
490 489 -38 0
-491 490 149 0
-491 -490 -149 0
491 -490 149 0
491 490 -149 0
-492 491 183 0
-492 -491 -183 0
492 -491 183 0
492 491 -183 0
-493 492 190 0
-493 -492 -190 0
493 -492 190 0
493 492 -190 0
-493 0
-494 18 30 0
-494 -18 -30 0
494 -18 30 0
494 18 -30 0
-495 494 39 0
-495 -494 -39 0
495 -494 39 0
495 494 -39 0
-496 495 150 0
-496 -495 -150 0
496 -495 150 0
496 495 -150 0
-497 496 184 0
-497 -496 -184 0
497 -496 184 0
497 496 -184 0
-498 497 191 0
-498 -497 -191 0
498 -497 191 0
498 497 -191 0
-498 0
-499 19 31 0
-499 -19 -31 0
499 -19 31 0
499 19 -31 0
-500 499 40 0
-500 -499 -40 0
500 -499 40 0
500 499 -40 0
-501 500 151 0
-501 -500 -151 0
501 -500 151 0
501 500 -151 0
-502 501 185 0
-502 -501 -185 0
502 -501 185 0
502 501 -185 0
-503 502 192 0
-503 -502 -192 0
503 -502 192 0
503 502 -192 0
-503 0
-504 20 32 0
-504 -20 -32 0
504 -20 32 0
504 20 -32 0
-505 504 41 0
-505 -504 -41 0
505 -504 41 0
505 504 -41 0
-506 505 152 0
-506 -505 -152 0
506 -505 152 0
506 505 -152 0
-507 506 181 0
-507 -506 -181 0
507 -506 181 0
507 506 -181 0
-508 507 186 0
-508 -507 -186 0
508 -507 186 0
508 507 -186 0
-508 0
-509 21 33 0
-509 -21 -33 0
509 -21 33 0
509 21 -33 0
-510 509 42 0
-510 -509 -42 0
510 -509 42 0
510 509 -42 0
-511 510 153 0
-511 -510 -153 0
511 -510 153 0
511 510 -153 0
-512 511 182 0
-512 -511 -182 0
512 -511 182 0
512 511 -182 0
-513 512 187 0
-513 -512 -187 0
513 -512 187 0
513 512 -187 0
-513 0
-514 22 34 0
-514 -22 -34 0
514 -22 34 0
514 22 -34 0
-515 514 43 0
-515 -514 -43 0
515 -514 43 0
515 514 -43 0
-516 515 154 0
-516 -515 -154 0
516 -515 154 0
516 515 -154 0
-517 516 183 0
-517 -516 -183 0
517 -516 183 0
517 516 -183 0
-518 517 188 0
-518 -517 -188 0
518 -517 188 0
518 517 -188 0
-518 0
-519 23 35 0
-519 -23 -35 0
519 -23 35 0
519 23 -35 0
-520 519 44 0
-520 -519 -44 0
520 -519 44 0
520 519 -44 0
-521 520 155 0
-521 -520 -155 0
521 -520 155 0
521 520 -155 0
-522 521 184 0
-522 -521 -184 0
522 -521 184 0
522 521 -184 0
-523 522 189 0
-523 -522 -189 0
523 -522 189 0
523 522 -189 0
-523 0
-524 24 36 0
-524 -24 -36 0
524 -24 36 0
524 24 -36 0
-525 524 45 0
-525 -524 -45 0
525 -524 45 0
525 524 -45 0
-526 525 156 0
-526 -525 -156 0
526 -525 156 0
526 525 -156 0
-527 526 185 0
-527 -526 -185 0
527 -526 185 0
527 526 -185 0
-528 527 190 0
-528 -527 -190 0
528 -527 190 0
528 527 -190 0
-528 0
-529 25 37 0
-529 -25 -37 0
529 -25 37 0
529 25 -37 0
-530 529 58 0
-530 -529 -58 0
530 -529 58 0
530 529 -58 0
-531 530 157 0
-531 -530 -157 0
531 -530 157 0
531 530 -157 0
-532 531 198 0
-532 -531 -198 0
532 -531 198 0
532 531 -198 0
-533 532 203 0
-533 -532 -203 0
533 -532 203 0
533 532 -203 0
-533 0
-534 26 38 0
-534 -26 -38 0
534 -26 38 0
534 26 -38 0
-535 534 59 0
-535 -534 -59 0
535 -534 59 0
535 534 -59 0
-536 535 158 0
-536 -535 -158 0
536 -535 158 0
536 535 -158 0
-537 536 199 0
-537 -536 -199 0
537 -536 199 0
537 536 -199 0
-538 537 204 0
-538 -537 -204 0
538 -537 204 0
538 537 -204 0
-538 0
-539 27 39 0
-539 -27 -39 0
539 -27 39 0
539 27 -39 0
-540 539 60 0
-540 -539 -60 0
540 -539 60 0
540 539 -60 0
-541 540 159 0
-541 -540 -159 0
541 -540 159 0
541 540 -159 0
-542 541 193 0
-542 -541 -193 0
542 -541 193 0
542 541 -193 0
-543 542 200 0
-543 -542 -200 0
543 -542 200 0
543 542 -200 0
-543 0
-544 28 40 0
-544 -28 -40 0
544 -28 40 0
544 28 -40 0
-545 544 49 0
-545 -544 -49 0
545 -544 49 0
545 544 -49 0
-546 545 160 0
-546 -545 -160 0
546 -545 160 0
546 545 -160 0
-547 546 194 0
-547 -546 -194 0
547 -546 194 0
547 546 -194 0
-548 547 201 0
-548 -547 -201 0
548 -547 201 0
548 547 -201 0
-548 0
-549 29 41 0
-549 -29 -41 0
549 -29 41 0
549 29 -41 0
-550 549 50 0
-550 -549 -50 0
550 -549 50 0
550 549 -50 0
-551 550 161 0
-551 -550 -161 0
551 -550 161 0
551 550 -161 0
-552 551 195 0
-552 -551 -195 0
552 -551 195 0
552 551 -195 0
-553 552 202 0
-553 -552 -202 0
553 -552 202 0
553 552 -202 0
-553 0
-554 30 42 0
-554 -30 -42 0
554 -30 42 0
554 30 -42 0
-555 554 51 0
-555 -554 -51 0
555 -554 51 0
555 554 -51 0
-556 555 162 0
-556 -555 -162 0
556 -555 162 0
556 555 -162 0
-557 556 196 0
-557 -556 -196 0
557 -556 196 0
557 556 -196 0
-558 557 203 0
-558 -557 -203 0
558 -557 203 0
558 557 -203 0
-558 0
-559 31 43 0
-559 -31 -43 0
559 -31 43 0
559 31 -43 0
-560 559 52 0
-560 -559 -52 0
560 -559 52 0
560 559 -52 0
-561 560 163 0
-561 -560 -163 0
561 -560 163 0
561 560 -163 0
-562 561 197 0
-562 -561 -197 0
562 -561 197 0
562 561 -197 0
-563 562 204 0
-563 -562 -204 0
563 -562 204 0
563 562 -204 0
-563 0
-564 32 44 0
-564 -32 -44 0
564 -32 44 0
564 32 -44 0
-565 564 53 0
-565 -564 -53 0
565 -564 53 0
565 564 -53 0
-566 565 164 0
-566 -565 -164 0
566 -565 164 0
566 565 -164 0
-567 566 193 0
-567 -566 -193 0
567 -566 193 0
567 566 -193 0
-568 567 198 0
-568 -567 -198 0
568 -567 198 0
568 567 -198 0
-568 0
-569 33 45 0
-569 -33 -45 0
569 -33 45 0
569 33 -45 0
-570 569 54 0
-570 -569 -54 0
570 -569 54 0
570 569 -54 0
-571 570 165 0
-571 -570 -165 0
571 -570 165 0
571 570 -165 0
-572 571 194 0
-572 -571 -194 0
572 -571 194 0
572 571 -194 0
-573 572 199 0
-573 -572 -199 0
573 -572 199 0
573 572 -199 0
-573 0
-574 34 46 0
-574 -34 -46 0
574 -34 46 0
574 34 -46 0
-575 574 55 0
-575 -574 -55 0
575 -574 55 0
575 574 -55 0
-576 575 166 0
-576 -575 -166 0
576 -575 166 0
576 575 -166 0
-577 576 195 0
-577 -576 -195 0
577 -576 195 0
577 576 -195 0
-578 577 200 0
-578 -577 -200 0
578 -577 200 0
578 577 -200 0
-578 0
-579 35 47 0
-579 -35 -47 0
579 -35 47 0
579 35 -47 0
-580 579 56 0
-580 -579 -56 0
580 -579 56 0
580 579 -56 0
-581 580 167 0
-581 -580 -167 0
581 -580 167 0
581 580 -167 0
-582 581 196 0
-582 -581 -196 0
582 -581 196 0
582 581 -196 0
-583 582 201 0
-583 -582 -201 0
583 -582 201 0
583 582 -201 0
-583 0
-584 36 48 0
-584 -36 -48 0
584 -36 48 0
584 36 -48 0
-585 584 57 0
-585 -584 -57 0
585 -584 57 0
585 584 -57 0
-586 585 168 0
-586 -585 -168 0
586 -585 168 0
586 585 -168 0
-587 586 197 0
-587 -586 -197 0
587 -586 197 0
587 586 -197 0
-588 587 202 0
-588 -587 -202 0
588 -587 202 0
588 587 -202 0
-588 0
-589 37 49 0
-589 -37 -49 0
589 -37 49 0
589 37 -49 0
-590 589 70 0
-590 -589 -70 0
590 -589 70 0
590 589 -70 0
-591 590 169 0
-591 -590 -169 0
591 -590 169 0
591 590 -169 0
-592 591 210 0
-592 -591 -210 0
592 -591 210 0
592 591 -210 0
-593 592 215 0
-593 -592 -215 0
593 -592 215 0
593 592 -215 0
-593 0
-594 38 50 0
-594 -38 -50 0
594 -38 50 0
594 38 -50 0
-595 594 71 0
-595 -594 -71 0
595 -594 71 0
595 594 -71 0
-596 595 170 0
-596 -595 -170 0
596 -595 170 0
596 595 -170 0
-597 596 211 0
-597 -596 -211 0
597 -596 211 0
597 596 -211 0
-598 597 216 0
-598 -597 -216 0
598 -597 216 0
598 597 -216 0
-598 0
-599 39 51 0
-599 -39 -51 0
599 -39 51 0
599 39 -51 0
-600 599 72 0
-600 -599 -72 0
600 -599 72 0
600 599 -72 0
-601 600 171 0
-601 -600 -171 0
601 -600 171 0
601 600 -171 0
-602 601 205 0
-602 -601 -205 0
602 -601 205 0
602 601 -205 0
-603 602 212 0
-603 -602 -212 0
603 -602 212 0
603 602 -212 0
-603 0
-604 40 52 0
-604 -40 -52 0
604 -40 52 0
604 40 -52 0
-605 604 61 0
-605 -604 -61 0
605 -604 61 0
605 604 -61 0
-606 605 172 0
-606 -605 -172 0
606 -605 172 0
606 605 -172 0
-607 606 206 0
-607 -606 -206 0
607 -606 206 0
607 606 -206 0
-608 607 213 0
-608 -607 -213 0
608 -607 213 0
608 607 -213 0
-608 0
-609 41 53 0
-609 -41 -53 0
609 -41 53 0
609 41 -53 0
-610 609 62 0
-610 -609 -62 0
610 -609 62 0
610 609 -62 0
-611 610 173 0
-611 -610 -173 0
611 -610 173 0
611 610 -173 0
-612 611 207 0
-612 -611 -207 0
612 -611 207 0
612 611 -207 0
-613 612 214 0
-613 -612 -214 0
613 -612 214 0
613 612 -214 0
-613 0
-614 42 54 0
-614 -42 -54 0
614 -42 54 0
614 42 -54 0
-615 614 63 0
-615 -614 -63 0
615 -614 63 0
615 614 -63 0
-616 615 174 0
-616 -615 -174 0
616 -615 174 0
616 615 -174 0
-617 616 208 0
-617 -616 -208 0
617 -616 208 0
617 616 -208 0
-618 617 215 0
-618 -617 -215 0
618 -617 215 0
618 617 -215 0
-618 0
-619 43 55 0
-619 -43 -55 0
619 -43 55 0
619 43 -55 0
-620 619 64 0
-620 -619 -64 0
620 -619 64 0
620 619 -64 0
-621 620 175 0
-621 -620 -175 0
621 -620 175 0
621 620 -175 0
-622 621 209 0
-622 -621 -209 0
622 -621 209 0
622 621 -209 0
-623 622 216 0
-623 -622 -216 0
623 -622 216 0
623 622 -216 0
-623 0
-624 44 56 0
-624 -44 -56 0
624 -44 56 0
624 44 -56 0
-625 624 65 0
-625 -624 -65 0
625 -624 65 0
625 624 -65 0
-626 625 176 0
-626 -625 -176 0
626 -625 176 0
626 625 -176 0
-627 626 205 0
-627 -626 -205 0
627 -626 205 0
627 626 -205 0
-628 627 210 0
-628 -627 -210 0
628 -627 210 0
628 627 -210 0
-628 0
-629 45 57 0
-629 -45 -57 0
629 -45 57 0
629 45 -57 0
-630 629 66 0
-630 -629 -66 0
630 -629 66 0
630 629 -66 0
-631 630 177 0
-631 -630 -177 0
631 -630 177 0
631 630 -177 0
-632 631 206 0
-632 -631 -206 0
632 -631 206 0
632 631 -206 0
-633 632 211 0
-633 -632 -211 0
633 -632 211 0
633 632 -211 0
-633 0
-634 46 58 0
-634 -46 -58 0
634 -46 58 0
634 46 -58 0
-635 634 67 0
-635 -634 -67 0
635 -634 67 0
635 634 -67 0
-636 635 178 0
-636 -635 -178 0
636 -635 178 0
636 635 -178 0
-637 636 207 0
-637 -636 -207 0
637 -636 207 0
637 636 -207 0
-638 637 212 0
-638 -637 -212 0
638 -637 212 0
638 637 -212 0
-638 0
-639 47 59 0
-639 -47 -59 0
639 -47 59 0
639 47 -59 0
-640 639 68 0
-640 -639 -68 0
640 -639 68 0
640 639 -68 0
-641 640 179 0
-641 -640 -179 0
641 -640 179 0
641 640 -179 0
-642 641 208 0
-642 -641 -208 0
642 -641 208 0
642 641 -208 0
-643 642 213 0
-643 -642 -213 0
643 -642 213 0
643 642 -213 0
-643 0
-644 48 60 0
-644 -48 -60 0
644 -48 60 0
644 48 -60 0
-645 644 69 0
-645 -644 -69 0
645 -644 69 0
645 644 -69 0
-646 645 180 0
-646 -645 -180 0
646 -645 180 0
646 645 -180 0
-647 646 209 0
-647 -646 -209 0
647 -646 209 0
647 646 -209 0
-648 647 214 0
-648 -647 -214 0
648 -647 214 0
648 647 -214 0
-648 0
-649 49 61 0
-649 -49 -61 0
649 -49 61 0
649 49 -61 0
-650 649 82 0
-650 -649 -82 0
650 -649 82 0
650 649 -82 0
-651 650 181 0
-651 -650 -181 0
651 -650 181 0
651 650 -181 0
-652 651 222 0
-652 -651 -222 0
652 -651 222 0
652 651 -222 0
-653 652 227 0
-653 -652 -227 0
653 -652 227 0
653 652 -227 0
-653 0
-654 50 62 0
-654 -50 -62 0
654 -50 62 0
654 50 -62 0
-655 654 83 0
-655 -654 -83 0
655 -654 83 0
655 654 -83 0
-656 655 182 0
-656 -655 -182 0
656 -655 182 0
656 655 -182 0
-657 656 223 0
-657 -656 -223 0
657 -656 223 0
657 656 -223 0
-658 657 228 0
-658 -657 -228 0
658 -657 228 0
658 657 -228 0
-658 0
-659 51 63 0
-659 -51 -63 0
659 -51 63 0
659 51 -63 0
-660 659 84 0
-660 -659 -84 0
660 -659 84 0
660 659 -84 0
-661 660 183 0
-661 -660 -183 0
661 -660 183 0
661 660 -183 0
-662 661 217 0
-662 -661 -217 0
662 -661 217 0
662 661 -217 0
-663 662 224 0
-663 -662 -224 0
663 -662 224 0
663 662 -224 0
-663 0
-664 52 64 0
-664 -52 -64 0
664 -52 64 0
664 52 -64 0
-665 664 73 0
-665 -664 -73 0
665 -664 73 0
665 664 -73 0
-666 665 184 0
-666 -665 -184 0
666 -665 184 0
666 665 -184 0
-667 666 218 0
-667 -666 -218 0
667 -666 218 0
667 666 -218 0
-668 667 225 0
-668 -667 -225 0
668 -667 225 0
668 667 -225 0
-668 0
-669 53 65 0
-669 -53 -65 0
669 -53 65 0
669 53 -65 0
-670 669 74 0
-670 -669 -74 0
670 -669 74 0
670 669 -74 0
-671 670 185 0
-671 -670 -185 0
671 -670 185 0
671 670 -185 0
-672 671 219 0
-672 -671 -219 0
672 -671 219 0
672 671 -219 0
-673 672 226 0
-673 -672 -226 0
673 -672 226 0
673 672 -226 0
-673 0
-674 54 66 0
-674 -54 -66 0
674 -54 66 0
674 54 -66 0
-675 674 75 0
-675 -674 -75 0
675 -674 75 0
675 674 -75 0
-676 675 186 0
-676 -675 -186 0
676 -675 186 0
676 675 -186 0
-677 676 220 0
-677 -676 -220 0
677 -676 220 0
677 676 -220 0
-678 677 227 0
-678 -677 -227 0
678 -677 227 0
678 677 -227 0
-678 0
-679 55 67 0
-679 -55 -67 0
679 -55 67 0
679 55 -67 0
-680 679 76 0
-680 -679 -76 0
680 -679 76 0
680 679 -76 0
-681 680 187 0
-681 -680 -187 0
681 -680 187 0
681 680 -187 0
-682 681 221 0
-682 -681 -221 0
682 -681 221 0
682 681 -221 0
-683 682 228 0
-683 -682 -228 0
683 -682 228 0
683 682 -228 0
-683 0
-684 56 68 0
-684 -56 -68 0
684 -56 68 0
684 56 -68 0
-685 684 77 0
-685 -684 -77 0
685 -684 77 0
685 684 -77 0
-686 685 188 0
-686 -685 -188 0
686 -685 188 0
686 685 -188 0
-687 686 217 0
-687 -686 -217 0
687 -686 217 0
687 686 -217 0
-688 687 222 0
-688 -687 -222 0
688 -687 222 0
688 687 -222 0
-688 0
-689 57 69 0
-689 -57 -69 0
689 -57 69 0
689 57 -69 0
-690 689 78 0
-690 -689 -78 0
690 -689 78 0
690 689 -78 0
-691 690 189 0
-691 -690 -189 0
691 -690 189 0
691 690 -189 0
-692 691 218 0
-692 -691 -218 0
692 -691 218 0
692 691 -218 0
-693 692 223 0
-693 -692 -223 0
693 -692 223 0
693 692 -223 0
-693 0
-694 58 70 0
-694 -58 -70 0
694 -58 70 0
694 58 -70 0
-695 694 79 0
-695 -694 -79 0
695 -694 79 0
695 694 -79 0
-696 695 190 0
-696 -695 -190 0
696 -695 190 0
696 695 -190 0
-697 696 219 0
-697 -696 -219 0
697 -696 219 0
697 696 -219 0
-698 697 224 0
-698 -697 -224 0
698 -697 224 0
698 697 -224 0
-698 0
-699 59 71 0
-699 -59 -71 0
699 -59 71 0
699 59 -71 0
-700 699 80 0
-700 -699 -80 0
700 -699 80 0
700 699 -80 0
-701 700 191 0
-701 -700 -191 0
701 -700 191 0
701 700 -191 0
-702 701 220 0
-702 -701 -220 0
702 -701 220 0
702 701 -220 0
-703 702 225 0
-703 -702 -225 0
703 -702 225 0
703 702 -225 0
-703 0
-704 60 72 0
-704 -60 -72 0
704 -60 72 0
704 60 -72 0
-705 704 81 0
-705 -704 -81 0
705 -704 81 0
705 704 -81 0
-706 705 192 0
-706 -705 -192 0
706 -705 192 0
706 705 -192 0
-707 706 221 0
-707 -706 -221 0
707 -706 221 0
707 706 -221 0
-708 707 226 0
-708 -707 -226 0
708 -707 226 0
708 707 -226 0
-708 0
-709 61 73 0
-709 -61 -73 0
709 -61 73 0
709 61 -73 0
-710 709 94 0
-710 -709 -94 0
710 -709 94 0
710 709 -94 0
-711 710 193 0
-711 -710 -193 0
711 -710 193 0
711 710 -193 0
-712 711 234 0
-712 -711 -234 0
712 -711 234 0
712 711 -234 0
-713 712 239 0
-713 -712 -239 0
713 -712 239 0
713 712 -239 0
-713 0
-714 62 74 0
-714 -62 -74 0
714 -62 74 0
714 62 -74 0
-715 714 95 0
-715 -714 -95 0
715 -714 95 0
715 714 -95 0
-716 715 194 0
-716 -715 -194 0
716 -715 194 0
716 715 -194 0
-717 716 235 0
-717 -716 -235 0
717 -716 235 0
717 716 -235 0
-718 717 240 0
-718 -717 -240 0
718 -717 240 0
718 717 -240 0
-718 0
-719 63 75 0
-719 -63 -75 0
719 -63 75 0
719 63 -75 0
-720 719 96 0
-720 -719 -96 0
720 -719 96 0
720 719 -96 0
-721 720 195 0
-721 -720 -195 0
721 -720 195 0
721 720 -195 0
-722 721 229 0
-722 -721 -229 0
722 -721 229 0
722 721 -229 0
-723 722 236 0
-723 -722 -236 0
723 -722 236 0
723 722 -236 0
-723 0
-724 64 76 0
-724 -64 -76 0
724 -64 76 0
724 64 -76 0
-725 724 85 0
-725 -724 -85 0
725 -724 85 0
725 724 -85 0
-726 725 196 0
-726 -725 -196 0
726 -725 196 0
726 725 -196 0
-727 726 230 0
-727 -726 -230 0
727 -726 230 0
727 726 -230 0
-728 727 237 0
-728 -727 -237 0
728 -727 237 0
728 727 -237 0
-728 0
-729 65 77 0
-729 -65 -77 0
729 -65 77 0
729 65 -77 0
-730 729 86 0
-730 -729 -86 0
730 -729 86 0
730 729 -86 0
-731 730 197 0
-731 -730 -197 0
731 -730 197 0
731 730 -197 0
-732 731 231 0
-732 -731 -231 0
732 -731 231 0
732 731 -231 0
-733 732 238 0
-733 -732 -238 0
733 -732 238 0
733 732 -238 0
-733 0
-734 66 78 0
-734 -66 -78 0
734 -66 78 0
734 66 -78 0
-735 734 87 0
-735 -734 -87 0
735 -734 87 0
735 734 -87 0
-736 735 198 0
-736 -735 -198 0
736 -735 198 0
736 735 -198 0
-737 736 232 0
-737 -736 -232 0
737 -736 232 0
737 736 -232 0
-738 737 239 0
-738 -737 -239 0
738 -737 239 0
738 737 -239 0
-738 0
-739 67 79 0
-739 -67 -79 0
739 -67 79 0
739 67 -79 0
-740 739 88 0
-740 -739 -88 0
740 -739 88 0
740 739 -88 0
-741 740 199 0
-741 -740 -199 0
741 -740 199 0
741 740 -199 0
-742 741 233 0
-742 -741 -233 0
742 -741 233 0
742 741 -233 0
-743 742 240 0
-743 -742 -240 0
743 -742 240 0
743 742 -240 0
-743 0
-744 68 80 0
-744 -68 -80 0
744 -68 80 0
744 68 -80 0
-745 744 89 0
-745 -744 -89 0
745 -744 89 0
745 744 -89 0
-746 745 200 0
-746 -745 -200 0
746 -745 200 0
746 745 -200 0
-747 746 229 0
-747 -746 -229 0
747 -746 229 0
747 746 -229 0
-748 747 234 0
-748 -747 -234 0
748 -747 234 0
748 747 -234 0
-748 0
-749 69 81 0
-749 -69 -81 0
749 -69 81 0
749 69 -81 0
-750 749 90 0
-750 -749 -90 0
750 -749 90 0
750 749 -90 0
-751 750 201 0
-751 -750 -201 0
751 -750 201 0
751 750 -201 0
-752 751 230 0
-752 -751 -230 0
752 -751 230 0
752 751 -230 0
-753 752 235 0
-753 -752 -235 0
753 -752 235 0
753 752 -235 0
-753 0
-754 70 82 0
-754 -70 -82 0
754 -70 82 0
754 70 -82 0
-755 754 91 0
-755 -754 -91 0
755 -754 91 0
755 754 -91 0
-756 755 202 0
-756 -755 -202 0
756 -755 202 0
756 755 -202 0
-757 756 231 0
-757 -756 -231 0
757 -756 231 0
757 756 -231 0
-758 757 236 0
-758 -757 -236 0
758 -757 236 0
758 757 -236 0
-758 0
-759 71 83 0
-759 -71 -83 0
759 -71 83 0
759 71 -83 0
-760 759 92 0
-760 -759 -92 0
760 -759 92 0
760 759 -92 0
-761 760 203 0
-761 -760 -203 0
761 -760 203 0
761 760 -203 0
-762 761 232 0
-762 -761 -232 0
762 -761 232 0
762 761 -232 0
-763 762 237 0
-763 -762 -237 0
763 -762 237 0
763 762 -237 0
-763 0
-764 72 84 0
-764 -72 -84 0
764 -72 84 0
764 72 -84 0
-765 764 93 0
-765 -764 -93 0
765 -764 93 0
765 764 -93 0
-766 765 204 0
-766 -765 -204 0
766 -765 204 0
766 765 -204 0
-767 766 233 0
-767 -766 -233 0
767 -766 233 0
767 766 -233 0
-768 767 238 0
-768 -767 -238 0
768 -767 238 0
768 767 -238 0
-768 0
-769 73 85 0
-769 -73 -85 0
769 -73 85 0
769 73 -85 0
-770 769 106 0
-770 -769 -106 0
770 -769 106 0
770 769 -106 0
-771 770 205 0
-771 -770 -205 0
771 -770 205 0
771 770 -205 0
-772 771 246 0
-772 -771 -246 0
772 -771 246 0
772 771 -246 0
-773 772 251 0
-773 -772 -251 0
773 -772 251 0
773 772 -251 0
-773 0
-774 74 86 0
-774 -74 -86 0
774 -74 86 0
774 74 -86 0
-775 774 107 0
-775 -774 -107 0
775 -774 107 0
775 774 -107 0
-776 775 206 0
-776 -775 -206 0
776 -775 206 0
776 775 -206 0
-777 776 247 0
-777 -776 -247 0
777 -776 247 0
777 776 -247 0
-778 777 252 0
-778 -777 -252 0
778 -777 252 0
778 777 -252 0
-778 0
-779 75 87 0
-779 -75 -87 0
779 -75 87 0
779 75 -87 0
-780 779 108 0
-780 -779 -108 0
780 -779 108 0
780 779 -108 0
-781 780 207 0
-781 -780 -207 0
781 -780 207 0
781 780 -207 0
-782 781 241 0
-782 -781 -241 0
782 -781 241 0
782 781 -241 0
-783 782 248 0
-783 -782 -248 0
783 -782 248 0
783 782 -248 0
-783 0
-784 76 88 0
-784 -76 -88 0
784 -76 88 0
784 76 -88 0
-785 784 97 0
-785 -784 -97 0
785 -784 97 0
785 784 -97 0
-786 785 208 0
-786 -785 -208 0
786 -785 208 0
786 785 -208 0
-787 786 242 0
-787 -786 -242 0
787 -786 242 0
787 786 -242 0
-788 787 249 0
-788 -787 -249 0
788 -787 249 0
788 787 -249 0
-788 0
-789 77 89 0
-789 -77 -89 0
789 -77 89 0
789 77 -89 0
-790 789 98 0
-790 -789 -98 0
790 -789 98 0
790 789 -98 0
-791 790 209 0
-791 -790 -209 0
791 -790 209 0
791 790 -209 0
-792 791 243 0
-792 -791 -243 0
792 -791 243 0
792 791 -243 0
-793 792 250 0
-793 -792 -250 0
793 -792 250 0
793 792 -250 0
-793 0
-794 78 90 0
-794 -78 -90 0
794 -78 90 0
794 78 -90 0
-795 794 99 0
-795 -794 -99 0
795 -794 99 0
795 794 -99 0
-796 795 210 0
-796 -795 -210 0
796 -795 210 0
796 795 -210 0
-797 796 244 0
-797 -796 -244 0
797 -796 244 0
797 796 -244 0
-798 797 251 0
-798 -797 -251 0
798 -797 251 0
798 797 -251 0
-798 0
-799 79 91 0
-799 -79 -91 0
799 -79 91 0
799 79 -91 0
-800 799 100 0
-800 -799 -100 0
800 -799 100 0
800 799 -100 0
-801 800 211 0
-801 -800 -211 0
801 -800 211 0
801 800 -211 0
-802 801 245 0
-802 -801 -245 0
802 -801 245 0
802 801 -245 0
-803 802 252 0
-803 -802 -252 0
803 -802 252 0
803 802 -252 0
-803 0
-804 80 92 0
-804 -80 -92 0
804 -80 92 0
804 80 -92 0
-805 804 101 0
-805 -804 -101 0
805 -804 101 0
805 804 -101 0
-806 805 212 0
-806 -805 -212 0
806 -805 212 0
806 805 -212 0
-807 806 241 0
-807 -806 -241 0
807 -806 241 0
807 806 -241 0
-808 807 246 0
-808 -807 -246 0
808 -807 246 0
808 807 -246 0
-808 0
-809 81 93 0
-809 -81 -93 0
809 -81 93 0
809 81 -93 0
-810 809 102 0
-810 -809 -102 0
810 -809 102 0
810 809 -102 0
-811 810 213 0
-811 -810 -213 0
811 -810 213 0
811 810 -213 0
-812 811 242 0
-812 -811 -242 0
812 -811 242 0
812 811 -242 0
-813 812 247 0
-813 -812 -247 0
813 -812 247 0
813 812 -247 0
-813 0
-814 82 94 0
-814 -82 -94 0
814 -82 94 0
814 82 -94 0
-815 814 103 0
-815 -814 -103 0
815 -814 103 0
815 814 -103 0
-816 815 214 0
-816 -815 -214 0
816 -815 214 0
816 815 -214 0
-817 816 243 0
-817 -816 -243 0
817 -816 243 0
817 816 -243 0
-818 817 248 0
-818 -817 -248 0
818 -817 248 0
818 817 -248 0
-818 0
-819 83 95 0
-819 -83 -95 0
819 -83 95 0
819 83 -95 0
-820 819 104 0
-820 -819 -104 0
820 -819 104 0
820 819 -104 0
-821 820 215 0
-821 -820 -215 0
821 -820 215 0
821 820 -215 0
-822 821 244 0
-822 -821 -244 0
822 -821 244 0
822 821 -244 0
-823 822 249 0
-823 -822 -249 0
823 -822 249 0
823 822 -249 0
-823 0
-824 84 96 0
-824 -84 -96 0
824 -84 96 0
824 84 -96 0
-825 824 105 0
-825 -824 -105 0
825 -824 105 0
825 824 -105 0
-826 825 216 0
-826 -825 -216 0
826 -825 216 0
826 825 -216 0
-827 826 245 0
-827 -826 -245 0
827 -826 245 0
827 826 -245 0
-828 827 250 0
-828 -827 -250 0
828 -827 250 0
828 827 -250 0
-828 0
-829 85 97 0
-829 -85 -97 0
829 -85 97 0
829 85 -97 0
-830 829 118 0
-830 -829 -118 0
830 -829 118 0
830 829 -118 0
-831 830 217 0
-831 -830 -217 0
831 -830 217 0
831 830 -217 0
-832 831 258 0
-832 -831 -258 0
832 -831 258 0
832 831 -258 0
-833 832 263 0
-833 -832 -263 0
833 -832 263 0
833 832 -263 0
-833 0
-834 86 98 0
-834 -86 -98 0
834 -86 98 0
834 86 -98 0
-835 834 119 0
-835 -834 -119 0
835 -834 119 0
835 834 -119 0
-836 835 218 0
-836 -835 -218 0
836 -835 218 0
836 835 -218 0
-837 836 259 0
-837 -836 -259 0
837 -836 259 0
837 836 -259 0
-838 837 264 0
-838 -837 -264 0
838 -837 264 0
838 837 -264 0
-838 0
-839 87 99 0
-839 -87 -99 0
839 -87 99 0
839 87 -99 0
-840 839 120 0
-840 -839 -120 0
840 -839 120 0
840 839 -120 0
-841 840 219 0
-841 -840 -219 0
841 -840 219 0
841 840 -219 0
-842 841 253 0
-842 -841 -253 0
842 -841 253 0
842 841 -253 0
-843 842 260 0
-843 -842 -260 0
843 -842 260 0
843 842 -260 0
-843 0
-844 88 100 0
-844 -88 -100 0
844 -88 100 0
844 88 -100 0
-845 844 109 0
-845 -844 -109 0
845 -844 109 0
845 844 -109 0
-846 845 220 0
-846 -845 -220 0
846 -845 220 0
846 845 -220 0
-847 846 254 0
-847 -846 -254 0
847 -846 254 0
847 846 -254 0
-848 847 261 0
-848 -847 -261 0
848 -847 261 0
848 847 -261 0
-848 0
-849 89 101 0
-849 -89 -101 0
849 -89 101 0
849 89 -101 0
-850 849 110 0
-850 -849 -110 0
850 -849 110 0
850 849 -110 0
-851 850 221 0
-851 -850 -221 0
851 -850 221 0
851 850 -221 0
-852 851 255 0
-852 -851 -255 0
852 -851 255 0
852 851 -255 0
-853 852 262 0
-853 -852 -262 0
853 -852 262 0
853 852 -262 0
-853 0
-854 90 102 0
-854 -90 -102 0
854 -90 102 0
854 90 -102 0
-855 854 111 0
-855 -854 -111 0
855 -854 111 0
855 854 -111 0
-856 855 222 0
-856 -855 -222 0
856 -855 222 0
856 855 -222 0
-857 856 256 0
-857 -856 -256 0
857 -856 256 0
857 856 -256 0
-858 857 263 0
-858 -857 -263 0
858 -857 263 0
858 857 -263 0
-858 0
-859 91 103 0
-859 -91 -103 0
859 -91 103 0
859 91 -103 0
-860 859 112 0
-860 -859 -112 0
860 -859 112 0
860 859 -112 0
-861 860 223 0
-861 -860 -223 0
861 -860 223 0
861 860 -223 0
-862 861 257 0
-862 -861 -257 0
862 -861 257 0
862 861 -257 0
-863 862 264 0
-863 -862 -264 0
863 -862 264 0
863 862 -264 0
-863 0
-864 92 104 0
-864 -92 -104 0
864 -92 104 0
864 92 -104 0
-865 864 113 0
-865 -864 -113 0
865 -864 113 0
865 864 -113 0
-866 865 224 0
-866 -865 -224 0
866 -865 224 0
866 865 -224 0
-867 866 253 0
-867 -866 -253 0
867 -866 253 0
867 866 -253 0
-868 867 258 0
-868 -867 -258 0
868 -867 258 0
868 867 -258 0
-868 0
-869 93 105 0
-869 -93 -105 0
869 -93 105 0
869 93 -105 0
-870 869 114 0
-870 -869 -114 0
870 -869 114 0
870 869 -114 0
-871 870 225 0
-871 -870 -225 0
871 -870 225 0
871 870 -225 0
-872 871 254 0
-872 -871 -254 0
872 -871 254 0
872 871 -254 0
-873 872 259 0
-873 -872 -259 0
873 -872 259 0
873 872 -259 0
-873 0
-874 94 106 0
-874 -94 -106 0
874 -94 106 0
874 94 -106 0
-875 874 115 0
-875 -874 -115 0
875 -874 115 0
875 874 -115 0
-876 875 226 0
-876 -875 -226 0
876 -875 226 0
876 875 -226 0
-877 876 255 0
-877 -876 -255 0
877 -876 255 0
877 876 -255 0
-878 877 260 0
-878 -877 -260 0
878 -877 260 0
878 877 -260 0
-878 0
-879 95 107 0
-879 -95 -107 0
879 -95 107 0
879 95 -107 0
-880 879 116 0
-880 -879 -116 0
880 -879 116 0
880 879 -116 0
-881 880 227 0
-881 -880 -227 0
881 -880 227 0
881 880 -227 0
-882 881 256 0
-882 -881 -256 0
882 -881 256 0
882 881 -256 0
-883 882 261 0
-883 -882 -261 0
883 -882 261 0
883 882 -261 0
-883 0
-884 96 108 0
-884 -96 -108 0
884 -96 108 0
884 96 -108 0
-885 884 117 0
-885 -884 -117 0
885 -884 117 0
885 884 -117 0
-886 885 228 0
-886 -885 -228 0
886 -885 228 0
886 885 -228 0
-887 886 257 0
-887 -886 -257 0
887 -886 257 0
887 886 -257 0
-888 887 262 0
-888 -887 -262 0
888 -887 262 0
888 887 -262 0
-888 0
-889 97 109 0
-889 -97 -109 0
889 -97 109 0
889 97 -109 0
-890 889 130 0
-890 -889 -130 0
890 -889 130 0
890 889 -130 0
-891 890 229 0
-891 -890 -229 0
891 -890 229 0
891 890 -229 0
-892 891 270 0
-892 -891 -270 0
892 -891 270 0
892 891 -270 0
-893 892 275 0
-893 -892 -275 0
893 -892 275 0
893 892 -275 0
-893 0
-894 98 110 0
-894 -98 -110 0
894 -98 110 0
894 98 -110 0
-895 894 131 0
-895 -894 -131 0
895 -894 131 0
895 894 -131 0
-896 895 230 0
-896 -895 -230 0
896 -895 230 0
896 895 -230 0
-897 896 271 0
-897 -896 -271 0
897 -896 271 0
897 896 -271 0
-898 897 276 0
-898 -897 -276 0
898 -897 276 0
898 897 -276 0
-898 0
-899 99 111 0
-899 -99 -111 0
899 -99 111 0
899 99 -111 0
-900 899 132 0
-900 -899 -132 0
900 -899 132 0
900 899 -132 0
-901 900 231 0
-901 -900 -231 0
901 -900 231 0
901 900 -231 0
-902 901 265 0
-902 -901 -265 0
902 -901 265 0
902 901 -265 0
-903 902 272 0
-903 -902 -272 0
903 -902 272 0
903 902 -272 0
-903 0
-904 100 112 0
-904 -100 -112 0
904 -100 112 0
904 100 -112 0
-905 904 121 0
-905 -904 -121 0
905 -904 121 0
905 904 -121 0
-906 905 232 0
-906 -905 -232 0
906 -905 232 0
906 905 -232 0
-907 906 266 0
-907 -906 -266 0
907 -906 266 0
907 906 -266 0
-908 907 273 0
-908 -907 -273 0
908 -907 273 0
908 907 -273 0
-908 0
-909 101 113 0
-909 -101 -113 0
909 -101 113 0
909 101 -113 0
-910 909 122 0
-910 -909 -122 0
910 -909 122 0
910 909 -122 0
-911 910 233 0
-911 -910 -233 0
911 -910 233 0
911 910 -233 0
-912 911 267 0
-912 -911 -267 0
912 -911 267 0
912 911 -267 0
-913 912 274 0
-913 -912 -274 0
913 -912 274 0
913 912 -274 0
-913 0
-914 102 114 0
-914 -102 -114 0
914 -102 114 0
914 102 -114 0
-915 914 123 0
-915 -914 -123 0
915 -914 123 0
915 914 -123 0
-916 915 234 0
-916 -915 -234 0
916 -915 234 0
916 915 -234 0
-917 916 268 0
-917 -916 -268 0
917 -916 268 0
917 916 -268 0
-918 917 275 0
-918 -917 -275 0
918 -917 275 0
918 917 -275 0
-918 0
-919 103 115 0
-919 -103 -115 0
919 -103 115 0
919 103 -115 0
-920 919 124 0
-920 -919 -124 0
920 -919 124 0
920 919 -124 0
-921 920 235 0
-921 -920 -235 0
921 -920 235 0
921 920 -235 0
-922 921 269 0
-922 -921 -269 0
922 -921 269 0
922 921 -269 0
-923 922 276 0
-923 -922 -276 0
923 -922 276 0
923 922 -276 0
-923 0
-924 104 116 0
-924 -104 -116 0
924 -104 116 0
924 104 -116 0
-925 924 125 0
-925 -924 -125 0
925 -924 125 0
925 924 -125 0
-926 925 236 0
-926 -925 -236 0
926 -925 236 0
926 925 -236 0
-927 926 265 0
-927 -926 -265 0
927 -926 265 0
927 926 -265 0
-928 927 270 0
-928 -927 -270 0
928 -927 270 0
928 927 -270 0
-928 0
-929 105 117 0
-929 -105 -117 0
929 -105 117 0
929 105 -117 0
-930 929 126 0
-930 -929 -126 0
930 -929 126 0
930 929 -126 0
-931 930 237 0
-931 -930 -237 0
931 -930 237 0
931 930 -237 0
-932 931 266 0
-932 -931 -266 0
932 -931 266 0
932 931 -266 0
-933 932 271 0
-933 -932 -271 0
933 -932 271 0
933 932 -271 0
-933 0
-934 106 118 0
-934 -106 -118 0
934 -106 118 0
934 106 -118 0
-935 934 127 0
-935 -934 -127 0
935 -934 127 0
935 934 -127 0
-936 935 238 0
-936 -935 -238 0
936 -935 238 0
936 935 -238 0
-937 936 267 0
-937 -936 -267 0
937 -936 267 0
937 936 -267 0
-938 937 272 0
-938 -937 -272 0
938 -937 272 0
938 937 -272 0
-938 0
-939 107 119 0
-939 -107 -119 0
939 -107 119 0
939 107 -119 0
-940 939 128 0
-940 -939 -128 0
940 -939 128 0
940 939 -128 0
-941 940 239 0
-941 -940 -239 0
941 -940 239 0
941 940 -239 0
-942 941 268 0
-942 -941 -268 0
942 -941 268 0
942 941 -268 0
-943 942 273 0
-943 -942 -273 0
943 -942 273 0
943 942 -273 0
-943 0
-944 108 120 0
-944 -108 -120 0
944 -108 120 0
944 108 -120 0
-945 944 129 0
-945 -944 -129 0
945 -944 129 0
945 944 -129 0
-946 945 240 0
-946 -945 -240 0
946 -945 240 0
946 945 -240 0
-947 946 269 0
-947 -946 -269 0
947 -946 269 0
947 946 -269 0
-948 947 274 0
-948 -947 -274 0
948 -947 274 0
948 947 -274 0
-948 0
-949 109 121 0
-949 -109 -121 0
949 -109 121 0
949 109 -121 0
-950 949 142 0
-950 -949 -142 0
950 -949 142 0
950 949 -142 0
-951 950 241 0
-951 -950 -241 0
951 -950 241 0
951 950 -241 0
-952 951 282 0
-952 -951 -282 0
952 -951 282 0
952 951 -282 0
-953 952 287 0
-953 -952 -287 0
953 -952 287 0
953 952 -287 0
-953 0
-954 110 122 0
-954 -110 -122 0
954 -110 122 0
954 110 -122 0
-955 954 143 0
-955 -954 -143 0
955 -954 143 0
955 954 -143 0
-956 955 242 0
-956 -955 -242 0
956 -955 242 0
956 955 -242 0
-957 956 283 0
-957 -956 -283 0
957 -956 283 0
957 956 -283 0
-958 957 288 0
-958 -957 -288 0
958 -957 288 0
958 957 -288 0
-958 0
-959 111 123 0
-959 -111 -123 0
959 -111 123 0
959 111 -123 0
-960 959 144 0
-960 -959 -144 0
960 -959 144 0
960 959 -144 0
-961 960 243 0
-961 -960 -243 0
961 -960 243 0
961 960 -243 0
-962 961 277 0
-962 -961 -277 0
962 -961 277 0
962 961 -277 0
-963 962 284 0
-963 -962 -284 0
963 -962 284 0
963 962 -284 0
-963 0
-964 112 124 0
-964 -112 -124 0
964 -112 124 0
964 112 -124 0
-965 964 133 0
-965 -964 -133 0
965 -964 133 0
965 964 -133 0
-966 965 244 0
-966 -965 -244 0
966 -965 244 0
966 965 -244 0
-967 966 278 0
-967 -966 -278 0
967 -966 278 0
967 966 -278 0
-968 967 285 0
-968 -967 -285 0
968 -967 285 0
968 967 -285 0
-968 0
-969 113 125 0
-969 -113 -125 0
969 -113 125 0
969 113 -125 0
-970 969 134 0
-970 -969 -134 0
970 -969 134 0
970 969 -134 0
-971 970 245 0
-971 -970 -245 0
971 -970 245 0
971 970 -245 0
-972 971 279 0
-972 -971 -279 0
972 -971 279 0
972 971 -279 0
-973 972 286 0
-973 -972 -286 0
973 -972 286 0
973 972 -286 0
-973 0
-974 114 126 0
-974 -114 -126 0
974 -114 126 0
974 114 -126 0
-975 974 135 0
-975 -974 -135 0
975 -974 135 0
975 974 -135 0
-976 975 246 0
-976 -975 -246 0
976 -975 246 0
976 975 -246 0
-977 976 280 0
-977 -976 -280 0
977 -976 280 0
977 976 -280 0
-978 977 287 0
-978 -977 -287 0
978 -977 287 0
978 977 -287 0
-978 0
-979 115 127 0
-979 -115 -127 0
979 -115 127 0
979 115 -127 0
-980 979 136 0
-980 -979 -136 0
980 -979 136 0
980 979 -136 0
-981 980 247 0
-981 -980 -247 0
981 -980 247 0
981 980 -247 0
-982 981 281 0
-982 -981 -281 0
982 -981 281 0
982 981 -281 0
-983 982 288 0
-983 -982 -288 0
983 -982 288 0
983 982 -288 0
-983 0
-984 116 128 0
-984 -116 -128 0
984 -116 128 0
984 116 -128 0
-985 984 137 0
-985 -984 -137 0
985 -984 137 0
985 984 -137 0
-986 985 248 0
-986 -985 -248 0
986 -985 248 0
986 985 -248 0
-987 986 277 0
-987 -986 -277 0
987 -986 277 0
987 986 -277 0
-988 987 282 0
-988 -987 -282 0
988 -987 282 0
988 987 -282 0
-988 0
-989 117 129 0
-989 -117 -129 0
989 -117 129 0
989 117 -129 0
-990 989 138 0
-990 -989 -138 0
990 -989 138 0
990 989 -138 0
-991 990 249 0
-991 -990 -249 0
991 -990 249 0
991 990 -249 0
-992 991 278 0
-992 -991 -278 0
992 -991 278 0
992 991 -278 0
-993 992 283 0
-993 -992 -283 0
993 -992 283 0
993 992 -283 0
-993 0
-994 118 130 0
-994 -118 -130 0
994 -118 130 0
994 118 -130 0
-995 994 139 0
-995 -994 -139 0
995 -994 139 0
995 994 -139 0
-996 995 250 0
-996 -995 -250 0
996 -995 250 0
996 995 -250 0
-997 996 279 0
-997 -996 -279 0
997 -996 279 0
997 996 -279 0
-998 997 284 0
-998 -997 -284 0
998 -997 284 0
998 997 -284 0
-998 0
-999 119 131 0
-999 -119 -131 0
999 -119 131 0
999 119 -131 0
-1000 999 140 0
-1000 -999 -140 0
1000 -999 140 0
1000 999 -140 0
-1001 1000 251 0
-1001 -1000 -251 0
1001 -1000 251 0
1001 1000 -251 0
-1002 1001 280 0
-1002 -1001 -280 0
1002 -1001 280 0
1002 1001 -280 0
-1003 1002 285 0
-1003 -1002 -285 0
1003 -1002 285 0
1003 1002 -285 0
-1003 0
-1004 120 132 0
-1004 -120 -132 0
1004 -120 132 0
1004 120 -132 0
-1005 1004 141 0
-1005 -1004 -141 0
1005 -1004 141 0
1005 1004 -141 0
-1006 1005 252 0
-1006 -1005 -252 0
1006 -1005 252 0
1006 1005 -252 0
-1007 1006 281 0
-1007 -1006 -281 0
1007 -1006 281 0
1007 1006 -281 0
-1008 1007 286 0
-1008 -1007 -286 0
1008 -1007 286 0
1008 1007 -286 0
-1008 0
-1009 3 6 0
-1009 -3 -6 0
1009 -3 6 0
1009 3 -6 0
-1010 1009 10 0
-1010 -1009 -10 0
1010 -1009 10 0
1010 1009 -10 0
-1011 1010 11 0
-1011 -1010 -11 0
1011 -1010 11 0
1011 1010 -11 0
-1012 1011 37 0
-1012 -1011 -37 0
1012 -1011 37 0
1012 1011 -37 0
-1013 1012 39 0
-1013 -1012 -39 0
1013 -1012 39 0
1013 1012 -39 0
-1014 1013 45 0
-1014 -1013 -45 0
1014 -1013 45 0
1014 1013 -45 0
-1015 1014 47 0
-1015 -1014 -47 0
1015 -1014 47 0
1015 1014 -47 0
-1016 1015 73 0
-1016 -1015 -73 0
1016 -1015 73 0
1016 1015 -73 0
-1017 1016 74 0
-1017 -1016 -74 0
1017 -1016 74 0
1017 1016 -74 0
-1018 1017 76 0
-1018 -1017 -76 0
1018 -1017 76 0
1018 1017 -76 0
-1019 1018 78 0
-1019 -1018 -78 0
1019 -1018 78 0
1019 1018 -78 0
-1020 1019 79 0
-1020 -1019 -79 0
1020 -1019 79 0
1020 1019 -79 0
-1021 1020 80 0
-1021 -1020 -80 0
1021 -1020 80 0
1021 1020 -80 0
-1022 1021 81 0
-1022 -1021 -81 0
1022 -1021 81 0
1022 1021 -81 0
-1023 1022 83 0
-1023 -1022 -83 0
1023 -1022 83 0
1023 1022 -83 0
-1024 1023 109 0
-1024 -1023 -109 0
1024 -1023 109 0
1024 1023 -109 0
-1025 1024 113 0
-1025 -1024 -113 0
1025 -1024 113 0
1025 1024 -113 0
-1026 4 7 0
-1026 -4 -7 0
1026 -4 7 0
1026 4 -7 0
-1027 1026 11 0
-1027 -1026 -11 0
1027 -1026 11 0
1027 1026 -11 0
-1028 1027 12 0
-1028 -1027 -12 0
1028 -1027 12 0
1028 1027 -12 0
-1029 1028 38 0
-1029 -1028 -38 0
1029 -1028 38 0
1029 1028 -38 0
-1030 1029 40 0
-1030 -1029 -40 0
1030 -1029 40 0
1030 1029 -40 0
-1031 1030 46 0
-1031 -1030 -46 0
1031 -1030 46 0
1031 1030 -46 0
-1032 1031 48 0
-1032 -1031 -48 0
1032 -1031 48 0
1032 1031 -48 0
-1033 1032 74 0
-1033 -1032 -74 0
1033 -1032 74 0
1033 1032 -74 0
-1034 1033 75 0
-1034 -1033 -75 0
1034 -1033 75 0
1034 1033 -75 0
-1035 1034 77 0
-1035 -1034 -77 0
1035 -1034 77 0
1035 1034 -77 0
-1036 1035 79 0
-1036 -1035 -79 0
1036 -1035 79 0
1036 1035 -79 0
-1037 1036 80 0
-1037 -1036 -80 0
1037 -1036 80 0
1037 1036 -80 0
-1038 1037 81 0
-1038 -1037 -81 0
1038 -1037 81 0
1038 1037 -81 0
-1039 1038 82 0
-1039 -1038 -82 0
1039 -1038 82 0
1039 1038 -82 0
-1040 1039 84 0
-1040 -1039 -84 0
1040 -1039 84 0
1040 1039 -84 0
-1041 1040 110 0
-1041 -1040 -110 0
1041 -1040 110 0
1041 1040 -110 0
-1042 1041 114 0
-1042 -1041 -114 0
1042 -1041 114 0
1042 1041 -114 0
-1043 1 5 0
-1043 -1 -5 0
1043 -1 5 0
1043 1 -5 0
-1044 1043 8 0
-1044 -1043 -8 0
1044 -1043 8 0
1044 1043 -8 0
-1045 1044 12 0
-1045 -1044 -12 0
1045 -1044 12 0
1045 1044 -12 0
-1046 1045 37 0
-1046 -1045 -37 0
1046 -1045 37 0
1046 1045 -37 0
-1047 1046 39 0
-1047 -1046 -39 0
1047 -1046 39 0
1047 1046 -39 0
-1048 1047 41 0
-1048 -1047 -41 0
1048 -1047 41 0
1048 1047 -41 0
-1049 1048 47 0
-1049 -1048 -47 0
1049 -1048 47 0
1049 1048 -47 0
-1050 1049 73 0
-1050 -1049 -73 0
1050 -1049 73 0
1050 1049 -73 0
-1051 1050 75 0
-1051 -1050 -75 0
1051 -1050 75 0
1051 1050 -75 0
-1052 1051 76 0
-1052 -1051 -76 0
1052 -1051 76 0
1052 1051 -76 0
-1053 1052 78 0
-1053 -1052 -78 0
1053 -1052 78 0
1053 1052 -78 0
-1054 1053 80 0
-1054 -1053 -80 0
1054 -1053 80 0
1054 1053 -80 0
-1055 1054 81 0
-1055 -1054 -81 0
1055 -1054 81 0
1055 1054 -81 0
-1056 1055 82 0
-1056 -1055 -82 0
1056 -1055 82 0
1056 1055 -82 0
-1057 1056 83 0
-1057 -1056 -83 0
1057 -1056 83 0
1057 1056 -83 0
-1058 1057 111 0
-1058 -1057 -111 0
1058 -1057 111 0
1058 1057 -111 0
-1059 1058 115 0
-1059 -1058 -115 0
1059 -1058 115 0
1059 1058 -115 0
-1060 1 2 0
-1060 -1 -2 0
1060 -1 2 0
1060 1 -2 0
-1061 1060 6 0
-1061 -1060 -6 0
1061 -1060 6 0
1061 1060 -6 0
-1062 1061 9 0
-1062 -1061 -9 0
1062 -1061 9 0
1062 1061 -9 0
-1063 1062 38 0
-1063 -1062 -38 0
1063 -1062 38 0
1063 1062 -38 0
-1064 1063 40 0
-1064 -1063 -40 0
1064 -1063 40 0
1064 1063 -40 0
-1065 1064 42 0
-1065 -1064 -42 0
1065 -1064 42 0
1065 1064 -42 0
-1066 1065 48 0
-1066 -1065 -48 0
1066 -1065 48 0
1066 1065 -48 0
-1067 1066 74 0
-1067 -1066 -74 0
1067 -1066 74 0
1067 1066 -74 0
-1068 1067 76 0
-1068 -1067 -76 0
1068 -1067 76 0
1068 1067 -76 0
-1069 1068 77 0
-1069 -1068 -77 0
1069 -1068 77 0
1069 1068 -77 0
-1070 1069 79 0
-1070 -1069 -79 0
1070 -1069 79 0
1070 1069 -79 0
-1071 1070 81 0
-1071 -1070 -81 0
1071 -1070 81 0
1071 1070 -81 0
-1072 1071 82 0
-1072 -1071 -82 0
1072 -1071 82 0
1072 1071 -82 0
-1073 1072 83 0
-1073 -1072 -83 0
1073 -1072 83 0
1073 1072 -83 0
-1074 1073 84 0
-1074 -1073 -84 0
1074 -1073 84 0
1074 1073 -84 0
-1075 1074 112 0
-1075 -1074 -112 0
1075 -1074 112 0
1075 1074 -112 0
-1076 1075 116 0
-1076 -1075 -116 0
1076 -1075 116 0
1076 1075 -116 0
-1077 15 18 0
-1077 -15 -18 0
1077 -15 18 0
1077 15 -18 0
-1078 1077 22 0
-1078 -1077 -22 0
1078 -1077 22 0
1078 1077 -22 0
-1079 1078 23 0
-1079 -1078 -23 0
1079 -1078 23 0
1079 1078 -23 0
-1080 1079 49 0
-1080 -1079 -49 0
1080 -1079 49 0
1080 1079 -49 0
-1081 1080 51 0
-1081 -1080 -51 0
1081 -1080 51 0
1081 1080 -51 0
-1082 1081 57 0
-1082 -1081 -57 0
1082 -1081 57 0
1082 1081 -57 0
-1083 1082 59 0
-1083 -1082 -59 0
1083 -1082 59 0
1083 1082 -59 0
-1084 1083 85 0
-1084 -1083 -85 0
1084 -1083 85 0
1084 1083 -85 0
-1085 1084 86 0
-1085 -1084 -86 0
1085 -1084 86 0
1085 1084 -86 0
-1086 1085 88 0
-1086 -1085 -88 0
1086 -1085 88 0
1086 1085 -88 0
-1087 1086 90 0
-1087 -1086 -90 0
1087 -1086 90 0
1087 1086 -90 0
-1088 1087 91 0
-1088 -1087 -91 0
1088 -1087 91 0
1088 1087 -91 0
-1089 1088 92 0
-1089 -1088 -92 0
1089 -1088 92 0
1089 1088 -92 0
-1090 1089 93 0
-1090 -1089 -93 0
1090 -1089 93 0
1090 1089 -93 0
-1091 1090 95 0
-1091 -1090 -95 0
1091 -1090 95 0
1091 1090 -95 0
-1092 1091 121 0
-1092 -1091 -121 0
1092 -1091 121 0
1092 1091 -121 0
-1093 1092 125 0
-1093 -1092 -125 0
1093 -1092 125 0
1093 1092 -125 0
-1094 16 19 0
-1094 -16 -19 0
1094 -16 19 0
1094 16 -19 0
-1095 1094 23 0
-1095 -1094 -23 0
1095 -1094 23 0
1095 1094 -23 0
-1096 1095 24 0
-1096 -1095 -24 0
1096 -1095 24 0
1096 1095 -24 0
-1097 1096 50 0
-1097 -1096 -50 0
1097 -1096 50 0
1097 1096 -50 0
-1098 1097 52 0
-1098 -1097 -52 0
1098 -1097 52 0
1098 1097 -52 0
-1099 1098 58 0
-1099 -1098 -58 0
1099 -1098 58 0
1099 1098 -58 0
-1100 1099 60 0
-1100 -1099 -60 0
1100 -1099 60 0
1100 1099 -60 0
-1101 1100 86 0
-1101 -1100 -86 0
1101 -1100 86 0
1101 1100 -86 0
-1102 1101 87 0
-1102 -1101 -87 0
1102 -1101 87 0
1102 1101 -87 0
-1103 1102 89 0
-1103 -1102 -89 0
1103 -1102 89 0
1103 1102 -89 0
-1104 1103 91 0
-1104 -1103 -91 0
1104 -1103 91 0
1104 1103 -91 0
-1105 1104 92 0
-1105 -1104 -92 0
1105 -1104 92 0
1105 1104 -92 0
-1106 1105 93 0
-1106 -1105 -93 0
1106 -1105 93 0
1106 1105 -93 0
-1107 1106 94 0
-1107 -1106 -94 0
1107 -1106 94 0
1107 1106 -94 0
-1108 1107 96 0
-1108 -1107 -96 0
1108 -1107 96 0
1108 1107 -96 0
-1109 1108 122 0
-1109 -1108 -122 0
1109 -1108 122 0
1109 1108 -122 0
-1110 1109 126 0
-1110 -1109 -126 0
1110 -1109 126 0
1110 1109 -126 0
-1111 1 2 0
-1111 -1 -2 0
1111 -1 2 0
1111 1 -2 0
-1112 1111 6 0
-1112 -1111 -6 0
1112 -1111 6 0
1112 1111 -6 0
-1113 1112 7 0
-1113 -1112 -7 0
1113 -1112 7 0
1113 1112 -7 0
-1114 1113 8 0
-1114 -1113 -8 0
1114 -1113 8 0
1114 1113 -8 0
-1115 1114 9 0
-1115 -1114 -9 0
1115 -1114 9 0
1115 1114 -9 0
-1116 1115 11 0
-1116 -1115 -11 0
1116 -1115 11 0
1116 1115 -11 0
-1117 1116 12 0
-1117 -1116 -12 0
1117 -1116 12 0
1117 1116 -12 0
-1118 1117 13 0
-1118 -1117 -13 0
1118 -1117 13 0
1118 1117 -13 0
-1119 1118 16 0
-1119 -1118 -16 0
1119 -1118 16 0
1119 1118 -16 0
-1120 1119 18 0
-1120 -1119 -18 0
1120 -1119 18 0
1120 1119 -18 0
-1121 1120 21 0
-1121 -1120 -21 0
1121 -1120 21 0
1121 1120 -21 0
-1122 1121 24 0
-1122 -1121 -24 0
1122 -1121 24 0
1122 1121 -24 0
-1123 1122 37 0
-1123 -1122 -37 0
1123 -1122 37 0
1123 1122 -37 0
-1124 1123 39 0
-1124 -1123 -39 0
1124 -1123 39 0
1124 1123 -39 0
-1125 1124 42 0
-1125 -1124 -42 0
1125 -1124 42 0
1125 1124 -42 0
-1126 1125 43 0
-1126 -1125 -43 0
1126 -1125 43 0
1126 1125 -43 0
-1127 1126 45 0
-1127 -1126 -45 0
1127 -1126 45 0
1127 1126 -45 0
-1128 1127 47 0
-1128 -1127 -47 0
1128 -1127 47 0
1128 1127 -47 0
-1129 1128 49 0
-1129 -1128 -49 0
1129 -1128 49 0
1129 1128 -49 0
-1130 1129 51 0
-1130 -1129 -51 0
1130 -1129 51 0
1130 1129 -51 0
-1131 1130 53 0
-1131 -1130 -53 0
1131 -1130 53 0
1131 1130 -53 0
-1132 1131 54 0
-1132 -1131 -54 0
1132 -1131 54 0
1132 1131 -54 0
-1133 1132 55 0
-1133 -1132 -55 0
1133 -1132 55 0
1133 1132 -55 0
-1134 1133 57 0
-1134 -1133 -57 0
1134 -1133 57 0
1134 1133 -57 0
-1135 1134 59 0
-1135 -1134 -59 0
1135 -1134 59 0
1135 1134 -59 0
-1136 1135 73 0
-1136 -1135 -73 0
1136 -1135 73 0
1136 1135 -73 0
-1137 1136 74 0
-1137 -1136 -74 0
1137 -1136 74 0
1137 1136 -74 0
-1138 1137 77 0
-1138 -1137 -77 0
1138 -1137 77 0
1138 1137 -77 0
-1139 1138 78 0
-1139 -1138 -78 0
1139 -1138 78 0
1139 1138 -78 0
-1140 1139 79 0
-1140 -1139 -79 0
1140 -1139 79 0
1140 1139 -79 0
-1141 1140 80 0
-1141 -1140 -80 0
1141 -1140 80 0
1141 1140 -80 0
-1142 1141 81 0
-1142 -1141 -81 0
1142 -1141 81 0
1142 1141 -81 0
-1143 1142 84 0
-1143 -1142 -84 0
1143 -1142 84 0
1143 1142 -84 0
-1144 1143 85 0
-1144 -1143 -85 0
1144 -1143 85 0
1144 1143 -85 0
-1145 1144 86 0
-1145 -1144 -86 0
1145 -1144 86 0
1145 1144 -86 0
-1146 1145 87 0
-1146 -1145 -87 0
1146 -1145 87 0
1146 1145 -87 0
-1147 1146 89 0
-1147 -1146 -89 0
1147 -1146 89 0
1147 1146 -89 0
-1148 1147 90 0
-1148 -1147 -90 0
1148 -1147 90 0
1148 1147 -90 0
-1149 1148 91 0
-1149 -1148 -91 0
1149 -1148 91 0
1149 1148 -91 0
-1150 1149 92 0
-1150 -1149 -92 0
1150 -1149 92 0
1150 1149 -92 0
-1151 1150 93 0
-1151 -1150 -93 0
1151 -1150 93 0
1151 1150 -93 0
-1152 1151 94 0
-1152 -1151 -94 0
1152 -1151 94 0
1152 1151 -94 0
-1153 1152 96 0
-1153 -1152 -96 0
1153 -1152 96 0
1153 1152 -96 0
-1154 1153 109 0
-1154 -1153 -109 0
1154 -1153 109 0
1154 1153 -109 0
-1155 1154 110 0
-1155 -1154 -110 0
1155 -1154 110 0
1155 1154 -110 0
-1156 1155 111 0
-1156 -1155 -111 0
1156 -1155 111 0
1156 1155 -111 0
-1157 1156 112 0
-1157 -1156 -112 0
1157 -1156 112 0
1157 1156 -112 0
-1158 1157 122 0
-1158 -1157 -122 0
1158 -1157 122 0
1158 1157 -122 0
-1159 1158 124 0
-1159 -1158 -124 0
1159 -1158 124 0
1159 1158 -124 0
-1160 1159 145 0
-1160 -1159 -145 0
1160 -1159 145 0
1160 1159 -145 0
-1161 1160 146 0
-1161 -1160 -146 0
1161 -1160 146 0
1161 1160 -146 0
-1162 1161 148 0
-1162 -1161 -148 0
1162 -1161 148 0
1162 1161 -148 0
-1163 1162 150 0
-1163 -1162 -150 0
1163 -1162 150 0
1163 1162 -150 0
-1164 1163 151 0
-1164 -1163 -151 0
1164 -1163 151 0
1164 1163 -151 0
-1165 1164 157 0
-1165 -1164 -157 0
1165 -1164 157 0
1165 1164 -157 0
-1166 1165 158 0
-1166 -1165 -158 0
1166 -1165 158 0
1166 1165 -158 0
-1167 1166 160 0
-1167 -1166 -160 0
1167 -1166 160 0
1167 1166 -160 0
-1168 1167 162 0
-1168 -1167 -162 0
1168 -1167 162 0
1168 1167 -162 0
-1169 1168 163 0
-1169 -1168 -163 0
1169 -1168 163 0
1169 1168 -163 0
-1170 14 15 0
-1170 -14 -15 0
1170 -14 15 0
1170 14 -15 0
-1171 1170 16 0
-1171 -1170 -16 0
1171 -1170 16 0
1171 1170 -16 0
-1172 1171 17 0
-1172 -1171 -17 0
1172 -1171 17 0
1172 1171 -17 0
-1173 1172 19 0
-1173 -1172 -19 0
1173 -1172 19 0
1173 1172 -19 0
-1174 1173 21 0
-1174 -1173 -21 0
1174 -1173 21 0
1174 1173 -21 0
-1175 1174 23 0
-1175 -1174 -23 0
1175 -1174 23 0
1175 1174 -23 0
-1176 1175 24 0
-1176 -1175 -24 0
1176 -1175 24 0
1176 1175 -24 0
-1177 1176 38 0
-1177 -1176 -38 0
1177 -1176 38 0
1177 1176 -38 0
-1178 1177 40 0
-1178 -1177 -40 0
1178 -1177 40 0
1178 1177 -40 0
-1179 1178 42 0
-1179 -1178 -42 0
1179 -1178 42 0
1179 1178 -42 0
-1180 1179 44 0
-1180 -1179 -44 0
1180 -1179 44 0
1180 1179 -44 0
-1181 1180 46 0
-1181 -1180 -46 0
1181 -1180 46 0
1181 1180 -46 0
-1182 1181 48 0
-1182 -1181 -48 0
1182 -1181 48 0
1182 1181 -48 0
-1183 1182 50 0
-1183 -1182 -50 0
1183 -1182 50 0
1183 1182 -50 0
-1184 1183 52 0
-1184 -1183 -52 0
1184 -1183 52 0
1184 1183 -52 0
-1185 1184 53 0
-1185 -1184 -53 0
1185 -1184 53 0
1185 1184 -53 0
-1186 1185 56 0
-1186 -1185 -56 0
1186 -1185 56 0
1186 1185 -56 0
-1187 1186 58 0
-1187 -1186 -58 0
1187 -1186 58 0
1187 1186 -58 0
-1188 1187 60 0
-1188 -1187 -60 0
1188 -1187 60 0
1188 1187 -60 0
-1189 1188 73 0
-1189 -1188 -73 0
1189 -1188 73 0
1189 1188 -73 0
-1190 1189 74 0
-1190 -1189 -74 0
1190 -1189 74 0
1190 1189 -74 0
-1191 1190 75 0
-1191 -1190 -75 0
1191 -1190 75 0
1191 1190 -75 0
-1192 1191 76 0
-1192 -1191 -76 0
1192 -1191 76 0
1192 1191 -76 0
-1193 1192 77 0
-1193 -1192 -77 0
1193 -1192 77 0
1193 1192 -77 0
-1194 1193 78 0
-1194 -1193 -78 0
1194 -1193 78 0
1194 1193 -78 0
-1195 1194 79 0
-1195 -1194 -79 0
1195 -1194 79 0
1195 1194 -79 0
-1196 1195 80 0
-1196 -1195 -80 0
1196 -1195 80 0
1196 1195 -80 0
-1197 1196 81 0
-1197 -1196 -81 0
1197 -1196 81 0
1197 1196 -81 0
-1198 1197 82 0
-1198 -1197 -82 0
1198 -1197 82 0
1198 1197 -82 0
-1199 1198 83 0
-1199 -1198 -83 0
1199 -1198 83 0
1199 1198 -83 0
-1200 1199 84 0
-1200 -1199 -84 0
1200 -1199 84 0
1200 1199 -84 0
-1201 1200 85 0
-1201 -1200 -85 0
1201 -1200 85 0
1201 1200 -85 0
-1202 1201 86 0
-1202 -1201 -86 0
1202 -1201 86 0
1202 1201 -86 0
-1203 1202 89 0
-1203 -1202 -89 0
1203 -1202 89 0
1203 1202 -89 0
-1204 1203 90 0
-1204 -1203 -90 0
1204 -1203 90 0
1204 1203 -90 0
-1205 1204 91 0
-1205 -1204 -91 0
1205 -1204 91 0
1205 1204 -91 0
-1206 1205 92 0
-1206 -1205 -92 0
1206 -1205 92 0
1206 1205 -92 0
-1207 1206 93 0
-1207 -1206 -93 0
1207 -1206 93 0
1207 1206 -93 0
-1208 1207 96 0
-1208 -1207 -96 0
1208 -1207 96 0
1208 1207 -96 0
-1209 1208 121 0
-1209 -1208 -121 0
1209 -1208 121 0
1209 1208 -121 0
-1210 1209 122 0
-1210 -1209 -122 0
1210 -1209 122 0
1210 1209 -122 0
-1211 1210 123 0
-1211 -1210 -123 0
1211 -1210 123 0
1211 1210 -123 0
-1212 1211 124 0
-1212 -1211 -124 0
1212 -1211 124 0
1212 1211 -124 0
-1213 1212 145 0
-1213 -1212 -145 0
1213 -1212 145 0
1213 1212 -145 0
-1214 1213 147 0
-1214 -1213 -147 0
1214 -1213 147 0
1214 1213 -147 0
-1215 1214 148 0
-1215 -1214 -148 0
1215 -1214 148 0
1215 1214 -148 0
-1216 1215 149 0
-1216 -1215 -149 0
1216 -1215 149 0
1216 1215 -149 0
-1217 1216 150 0
-1217 -1216 -150 0
1217 -1216 150 0
1217 1216 -150 0
-1218 1217 152 0
-1218 -1217 -152 0
1218 -1217 152 0
1218 1217 -152 0
-1219 1218 157 0
-1219 -1218 -157 0
1219 -1218 157 0
1219 1218 -157 0
-1220 1219 159 0
-1220 -1219 -159 0
1220 -1219 159 0
1220 1219 -159 0
-1221 1220 160 0
-1221 -1220 -160 0
1221 -1220 160 0
1221 1220 -160 0
-1222 1221 161 0
-1222 -1221 -161 0
1222 -1221 161 0
1222 1221 -161 0
-1223 1222 162 0
-1223 -1222 -162 0
1223 -1222 162 0
1223 1222 -162 0
-1224 1223 164 0
-1224 -1223 -164 0
1224 -1223 164 0
1224 1223 -164 0
-1225 2 7 0
-1225 -2 -7 0
1225 -2 7 0
1225 2 -7 0
-1226 1225 9 0
-1226 -1225 -9 0
1226 -1225 9 0
1226 1225 -9 0
-1227 1226 12 0
-1227 -1226 -12 0
1227 -1226 12 0
1227 1226 -12 0
-1228 1227 13 0
-1228 -1227 -13 0
1228 -1227 13 0
1228 1227 -13 0
-1229 1228 14 0
-1229 -1228 -14 0
1229 -1228 14 0
1229 1228 -14 0
-1230 1229 21 0
-1230 -1229 -21 0
1230 -1229 21 0
1230 1229 -21 0
-1231 1230 24 0
-1231 -1230 -24 0
1231 -1230 24 0
1231 1230 -24 0
-1232 1231 27 0
-1232 -1231 -27 0
1232 -1231 27 0
1232 1231 -27 0
-1233 1232 28 0
-1233 -1232 -28 0
1233 -1232 28 0
1233 1232 -28 0
-1234 1233 29 0
-1234 -1233 -29 0
1234 -1233 29 0
1234 1233 -29 0
-1235 1234 30 0
-1235 -1234 -30 0
1235 -1234 30 0
1235 1234 -30 0
-1236 1235 33 0
-1236 -1235 -33 0
1236 -1235 33 0
1236 1235 -33 0
-1237 1236 36 0
-1237 -1236 -36 0
1237 -1236 36 0
1237 1236 -36 0
-1238 1237 42 0
-1238 -1237 -42 0
1238 -1237 42 0
1238 1237 -42 0
-1239 1238 54 0
-1239 -1238 -54 0
1239 -1238 54 0
1239 1238 -54 0
-1240 1239 61 0
-1240 -1239 -61 0
1240 -1239 61 0
1240 1239 -61 0
-1241 1240 62 0
-1241 -1240 -62 0
1241 -1240 62 0
1241 1240 -62 0
-1242 1241 63 0
-1242 -1241 -63 0
1242 -1241 63 0
1242 1241 -63 0
-1243 1242 64 0
-1243 -1242 -64 0
1243 -1242 64 0
1243 1242 -64 0
-1244 1243 65 0
-1244 -1243 -65 0
1244 -1243 65 0
1244 1243 -65 0
-1245 1244 67 0
-1245 -1244 -67 0
1245 -1244 67 0
1245 1244 -67 0
-1246 1245 68 0
-1246 -1245 -68 0
1246 -1245 68 0
1246 1245 -68 0
-1247 1246 69 0
-1247 -1246 -69 0
1247 -1246 69 0
1247 1246 -69 0
-1248 1247 70 0
-1248 -1247 -70 0
1248 -1247 70 0
1248 1247 -70 0
-1249 1248 71 0
-1249 -1248 -71 0
1249 -1248 71 0
1249 1248 -71 0
-1250 1249 72 0
-1250 -1249 -72 0
1250 -1249 72 0
1250 1249 -72 0
-1251 1250 76 0
-1251 -1250 -76 0
1251 -1250 76 0
1251 1250 -76 0
-1252 1251 83 0
-1252 -1251 -83 0
1252 -1251 83 0
1252 1251 -83 0
-1253 1252 88 0
-1253 -1252 -88 0
1253 -1252 88 0
1253 1252 -88 0
-1254 1253 95 0
-1254 -1253 -95 0
1254 -1253 95 0
1254 1253 -95 0
-1255 1254 100 0
-1255 -1254 -100 0
1255 -1254 100 0
1255 1254 -100 0
-1256 1255 107 0
-1256 -1255 -107 0
1256 -1255 107 0
1256 1255 -107 0
-1257 1256 110 0
-1257 -1256 -110 0
1257 -1256 110 0
1257 1256 -110 0
-1258 1257 112 0
-1258 -1257 -112 0
1258 -1257 112 0
1258 1257 -112 0
-1259 1258 122 0
-1259 -1258 -122 0
1259 -1258 122 0
1259 1258 -122 0
-1260 1259 124 0
-1260 -1259 -124 0
1260 -1259 124 0
1260 1259 -124 0
-1261 1260 134 0
-1261 -1260 -134 0
1261 -1260 134 0
1261 1260 -134 0
-1262 1261 136 0
-1262 -1261 -136 0
1262 -1261 136 0
1262 1261 -136 0
-1263 1262 145 0
-1263 -1262 -145 0
1263 -1262 145 0
1263 1262 -145 0
-1264 1263 151 0
-1264 -1263 -151 0
1264 -1263 151 0
1264 1263 -151 0
-1265 1264 157 0
-1265 -1264 -157 0
1265 -1264 157 0
1265 1264 -157 0
-1266 1265 158 0
-1266 -1265 -158 0
1266 -1265 158 0
1266 1265 -158 0
-1267 1266 159 0
-1267 -1266 -159 0
1267 -1266 159 0
1267 1266 -159 0
-1268 1267 160 0
-1268 -1267 -160 0
1268 -1267 160 0
1268 1267 -160 0
-1269 1268 161 0
-1269 -1268 -161 0
1269 -1268 161 0
1269 1268 -161 0
-1270 1269 162 0
-1270 -1269 -162 0
1270 -1269 162 0
1270 1269 -162 0
-1271 1270 169 0
-1271 -1270 -169 0
1271 -1270 169 0
1271 1270 -169 0
-1272 1271 171 0
-1272 -1271 -171 0
1272 -1271 171 0
1272 1271 -171 0
-1273 1272 173 0
-1273 -1272 -173 0
1273 -1272 173 0
1273 1272 -173 0
-1274 2 7 0
-1274 -2 -7 0
1274 -2 7 0
1274 2 -7 0
-1275 1274 9 0
-1275 -1274 -9 0
1275 -1274 9 0
1275 1274 -9 0
-1276 1275 12 0
-1276 -1275 -12 0
1276 -1275 12 0
1276 1275 -12 0
-1277 1276 14 0
-1277 -1276 -14 0
1277 -1276 14 0
1277 1276 -14 0
-1278 1277 16 0
-1278 -1277 -16 0
1278 -1277 16 0
1278 1277 -16 0
-1279 1278 21 0
-1279 -1278 -21 0
1279 -1278 21 0
1279 1278 -21 0
-1280 1279 23 0
-1280 -1279 -23 0
1280 -1279 23 0
1280 1279 -23 0
-1281 1280 24 0
-1281 -1280 -24 0
1281 -1280 24 0
1281 1280 -24 0
-1282 1281 25 0
-1282 -1281 -25 0
1282 -1281 25 0
1282 1281 -25 0
-1283 1282 27 0
-1283 -1282 -27 0
1283 -1282 27 0
1283 1282 -27 0
-1284 1283 28 0
-1284 -1283 -28 0
1284 -1283 28 0
1284 1283 -28 0
-1285 1284 29 0
-1285 -1284 -29 0
1285 -1284 29 0
1285 1284 -29 0
-1286 1285 31 0
-1286 -1285 -31 0
1286 -1285 31 0
1286 1285 -31 0
-1287 1286 35 0
-1287 -1286 -35 0
1287 -1286 35 0
1287 1286 -35 0
-1288 1287 42 0
-1288 -1287 -42 0
1288 -1287 42 0
1288 1287 -42 0
-1289 1288 53 0
-1289 -1288 -53 0
1289 -1288 53 0
1289 1288 -53 0
-1290 1289 54 0
-1290 -1289 -54 0
1290 -1289 54 0
1290 1289 -54 0
-1291 1290 62 0
-1291 -1290 -62 0
1291 -1290 62 0
1291 1290 -62 0
-1292 1291 64 0
-1292 -1291 -64 0
1292 -1291 64 0
1292 1291 -64 0
-1293 1292 65 0
-1293 -1292 -65 0
1293 -1292 65 0
1293 1292 -65 0
-1294 1293 66 0
-1294 -1293 -66 0
1294 -1293 66 0
1294 1293 -66 0
-1295 1294 68 0
-1295 -1294 -68 0
1295 -1294 68 0
1295 1294 -68 0
-1296 1295 70 0
-1296 -1295 -70 0
1296 -1295 70 0
1296 1295 -70 0
-1297 1296 72 0
-1297 -1296 -72 0
1297 -1296 72 0
1297 1296 -72 0
-1298 1297 76 0
-1298 -1297 -76 0
1298 -1297 76 0
1298 1297 -76 0
-1299 1298 83 0
-1299 -1298 -83 0
1299 -1298 83 0
1299 1298 -83 0
-1300 1299 87 0
-1300 -1299 -87 0
1300 -1299 87 0
1300 1299 -87 0
-1301 1300 88 0
-1301 -1300 -88 0
1301 -1300 88 0
1301 1300 -88 0
-1302 1301 94 0
-1302 -1301 -94 0
1302 -1301 94 0
1302 1301 -94 0
-1303 1302 95 0
-1303 -1302 -95 0
1303 -1302 95 0
1303 1302 -95 0
-1304 1303 97 0
-1304 -1303 -97 0
1304 -1303 97 0
1304 1303 -97 0
-1305 1304 98 0
-1305 -1304 -98 0
1305 -1304 98 0
1305 1304 -98 0
-1306 1305 100 0
-1306 -1305 -100 0
1306 -1305 100 0
1306 1305 -100 0
-1307 1306 101 0
-1307 -1306 -101 0
1307 -1306 101 0
1307 1306 -101 0
-1308 1307 102 0
-1308 -1307 -102 0
1308 -1307 102 0
1308 1307 -102 0
-1309 1308 103 0
-1309 -1308 -103 0
1309 -1308 103 0
1309 1308 -103 0
-1310 1309 104 0
-1310 -1309 -104 0
1310 -1309 104 0
1310 1309 -104 0
-1311 1310 105 0
-1311 -1310 -105 0
1311 -1310 105 0
1311 1310 -105 0
-1312 1311 107 0
-1312 -1311 -107 0
1312 -1311 107 0
1312 1311 -107 0
-1313 1312 108 0
-1313 -1312 -108 0
1313 -1312 108 0
1313 1312 -108 0
-1314 1313 110 0
-1314 -1313 -110 0
1314 -1313 110 0
1314 1313 -110 0
-1315 1314 112 0
-1315 -1314 -112 0
1315 -1314 112 0
1315 1314 -112 0
-1316 1315 121 0
-1316 -1315 -121 0
1316 -1315 121 0
1316 1315 -121 0
-1317 1316 122 0
-1317 -1316 -122 0
1317 -1316 122 0
1317 1316 -122 0
-1318 1317 123 0
-1318 -1317 -123 0
1318 -1317 123 0
1318 1317 -123 0
-1319 1318 124 0
-1319 -1318 -124 0
1319 -1318 124 0
1319 1318 -124 0
-1320 1319 133 0
-1320 -1319 -133 0
1320 -1319 133 0
1320 1319 -133 0
-1321 1320 135 0
-1321 -1320 -135 0
1321 -1320 135 0
1321 1320 -135 0
-1322 1321 145 0
-1322 -1321 -145 0
1322 -1321 145 0
1322 1321 -145 0
-1323 1322 148 0
-1323 -1322 -148 0
1323 -1322 148 0
1323 1322 -148 0
-1324 1323 150 0
-1324 -1323 -150 0
1324 -1323 150 0
1324 1323 -150 0
-1325 1324 151 0
-1325 -1324 -151 0
1325 -1324 151 0
1325 1324 -151 0
-1326 1325 152 0
-1326 -1325 -152 0
1326 -1325 152 0
1326 1325 -152 0
-1327 1326 157 0
-1327 -1326 -157 0
1327 -1326 157 0
1327 1326 -157 0
-1328 1327 159 0
-1328 -1327 -159 0
1328 -1327 159 0
1328 1327 -159 0
-1329 1328 161 0
-1329 -1328 -161 0
1329 -1328 161 0
1329 1328 -161 0
-1330 1329 170 0
-1330 -1329 -170 0
1330 -1329 170 0
1330 1329 -170 0
-1331 1330 172 0
-1331 -1330 -172 0
1331 -1330 172 0
1331 1330 -172 0
-1332 1331 174 0
-1332 -1331 -174 0
1332 -1331 174 0
1332 1331 -174 0
-1333 1 6 0
-1333 -1 -6 0
1333 -1 6 0
1333 1 -6 0
-1334 1333 8 0
-1334 -1333 -8 0
1334 -1333 8 0
1334 1333 -8 0
-1335 1334 11 0
-1335 -1334 -11 0
1335 -1334 11 0
1335 1334 -11 0
-1336 1335 19 0
-1336 -1335 -19 0
1336 -1335 19 0
1336 1335 -19 0
-1337 1336 20 0
-1337 -1336 -20 0
1337 -1336 20 0
1337 1336 -20 0
-1338 1337 21 0
-1338 -1337 -21 0
1338 -1337 21 0
1338 1337 -21 0
-1339 1338 24 0
-1339 -1338 -24 0
1339 -1338 24 0
1339 1338 -24 0
-1340 1339 27 0
-1340 -1339 -27 0
1340 -1339 27 0
1340 1339 -27 0
-1341 1340 29 0
-1341 -1340 -29 0
1341 -1340 29 0
1341 1340 -29 0
-1342 1341 30 0
-1342 -1341 -30 0
1342 -1341 30 0
1342 1341 -30 0
-1343 1342 31 0
-1343 -1342 -31 0
1343 -1342 31 0
1343 1342 -31 0
-1344 1343 33 0
-1344 -1343 -33 0
1344 -1343 33 0
1344 1343 -33 0
-1345 1344 35 0
-1345 -1344 -35 0
1345 -1344 35 0
1345 1344 -35 0
-1346 1345 36 0
-1346 -1345 -36 0
1346 -1345 36 0
1346 1345 -36 0
-1347 1346 37 0
-1347 -1346 -37 0
1347 -1346 37 0
1347 1346 -37 0
-1348 1347 39 0
-1348 -1347 -39 0
1348 -1347 39 0
1348 1347 -39 0
-1349 1348 43 0
-1349 -1348 -43 0
1349 -1348 43 0
1349 1348 -43 0
-1350 1349 45 0
-1350 -1349 -45 0
1350 -1349 45 0
1350 1349 -45 0
-1351 1350 47 0
-1351 -1350 -47 0
1351 -1350 47 0
1351 1350 -47 0
-1352 1351 54 0
-1352 -1351 -54 0
1352 -1351 54 0
1352 1351 -54 0
-1353 1352 61 0
-1353 -1352 -61 0
1353 -1352 61 0
1353 1352 -61 0
-1354 1353 62 0
-1354 -1353 -62 0
1354 -1353 62 0
1354 1353 -62 0
-1355 1354 63 0
-1355 -1354 -63 0
1355 -1354 63 0
1355 1354 -63 0
-1356 1355 64 0
-1356 -1355 -64 0
1356 -1355 64 0
1356 1355 -64 0
-1357 1356 67 0
-1357 -1356 -67 0
1357 -1356 67 0
1357 1356 -67 0
-1358 1357 68 0
-1358 -1357 -68 0
1358 -1357 68 0
1358 1357 -68 0
-1359 1358 69 0
-1359 -1358 -69 0
1359 -1358 69 0
1359 1358 -69 0
-1360 1359 70 0
-1360 -1359 -70 0
1360 -1359 70 0
1360 1359 -70 0
-1361 1360 71 0
-1361 -1360 -71 0
1361 -1360 71 0
1361 1360 -71 0
-1362 1361 72 0
-1362 -1361 -72 0
1362 -1361 72 0
1362 1361 -72 0
-1363 1362 73 0
-1363 -1362 -73 0
1363 -1362 73 0
1363 1362 -73 0
-1364 1363 74 0
-1364 -1363 -74 0
1364 -1363 74 0
1364 1363 -74 0
-1365 1364 76 0
-1365 -1364 -76 0
1365 -1364 76 0
1365 1364 -76 0
-1366 1365 77 0
-1366 -1365 -77 0
1366 -1365 77 0
1366 1365 -77 0
-1367 1366 78 0
-1367 -1366 -78 0
1367 -1366 78 0
1367 1366 -78 0
-1368 1367 79 0
-1368 -1367 -79 0
1368 -1367 79 0
1368 1367 -79 0
-1369 1368 80 0
-1369 -1368 -80 0
1369 -1368 80 0
1369 1368 -80 0
-1370 1369 81 0
-1370 -1369 -81 0
1370 -1369 81 0
1370 1369 -81 0
-1371 1370 83 0
-1371 -1370 -83 0
1371 -1370 83 0
1371 1370 -83 0
-1372 1371 84 0
-1372 -1371 -84 0
1372 -1371 84 0
1372 1371 -84 0
-1373 1372 88 0
-1373 -1372 -88 0
1373 -1372 88 0
1373 1372 -88 0
-1374 1373 95 0
-1374 -1373 -95 0
1374 -1373 95 0
1374 1373 -95 0
-1375 1374 99 0
-1375 -1374 -99 0
1375 -1374 99 0
1375 1374 -99 0
-1376 1375 100 0
-1376 -1375 -100 0
1376 -1375 100 0
1376 1375 -100 0
-1377 1376 106 0
-1377 -1376 -106 0
1377 -1376 106 0
1377 1376 -106 0
-1378 1377 107 0
-1378 -1377 -107 0
1378 -1377 107 0
1378 1377 -107 0
-1379 1378 109 0
-1379 -1378 -109 0
1379 -1378 109 0
1379 1378 -109 0
-1380 1379 111 0
-1380 -1379 -111 0
1380 -1379 111 0
1380 1379 -111 0
-1381 1380 122 0
-1381 -1380 -122 0
1381 -1380 122 0
1381 1380 -122 0
-1382 1381 124 0
-1382 -1381 -124 0
1382 -1381 124 0
1382 1381 -124 0
-1383 1382 133 0
-1383 -1382 -133 0
1383 -1382 133 0
1383 1382 -133 0
-1384 1383 134 0
-1384 -1383 -134 0
1384 -1383 134 0
1384 1383 -134 0
-1385 1384 135 0
-1385 -1384 -135 0
1385 -1384 135 0
1385 1384 -135 0
-1386 1385 136 0
-1386 -1385 -136 0
1386 -1385 136 0
1386 1385 -136 0
-1387 1386 146 0
-1387 -1386 -146 0
1387 -1386 146 0
1387 1386 -146 0
-1388 1387 152 0
-1388 -1387 -152 0
1388 -1387 152 0
1388 1387 -152 0
-1389 1388 157 0
-1389 -1388 -157 0
1389 -1388 157 0
1389 1388 -157 0
-1390 1389 159 0
-1390 -1389 -159 0
1390 -1389 159 0
1390 1389 -159 0
-1391 1390 161 0
-1391 -1390 -161 0
1391 -1390 161 0
1391 1390 -161 0
-1392 1391 169 0
-1392 -1391 -169 0
1392 -1391 169 0
1392 1391 -169 0
-1393 1392 175 0
-1393 -1392 -175 0
1393 -1392 175 0
1393 1392 -175 0
-1394 13 14 0
-1394 -13 -14 0
1394 -13 14 0
1394 13 -14 0
-1395 1394 15 0
-1395 -1394 -15 0
1395 -1394 15 0
1395 1394 -15 0
-1396 1395 17 0
-1396 -1395 -17 0
1396 -1395 17 0
1396 1395 -17 0
-1397 1396 19 0
-1397 -1396 -19 0
1397 -1396 19 0
1397 1396 -19 0
-1398 1397 21 0
-1398 -1397 -21 0
1398 -1397 21 0
1398 1397 -21 0
-1399 1398 24 0
-1399 -1398 -24 0
1399 -1398 24 0
1399 1398 -24 0
-1400 1399 25 0
-1400 -1399 -25 0
1400 -1399 25 0
1400 1399 -25 0
-1401 1400 26 0
-1401 -1400 -26 0
1401 -1400 26 0
1401 1400 -26 0
-1402 1401 27 0
-1402 -1401 -27 0
1402 -1401 27 0
1402 1401 -27 0
-1403 1402 28 0
-1403 -1402 -28 0
1403 -1402 28 0
1403 1402 -28 0
-1404 1403 29 0
-1404 -1403 -29 0
1404 -1403 29 0
1404 1403 -29 0
-1405 1404 30 0
-1405 -1404 -30 0
1405 -1404 30 0
1405 1404 -30 0
-1406 1405 38 0
-1406 -1405 -38 0
1406 -1405 38 0
1406 1405 -38 0
-1407 1406 40 0
-1407 -1406 -40 0
1407 -1406 40 0
1407 1406 -40 0
-1408 1407 42 0
-1408 -1407 -42 0
1408 -1407 42 0
1408 1407 -42 0
-1409 1408 44 0
-1409 -1408 -44 0
1409 -1408 44 0
1409 1408 -44 0
-1410 1409 46 0
-1410 -1409 -46 0
1410 -1409 46 0
1410 1409 -46 0
-1411 1410 48 0
-1411 -1410 -48 0
1411 -1410 48 0
1411 1410 -48 0
-1412 1411 54 0
-1412 -1411 -54 0
1412 -1411 54 0
1412 1411 -54 0
-1413 1412 61 0
-1413 -1412 -61 0
1413 -1412 61 0
1413 1412 -61 0
-1414 1413 62 0
-1414 -1413 -62 0
1414 -1413 62 0
1414 1413 -62 0
-1415 1414 63 0
-1415 -1414 -63 0
1415 -1414 63 0
1415 1414 -63 0
-1416 1415 64 0
-1416 -1415 -64 0
1416 -1415 64 0
1416 1415 -64 0
-1417 1416 65 0
-1417 -1416 -65 0
1417 -1416 65 0
1417 1416 -65 0
-1418 1417 66 0
-1418 -1417 -66 0
1418 -1417 66 0
1418 1417 -66 0
-1419 1418 67 0
-1419 -1418 -67 0
1419 -1418 67 0
1419 1418 -67 0
-1420 1419 68 0
-1420 -1419 -68 0
1420 -1419 68 0
1420 1419 -68 0
-1421 1420 69 0
-1421 -1420 -69 0
1421 -1420 69 0
1421 1420 -69 0
-1422 1421 70 0
-1422 -1421 -70 0
1422 -1421 70 0
1422 1421 -70 0
-1423 1422 71 0
-1423 -1422 -71 0
1423 -1422 71 0
1423 1422 -71 0
-1424 1423 72 0
-1424 -1423 -72 0
1424 -1423 72 0
1424 1423 -72 0
-1425 1424 73 0
-1425 -1424 -73 0
1425 -1424 73 0
1425 1424 -73 0
-1426 1425 74 0
-1426 -1425 -74 0
1426 -1425 74 0
1426 1425 -74 0
-1427 1426 75 0
-1427 -1426 -75 0
1427 -1426 75 0
1427 1426 -75 0
-1428 1427 76 0
-1428 -1427 -76 0
1428 -1427 76 0
1428 1427 -76 0
-1429 1428 77 0
-1429 -1428 -77 0
1429 -1428 77 0
1429 1428 -77 0
-1430 1429 78 0
-1430 -1429 -78 0
1430 -1429 78 0
1430 1429 -78 0
-1431 1430 79 0
-1431 -1430 -79 0
1431 -1430 79 0
1431 1430 -79 0
-1432 1431 80 0
-1432 -1431 -80 0
1432 -1431 80 0
1432 1431 -80 0
-1433 1432 81 0
-1433 -1432 -81 0
1433 -1432 81 0
1433 1432 -81 0
-1434 1433 82 0
-1434 -1433 -82 0
1434 -1433 82 0
1434 1433 -82 0
-1435 1434 83 0
-1435 -1434 -83 0
1435 -1434 83 0
1435 1434 -83 0
-1436 1435 84 0
-1436 -1435 -84 0
1436 -1435 84 0
1436 1435 -84 0
-1437 1436 88 0
-1437 -1436 -88 0
1437 -1436 88 0
1437 1436 -88 0
-1438 1437 95 0
-1438 -1437 -95 0
1438 -1437 95 0
1438 1437 -95 0
-1439 1438 122 0
-1439 -1438 -122 0
1439 -1438 122 0
1439 1438 -122 0
-1440 1439 124 0
-1440 -1439 -124 0
1440 -1439 124 0
1440 1439 -124 0
-1441 1440 145 0
-1441 -1440 -145 0
1441 -1440 145 0
1441 1440 -145 0
-1442 1441 147 0
-1442 -1441 -147 0
1442 -1441 147 0
1442 1441 -147 0
-1443 1442 149 0
-1443 -1442 -149 0
1443 -1442 149 0
1443 1442 -149 0
-1444 1443 158 0
-1444 -1443 -158 0
1444 -1443 158 0
1444 1443 -158 0
-1445 1444 160 0
-1445 -1444 -160 0
1445 -1444 160 0
1445 1444 -160 0
-1446 1445 162 0
-1446 -1445 -162 0
1446 -1445 162 0
1446 1445 -162 0
-1447 1446 170 0
-1447 -1446 -170 0
1447 -1446 170 0
1447 1446 -170 0
-1448 1447 176 0
-1448 -1447 -176 0
1448 -1447 176 0
1448 1447 -176 0
1025 1042 1059 1076 1093 1110 1169 1224 1273 1332 1393 1448 0
-1449 2 3 0
1449 -3 0
-1450 2 0
1449 -2 0
-1450 3 0
1450 -2 -3 0
-1451 1 1449 0
1451 -1449 0
-1452 1 1450 0
1452 -1450 0
-1453 1 0
1451 -1 0
-1452 1449 0
1452 -1 -1449 0
-1453 1450 0
1453 -1 -1450 0
-1454 5 6 0
1454 -6 0
-1455 5 0
1454 -5 0
-1455 6 0
1455 -5 -6 0
-1456 4 1454 0
1456 -1454 0
-1457 4 1455 0
1457 -1455 0
-1458 4 0
1456 -4 0
-1457 1454 0
1457 -4 -1454 0
-1458 1455 0
1458 -4 -1455 0
-1459 1451 1456 0
1459 -1456 0
-1460 1451 1457 0
1460 -1457 0
-1461 1451 1458 0
1461 -1458 0
-1462 1451 0
1459 -1451 0
-1460 1452 1456 0
1460 -1451 -1456 0
-1461 1452 1457 0
1461 -1451 -1457 0
-1462 1452 1458 0
1462 -1451 -1458 0
-1463 1452 0
1460 -1452 0
-1461 1453 1456 0
1461 -1452 -1456 0
-1462 1453 1457 0
1462 -1452 -1457 0
-1463 1453 1458 0
1463 -1452 -1458 0
-1464 1453 0
1461 -1453 0
-1462 1456 0
1462 -1453 -1456 0
-1463 1457 0
1463 -1453 -1457 0
-1464 1458 0
1464 -1453 -1458 0
-1465 8 9 0
1465 -9 0
-1466 8 0
1465 -8 0
-1466 9 0
1466 -8 -9 0
-1467 7 1465 0
1467 -1465 0
-1468 7 1466 0
1468 -1466 0
-1469 7 0
1467 -7 0
-1468 1465 0
1468 -7 -1465 0
-1469 1466 0
1469 -7 -1466 0
-1470 11 12 0
1470 -12 0
-1471 11 0
1470 -11 0
-1471 12 0
1471 -11 -12 0
-1472 10 1470 0
1472 -1470 0
-1473 10 1471 0
1473 -1471 0
-1474 10 0
1472 -10 0
-1473 1470 0
1473 -10 -1470 0
-1474 1471 0
1474 -10 -1471 0
-1475 1467 1472 0
1475 -1472 0
-1476 1467 1473 0
1476 -1473 0
-1477 1467 1474 0
1477 -1474 0
-1478 1467 0
1475 -1467 0
-1476 1468 1472 0
1476 -1467 -1472 0
-1477 1468 1473 0
1477 -1467 -1473 0
-1478 1468 1474 0
1478 -1467 -1474 0
-1479 1468 0
1476 -1468 0
-1477 1469 1472 0
1477 -1468 -1472 0
-1478 1469 1473 0
1478 -1468 -1473 0
-1479 1469 1474 0
1479 -1468 -1474 0
-1480 1469 0
1477 -1469 0
-1478 1472 0
1478 -1469 -1472 0
-1479 1473 0
1479 -1469 -1473 0
-1480 1474 0
1480 -1469 -1474 0
-1481 1459 1475 0
1481 -1475 0
-1482 1459 1476 0
1482 -1476 0
-1483 1459 1477 0
1483 -1477 0
-1484 1459 1478 0
1484 -1478 0
-1485 1459 1479 0
1485 -1479 0
-1486 1459 1480 0
1486 -1480 0
-1487 1459 0
1481 -1459 0
-1482 1460 1475 0
1482 -1459 -1475 0
-1483 1460 1476 0
1483 -1459 -1476 0
-1484 1460 1477 0
1484 -1459 -1477 0
-1485 1460 1478 0
1485 -1459 -1478 0
-1486 1460 1479 0
1486 -1459 -1479 0
-1487 1460 1480 0
1487 -1459 -1480 0
-1488 1460 0
1482 -1460 0
-1483 1461 1475 0
1483 -1460 -1475 0
-1484 1461 1476 0
1484 -1460 -1476 0
-1485 1461 1477 0
1485 -1460 -1477 0
-1486 1461 1478 0
1486 -1460 -1478 0
-1487 1461 1479 0
1487 -1460 -1479 0
-1488 1461 1480 0
1488 -1460 -1480 0
-1489 1461 0
1483 -1461 0
-1484 1462 1475 0
1484 -1461 -1475 0
-1485 1462 1476 0
1485 -1461 -1476 0
-1486 1462 1477 0
1486 -1461 -1477 0
-1487 1462 1478 0
1487 -1461 -1478 0
-1488 1462 1479 0
1488 -1461 -1479 0
-1489 1462 1480 0
1489 -1461 -1480 0
-1490 1462 0
1484 -1462 0
-1485 1463 1475 0
1485 -1462 -1475 0
-1486 1463 1476 0
1486 -1462 -1476 0
-1487 1463 1477 0
1487 -1462 -1477 0
-1488 1463 1478 0
1488 -1462 -1478 0
-1489 1463 1479 0
1489 -1462 -1479 0
-1490 1463 1480 0
1490 -1462 -1480 0
-1491 1463 0
1485 -1463 0
-1486 1464 1475 0
1486 -1463 -1475 0
-1487 1464 1476 0
1487 -1463 -1476 0
-1488 1464 1477 0
1488 -1463 -1477 0
-1489 1464 1478 0
1489 -1463 -1478 0
-1490 1464 1479 0
1490 -1463 -1479 0
-1491 1464 1480 0
1491 -1463 -1480 0
-1492 1464 0
1486 -1464 0
-1487 1475 0
1487 -1464 -1475 0
-1488 1476 0
1488 -1464 -1476 0
-1489 1477 0
1489 -1464 -1477 0
-1490 1478 0
1490 -1464 -1478 0
-1491 1479 0
1491 -1464 -1479 0
-1492 1480 0
1492 -1464 -1480 0
-1493 146 147 0
1493 -147 0
-1494 146 0
1493 -146 0
-1494 147 0
1494 -146 -147 0
-1495 145 1493 0
1495 -1493 0
-1496 145 1494 0
1496 -1494 0
-1497 145 0
1495 -145 0
-1496 1493 0
1496 -145 -1493 0
-1497 1494 0
1497 -145 -1494 0
-1498 149 150 0
1498 -150 0
-1499 149 0
1498 -149 0
-1499 150 0
1499 -149 -150 0
-1500 148 1498 0
1500 -1498 0
-1501 148 1499 0
1501 -1499 0
-1502 148 0
1500 -148 0
-1501 1498 0
1501 -148 -1498 0
-1502 1499 0
1502 -148 -1499 0
-1503 1495 1500 0
1503 -1500 0
-1504 1495 1501 0
1504 -1501 0
-1505 1495 1502 0
1505 -1502 0
-1506 1495 0
1503 -1495 0
-1504 1496 1500 0
1504 -1495 -1500 0
-1505 1496 1501 0
1505 -1495 -1501 0
-1506 1496 1502 0
1506 -1495 -1502 0
-1507 1496 0
1504 -1496 0
-1505 1497 1500 0
1505 -1496 -1500 0
-1506 1497 1501 0
1506 -1496 -1501 0
-1507 1497 1502 0
1507 -1496 -1502 0
-1508 1497 0
1505 -1497 0
-1506 1500 0
1506 -1497 -1500 0
-1507 1501 0
1507 -1497 -1501 0
-1508 1502 0
1508 -1497 -1502 0
-1509 152 153 0
1509 -153 0
-1510 152 0
1509 -152 0
-1510 153 0
1510 -152 -153 0
-1511 151 1509 0
1511 -1509 0
-1512 151 1510 0
1512 -1510 0
-1513 151 0
1511 -151 0
-1512 1509 0
1512 -151 -1509 0
-1513 1510 0
1513 -151 -1510 0
-1514 155 156 0
1514 -156 0
-1515 155 0
1514 -155 0
-1515 156 0
1515 -155 -156 0
-1516 154 1514 0
1516 -1514 0
-1517 154 1515 0
1517 -1515 0
-1518 154 0
1516 -154 0
-1517 1514 0
1517 -154 -1514 0
-1518 1515 0
1518 -154 -1515 0
-1519 1511 1516 0
1519 -1516 0
-1520 1511 1517 0
1520 -1517 0
-1521 1511 1518 0
1521 -1518 0
-1522 1511 0
1519 -1511 0
-1520 1512 1516 0
1520 -1511 -1516 0
-1521 1512 1517 0
1521 -1511 -1517 0
-1522 1512 1518 0
1522 -1511 -1518 0
-1523 1512 0
1520 -1512 0
-1521 1513 1516 0
1521 -1512 -1516 0
-1522 1513 1517 0
1522 -1512 -1517 0
-1523 1513 1518 0
1523 -1512 -1518 0
-1524 1513 0
1521 -1513 0
-1522 1516 0
1522 -1513 -1516 0
-1523 1517 0
1523 -1513 -1517 0
-1524 1518 0
1524 -1513 -1518 0
-1525 1503 1519 0
1525 -1519 0
-1526 1503 1520 0
1526 -1520 0
-1527 1503 1521 0
1527 -1521 0
-1528 1503 1522 0
1528 -1522 0
-1529 1503 1523 0
1529 -1523 0
-1530 1503 1524 0
1530 -1524 0
-1531 1503 0
1525 -1503 0
-1526 1504 1519 0
1526 -1503 -1519 0
-1527 1504 1520 0
1527 -1503 -1520 0
-1528 1504 1521 0
1528 -1503 -1521 0
-1529 1504 1522 0
1529 -1503 -1522 0
-1530 1504 1523 0
1530 -1503 -1523 0
-1531 1504 1524 0
1531 -1503 -1524 0
-1532 1504 0
1526 -1504 0
-1527 1505 1519 0
1527 -1504 -1519 0
-1528 1505 1520 0
1528 -1504 -1520 0
-1529 1505 1521 0
1529 -1504 -1521 0
-1530 1505 1522 0
1530 -1504 -1522 0
-1531 1505 1523 0
1531 -1504 -1523 0
-1532 1505 1524 0
1532 -1504 -1524 0
-1533 1505 0
1527 -1505 0
-1528 1506 1519 0
1528 -1505 -1519 0
-1529 1506 1520 0
1529 -1505 -1520 0
-1530 1506 1521 0
1530 -1505 -1521 0
-1531 1506 1522 0
1531 -1505 -1522 0
-1532 1506 1523 0
1532 -1505 -1523 0
-1533 1506 1524 0
1533 -1505 -1524 0
-1534 1506 0
1528 -1506 0
-1529 1507 1519 0
1529 -1506 -1519 0
-1530 1507 1520 0
1530 -1506 -1520 0
-1531 1507 1521 0
1531 -1506 -1521 0
-1532 1507 1522 0
1532 -1506 -1522 0
-1533 1507 1523 0
1533 -1506 -1523 0
-1534 1507 1524 0
1534 -1506 -1524 0
-1535 1507 0
1529 -1507 0
-1530 1508 1519 0
1530 -1507 -1519 0
-1531 1508 1520 0
1531 -1507 -1520 0
-1532 1508 1521 0
1532 -1507 -1521 0
-1533 1508 1522 0
1533 -1507 -1522 0
-1534 1508 1523 0
1534 -1507 -1523 0
-1535 1508 1524 0
1535 -1507 -1524 0
-1536 1508 0
1530 -1508 0
-1531 1519 0
1531 -1508 -1519 0
-1532 1520 0
1532 -1508 -1520 0
-1533 1521 0
1533 -1508 -1521 0
-1534 1522 0
1534 -1508 -1522 0
-1535 1523 0
1535 -1508 -1523 0
-1536 1524 0
1536 -1508 -1524 0
-1537 1481 1525 0
1537 -1525 0
-1538 1481 1526 0
1538 -1526 0
-1539 1481 1527 0
1539 -1527 0
-1540 1481 1528 0
1540 -1528 0
-1541 1481 1529 0
1541 -1529 0
-1542 1481 1530 0
1542 -1530 0
-1543 1481 1531 0
1543 -1531 0
-1544 1481 1532 0
1544 -1532 0
-1545 1481 1533 0
1545 -1533 0
-1546 1481 1534 0
1546 -1534 0
-1547 1481 1535 0
1547 -1535 0
-1548 1481 1536 0
1548 -1536 0
-1549 1481 0
1537 -1481 0
-1538 1482 1525 0
1538 -1481 -1525 0
-1539 1482 1526 0
1539 -1481 -1526 0
-1540 1482 1527 0
1540 -1481 -1527 0
-1541 1482 1528 0
1541 -1481 -1528 0
-1542 1482 1529 0
1542 -1481 -1529 0
-1543 1482 1530 0
1543 -1481 -1530 0
-1544 1482 1531 0
1544 -1481 -1531 0
-1545 1482 1532 0
1545 -1481 -1532 0
-1546 1482 1533 0
1546 -1481 -1533 0
-1547 1482 1534 0
1547 -1481 -1534 0
-1548 1482 1535 0
1548 -1481 -1535 0
-1549 1482 1536 0
1549 -1481 -1536 0
-1550 1482 0
1538 -1482 0
-1539 1483 1525 0
1539 -1482 -1525 0
-1540 1483 1526 0
1540 -1482 -1526 0
-1541 1483 1527 0
1541 -1482 -1527 0
-1542 1483 1528 0
1542 -1482 -1528 0
-1543 1483 1529 0
1543 -1482 -1529 0
-1544 1483 1530 0
1544 -1482 -1530 0
-1545 1483 1531 0
1545 -1482 -1531 0
-1546 1483 1532 0
1546 -1482 -1532 0
-1547 1483 1533 0
1547 -1482 -1533 0
-1548 1483 1534 0
1548 -1482 -1534 0
-1549 1483 1535 0
1549 -1482 -1535 0
-1550 1483 1536 0
1550 -1482 -1536 0
-1551 1483 0
1539 -1483 0
-1540 1484 1525 0
1540 -1483 -1525 0
-1541 1484 1526 0
1541 -1483 -1526 0
-1542 1484 1527 0
1542 -1483 -1527 0
-1543 1484 1528 0
1543 -1483 -1528 0
-1544 1484 1529 0
1544 -1483 -1529 0
-1545 1484 1530 0
1545 -1483 -1530 0
-1546 1484 1531 0
1546 -1483 -1531 0
-1547 1484 1532 0
1547 -1483 -1532 0
-1548 1484 1533 0
1548 -1483 -1533 0
-1549 1484 1534 0
1549 -1483 -1534 0
-1550 1484 1535 0
1550 -1483 -1535 0
-1551 1484 1536 0
1551 -1483 -1536 0
-1552 1484 0
1540 -1484 0
-1541 1485 1525 0
1541 -1484 -1525 0
-1542 1485 1526 0
1542 -1484 -1526 0
-1543 1485 1527 0
1543 -1484 -1527 0
-1544 1485 1528 0
1544 -1484 -1528 0
-1545 1485 1529 0
1545 -1484 -1529 0
-1546 1485 1530 0
1546 -1484 -1530 0
-1547 1485 1531 0
1547 -1484 -1531 0
-1548 1485 1532 0
1548 -1484 -1532 0
-1549 1485 1533 0
1549 -1484 -1533 0
-1550 1485 1534 0
1550 -1484 -1534 0
-1551 1485 1535 0
1551 -1484 -1535 0
-1552 1485 1536 0
1552 -1484 -1536 0
-1553 1485 0
1541 -1485 0
-1542 1486 1525 0
1542 -1485 -1525 0
-1543 1486 1526 0
1543 -1485 -1526 0
-1544 1486 1527 0
1544 -1485 -1527 0
-1545 1486 1528 0
1545 -1485 -1528 0
-1546 1486 1529 0
1546 -1485 -1529 0
-1547 1486 1530 0
1547 -1485 -1530 0
-1548 1486 1531 0
1548 -1485 -1531 0
-1549 1486 1532 0
1549 -1485 -1532 0
-1550 1486 1533 0
1550 -1485 -1533 0
-1551 1486 1534 0
1551 -1485 -1534 0
-1552 1486 1535 0
1552 -1485 -1535 0
-1553 1486 1536 0
1553 -1485 -1536 0
1542 -1486 0
-1543 1487 1525 0
1543 -1486 -1525 0
-1544 1487 1526 0
1544 -1486 -1526 0
-1545 1487 1527 0
1545 -1486 -1527 0
-1546 1487 1528 0
1546 -1486 -1528 0
-1547 1487 1529 0
1547 -1486 -1529 0
-1548 1487 1530 0
1548 -1486 -1530 0
-1549 1487 1531 0
1549 -1486 -1531 0
-1550 1487 1532 0
1550 -1486 -1532 0
-1551 1487 1533 0
1551 -1486 -1533 0
-1552 1487 1534 0
1552 -1486 -1534 0
-1553 1487 1535 0
1553 -1486 -1535 0
1543 -1487 0
-1544 1488 1525 0
1544 -1487 -1525 0
-1545 1488 1526 0
1545 -1487 -1526 0
-1546 1488 1527 0
1546 -1487 -1527 0
-1547 1488 1528 0
1547 -1487 -1528 0
-1548 1488 1529 0
1548 -1487 -1529 0
-1549 1488 1530 0
1549 -1487 -1530 0
-1550 1488 1531 0
1550 -1487 -1531 0
-1551 1488 1532 0
1551 -1487 -1532 0
-1552 1488 1533 0
1552 -1487 -1533 0
-1553 1488 1534 0
1553 -1487 -1534 0
1544 -1488 0
-1545 1489 1525 0
1545 -1488 -1525 0
-1546 1489 1526 0
1546 -1488 -1526 0
-1547 1489 1527 0
1547 -1488 -1527 0
-1548 1489 1528 0
1548 -1488 -1528 0
-1549 1489 1529 0
1549 -1488 -1529 0
-1550 1489 1530 0
1550 -1488 -1530 0
-1551 1489 1531 0
1551 -1488 -1531 0
-1552 1489 1532 0
1552 -1488 -1532 0
-1553 1489 1533 0
1553 -1488 -1533 0
1545 -1489 0
-1546 1490 1525 0
1546 -1489 -1525 0
-1547 1490 1526 0
1547 -1489 -1526 0
-1548 1490 1527 0
1548 -1489 -1527 0
-1549 1490 1528 0
1549 -1489 -1528 0
-1550 1490 1529 0
1550 -1489 -1529 0
-1551 1490 1530 0
1551 -1489 -1530 0
-1552 1490 1531 0
1552 -1489 -1531 0
-1553 1490 1532 0
1553 -1489 -1532 0
1546 -1490 0
-1547 1491 1525 0
1547 -1490 -1525 0
-1548 1491 1526 0
1548 -1490 -1526 0
-1549 1491 1527 0
1549 -1490 -1527 0
-1550 1491 1528 0
1550 -1490 -1528 0
-1551 1491 1529 0
1551 -1490 -1529 0
-1552 1491 1530 0
1552 -1490 -1530 0
-1553 1491 1531 0
1553 -1490 -1531 0
1547 -1491 0
-1548 1492 1525 0
1548 -1491 -1525 0
-1549 1492 1526 0
1549 -1491 -1526 0
-1550 1492 1527 0
1550 -1491 -1527 0
-1551 1492 1528 0
1551 -1491 -1528 0
-1552 1492 1529 0
1552 -1491 -1529 0
-1553 1492 1530 0
1553 -1491 -1530 0
1548 -1492 0
-1549 1525 0
1549 -1492 -1525 0
-1550 1526 0
1550 -1492 -1526 0
-1551 1527 0
1551 -1492 -1527 0
-1552 1528 0
1552 -1492 -1528 0
-1553 1529 0
1553 -1492 -1529 0
-1554 14 15 0
1554 -15 0
-1555 14 0
1554 -14 0
-1555 15 0
1555 -14 -15 0
-1556 13 1554 0
1556 -1554 0
-1557 13 1555 0
1557 -1555 0
-1558 13 0
1556 -13 0
-1557 1554 0
1557 -13 -1554 0
-1558 1555 0
1558 -13 -1555 0
-1559 17 18 0
1559 -18 0
-1560 17 0
1559 -17 0
-1560 18 0
1560 -17 -18 0
-1561 16 1559 0
1561 -1559 0
-1562 16 1560 0
1562 -1560 0
-1563 16 0
1561 -16 0
-1562 1559 0
1562 -16 -1559 0
-1563 1560 0
1563 -16 -1560 0
-1564 1556 1561 0
1564 -1561 0
-1565 1556 1562 0
1565 -1562 0
-1566 1556 1563 0
1566 -1563 0
-1567 1556 0
1564 -1556 0
-1565 1557 1561 0
1565 -1556 -1561 0
-1566 1557 1562 0
1566 -1556 -1562 0
-1567 1557 1563 0
1567 -1556 -1563 0
-1568 1557 0
1565 -1557 0
-1566 1558 1561 0
1566 -1557 -1561 0
-1567 1558 1562 0
1567 -1557 -1562 0
-1568 1558 1563 0
1568 -1557 -1563 0
-1569 1558 0
1566 -1558 0
-1567 1561 0
1567 -1558 -1561 0
-1568 1562 0
1568 -1558 -1562 0
-1569 1563 0
1569 -1558 -1563 0
-1570 20 21 0
1570 -21 0
-1571 20 0
1570 -20 0
-1571 21 0
1571 -20 -21 0
-1572 19 1570 0
1572 -1570 0
-1573 19 1571 0
1573 -1571 0
-1574 19 0
1572 -19 0
-1573 1570 0
1573 -19 -1570 0
-1574 1571 0
1574 -19 -1571 0
-1575 23 24 0
1575 -24 0
-1576 23 0
1575 -23 0
-1576 24 0
1576 -23 -24 0
-1577 22 1575 0
1577 -1575 0
-1578 22 1576 0
1578 -1576 0
-1579 22 0
1577 -22 0
-1578 1575 0
1578 -22 -1575 0
-1579 1576 0
1579 -22 -1576 0
-1580 1572 1577 0
1580 -1577 0
-1581 1572 1578 0
1581 -1578 0
-1582 1572 1579 0
1582 -1579 0
-1583 1572 0
1580 -1572 0
-1581 1573 1577 0
1581 -1572 -1577 0
-1582 1573 1578 0
1582 -1572 -1578 0
-1583 1573 1579 0
1583 -1572 -1579 0
-1584 1573 0
1581 -1573 0
-1582 1574 1577 0
1582 -1573 -1577 0
-1583 1574 1578 0
1583 -1573 -1578 0
-1584 1574 1579 0
1584 -1573 -1579 0
-1585 1574 0
1582 -1574 0
-1583 1577 0
1583 -1574 -1577 0
-1584 1578 0
1584 -1574 -1578 0
-1585 1579 0
1585 -1574 -1579 0
-1586 1564 1580 0
1586 -1580 0
-1587 1564 1581 0
1587 -1581 0
-1588 1564 1582 0
1588 -1582 0
-1589 1564 1583 0
1589 -1583 0
-1590 1564 1584 0
1590 -1584 0
-1591 1564 1585 0
1591 -1585 0
-1592 1564 0
1586 -1564 0
-1587 1565 1580 0
1587 -1564 -1580 0
-1588 1565 1581 0
1588 -1564 -1581 0
-1589 1565 1582 0
1589 -1564 -1582 0
-1590 1565 1583 0
1590 -1564 -1583 0
-1591 1565 1584 0
1591 -1564 -1584 0
-1592 1565 1585 0
1592 -1564 -1585 0
-1593 1565 0
1587 -1565 0
-1588 1566 1580 0
1588 -1565 -1580 0
-1589 1566 1581 0
1589 -1565 -1581 0
-1590 1566 1582 0
1590 -1565 -1582 0
-1591 1566 1583 0
1591 -1565 -1583 0
-1592 1566 1584 0
1592 -1565 -1584 0
-1593 1566 1585 0
1593 -1565 -1585 0
-1594 1566 0
1588 -1566 0
-1589 1567 1580 0
1589 -1566 -1580 0
-1590 1567 1581 0
1590 -1566 -1581 0
-1591 1567 1582 0
1591 -1566 -1582 0
-1592 1567 1583 0
1592 -1566 -1583 0
-1593 1567 1584 0
1593 -1566 -1584 0
-1594 1567 1585 0
1594 -1566 -1585 0
-1595 1567 0
1589 -1567 0
-1590 1568 1580 0
1590 -1567 -1580 0
-1591 1568 1581 0
1591 -1567 -1581 0
-1592 1568 1582 0
1592 -1567 -1582 0
-1593 1568 1583 0
1593 -1567 -1583 0
-1594 1568 1584 0
1594 -1567 -1584 0
-1595 1568 1585 0
1595 -1567 -1585 0
-1596 1568 0
1590 -1568 0
-1591 1569 1580 0
1591 -1568 -1580 0
-1592 1569 1581 0
1592 -1568 -1581 0
-1593 1569 1582 0
1593 -1568 -1582 0
-1594 1569 1583 0
1594 -1568 -1583 0
-1595 1569 1584 0
1595 -1568 -1584 0
-1596 1569 1585 0
1596 -1568 -1585 0
-1597 1569 0
1591 -1569 0
-1592 1580 0
1592 -1569 -1580 0
-1593 1581 0
1593 -1569 -1581 0
-1594 1582 0
1594 -1569 -1582 0
-1595 1583 0
1595 -1569 -1583 0
-1596 1584 0
1596 -1569 -1584 0
-1597 1585 0
1597 -1569 -1585 0
-1598 158 159 0
1598 -159 0
-1599 158 0
1598 -158 0
-1599 159 0
1599 -158 -159 0
-1600 157 1598 0
1600 -1598 0
-1601 157 1599 0
1601 -1599 0
-1602 157 0
1600 -157 0
-1601 1598 0
1601 -157 -1598 0
-1602 1599 0
1602 -157 -1599 0
-1603 161 162 0
1603 -162 0
-1604 161 0
1603 -161 0
-1604 162 0
1604 -161 -162 0
-1605 160 1603 0
1605 -1603 0
-1606 160 1604 0
1606 -1604 0
-1607 160 0
1605 -160 0
-1606 1603 0
1606 -160 -1603 0
-1607 1604 0
1607 -160 -1604 0
-1608 1600 1605 0
1608 -1605 0
-1609 1600 1606 0
1609 -1606 0
-1610 1600 1607 0
1610 -1607 0
-1611 1600 0
1608 -1600 0
-1609 1601 1605 0
1609 -1600 -1605 0
-1610 1601 1606 0
1610 -1600 -1606 0
-1611 1601 1607 0
1611 -1600 -1607 0
-1612 1601 0
1609 -1601 0
-1610 1602 1605 0
1610 -1601 -1605 0
-1611 1602 1606 0
1611 -1601 -1606 0
-1612 1602 1607 0
1612 -1601 -1607 0
-1613 1602 0
1610 -1602 0
-1611 1605 0
1611 -1602 -1605 0
-1612 1606 0
1612 -1602 -1606 0
-1613 1607 0
1613 -1602 -1607 0
-1614 164 165 0
1614 -165 0
-1615 164 0
1614 -164 0
-1615 165 0
1615 -164 -165 0
-1616 163 1614 0
1616 -1614 0
-1617 163 1615 0
1617 -1615 0
-1618 163 0
1616 -163 0
-1617 1614 0
1617 -163 -1614 0
-1618 1615 0
1618 -163 -1615 0
-1619 167 168 0
1619 -168 0
-1620 167 0
1619 -167 0
-1620 168 0
1620 -167 -168 0
-1621 166 1619 0
1621 -1619 0
-1622 166 1620 0
1622 -1620 0
-1623 166 0
1621 -166 0
-1622 1619 0
1622 -166 -1619 0
-1623 1620 0
1623 -166 -1620 0
-1624 1616 1621 0
1624 -1621 0
-1625 1616 1622 0
1625 -1622 0
-1626 1616 1623 0
1626 -1623 0
-1627 1616 0
1624 -1616 0
-1625 1617 1621 0
1625 -1616 -1621 0
-1626 1617 1622 0
1626 -1616 -1622 0
-1627 1617 1623 0
1627 -1616 -1623 0
-1628 1617 0
1625 -1617 0
-1626 1618 1621 0
1626 -1617 -1621 0
-1627 1618 1622 0
1627 -1617 -1622 0
-1628 1618 1623 0
1628 -1617 -1623 0
-1629 1618 0
1626 -1618 0
-1627 1621 0
1627 -1618 -1621 0
-1628 1622 0
1628 -1618 -1622 0
-1629 1623 0
1629 -1618 -1623 0
-1630 1608 1624 0
1630 -1624 0
-1631 1608 1625 0
1631 -1625 0
-1632 1608 1626 0
1632 -1626 0
-1633 1608 1627 0
1633 -1627 0
-1634 1608 1628 0
1634 -1628 0
-1635 1608 1629 0
1635 -1629 0
-1636 1608 0
1630 -1608 0
-1631 1609 1624 0
1631 -1608 -1624 0
-1632 1609 1625 0
1632 -1608 -1625 0
-1633 1609 1626 0
1633 -1608 -1626 0
-1634 1609 1627 0
1634 -1608 -1627 0
-1635 1609 1628 0
1635 -1608 -1628 0
-1636 1609 1629 0
1636 -1608 -1629 0
-1637 1609 0
1631 -1609 0
-1632 1610 1624 0
1632 -1609 -1624 0
-1633 1610 1625 0
1633 -1609 -1625 0
-1634 1610 1626 0
1634 -1609 -1626 0
-1635 1610 1627 0
1635 -1609 -1627 0
-1636 1610 1628 0
1636 -1609 -1628 0
-1637 1610 1629 0
1637 -1609 -1629 0
-1638 1610 0
1632 -1610 0
-1633 1611 1624 0
1633 -1610 -1624 0
-1634 1611 1625 0
1634 -1610 -1625 0
-1635 1611 1626 0
1635 -1610 -1626 0
-1636 1611 1627 0
1636 -1610 -1627 0
-1637 1611 1628 0
1637 -1610 -1628 0
-1638 1611 1629 0
1638 -1610 -1629 0
-1639 1611 0
1633 -1611 0
-1634 1612 1624 0
1634 -1611 -1624 0
-1635 1612 1625 0
1635 -1611 -1625 0
-1636 1612 1626 0
1636 -1611 -1626 0
-1637 1612 1627 0
1637 -1611 -1627 0
-1638 1612 1628 0
1638 -1611 -1628 0
-1639 1612 1629 0
1639 -1611 -1629 0
-1640 1612 0
1634 -1612 0
-1635 1613 1624 0
1635 -1612 -1624 0
-1636 1613 1625 0
1636 -1612 -1625 0
-1637 1613 1626 0
1637 -1612 -1626 0
-1638 1613 1627 0
1638 -1612 -1627 0
-1639 1613 1628 0
1639 -1612 -1628 0
-1640 1613 1629 0
1640 -1612 -1629 0
-1641 1613 0
1635 -1613 0
-1636 1624 0
1636 -1613 -1624 0
-1637 1625 0
1637 -1613 -1625 0
-1638 1626 0
1638 -1613 -1626 0
-1639 1627 0
1639 -1613 -1627 0
-1640 1628 0
1640 -1613 -1628 0
-1641 1629 0
1641 -1613 -1629 0
-1642 1586 1630 0
1642 -1630 0
-1643 1586 1631 0
1643 -1631 0
-1644 1586 1632 0
1644 -1632 0
-1645 1586 1633 0
1645 -1633 0
-1646 1586 1634 0
1646 -1634 0
-1647 1586 1635 0
1647 -1635 0
-1648 1586 1636 0
1648 -1636 0
-1649 1586 1637 0
1649 -1637 0
-1650 1586 1638 0
1650 -1638 0
-1651 1586 1639 0
1651 -1639 0
-1652 1586 1640 0
1652 -1640 0
-1653 1586 1641 0
1653 -1641 0
-1654 1586 0
1642 -1586 0
-1643 1587 1630 0
1643 -1586 -1630 0
-1644 1587 1631 0
1644 -1586 -1631 0
-1645 1587 1632 0
1645 -1586 -1632 0
-1646 1587 1633 0
1646 -1586 -1633 0
-1647 1587 1634 0
1647 -1586 -1634 0
-1648 1587 1635 0
1648 -1586 -1635 0
-1649 1587 1636 0
1649 -1586 -1636 0
-1650 1587 1637 0
1650 -1586 -1637 0
-1651 1587 1638 0
1651 -1586 -1638 0
-1652 1587 1639 0
1652 -1586 -1639 0
-1653 1587 1640 0
1653 -1586 -1640 0
-1654 1587 1641 0
1654 -1586 -1641 0
-1655 1587 0
1643 -1587 0
-1644 1588 1630 0
1644 -1587 -1630 0
-1645 1588 1631 0
1645 -1587 -1631 0
-1646 1588 1632 0
1646 -1587 -1632 0
-1647 1588 1633 0
1647 -1587 -1633 0
-1648 1588 1634 0
1648 -1587 -1634 0
-1649 1588 1635 0
1649 -1587 -1635 0
-1650 1588 1636 0
1650 -1587 -1636 0
-1651 1588 1637 0
1651 -1587 -1637 0
-1652 1588 1638 0
1652 -1587 -1638 0
-1653 1588 1639 0
1653 -1587 -1639 0
-1654 1588 1640 0
1654 -1587 -1640 0
-1655 1588 1641 0
1655 -1587 -1641 0
-1656 1588 0
1644 -1588 0
-1645 1589 1630 0
1645 -1588 -1630 0
-1646 1589 1631 0
1646 -1588 -1631 0
-1647 1589 1632 0
1647 -1588 -1632 0
-1648 1589 1633 0
1648 -1588 -1633 0
-1649 1589 1634 0
1649 -1588 -1634 0
-1650 1589 1635 0
1650 -1588 -1635 0
-1651 1589 1636 0
1651 -1588 -1636 0
-1652 1589 1637 0
1652 -1588 -1637 0
-1653 1589 1638 0
1653 -1588 -1638 0
-1654 1589 1639 0
1654 -1588 -1639 0
-1655 1589 1640 0
1655 -1588 -1640 0
-1656 1589 1641 0
1656 -1588 -1641 0
-1657 1589 0
1645 -1589 0
-1646 1590 1630 0
1646 -1589 -1630 0
-1647 1590 1631 0
1647 -1589 -1631 0
-1648 1590 1632 0
1648 -1589 -1632 0
-1649 1590 1633 0
1649 -1589 -1633 0
-1650 1590 1634 0
1650 -1589 -1634 0
-1651 1590 1635 0
1651 -1589 -1635 0
-1652 1590 1636 0
1652 -1589 -1636 0
-1653 1590 1637 0
1653 -1589 -1637 0
-1654 1590 1638 0
1654 -1589 -1638 0
-1655 1590 1639 0
1655 -1589 -1639 0
-1656 1590 1640 0
1656 -1589 -1640 0
-1657 1590 1641 0
1657 -1589 -1641 0
-1658 1590 0
1646 -1590 0
-1647 1591 1630 0
1647 -1590 -1630 0
-1648 1591 1631 0
1648 -1590 -1631 0
-1649 1591 1632 0
1649 -1590 -1632 0
-1650 1591 1633 0
1650 -1590 -1633 0
-1651 1591 1634 0
1651 -1590 -1634 0
-1652 1591 1635 0
1652 -1590 -1635 0
-1653 1591 1636 0
1653 -1590 -1636 0
-1654 1591 1637 0
1654 -1590 -1637 0
-1655 1591 1638 0
1655 -1590 -1638 0
-1656 1591 1639 0
1656 -1590 -1639 0
-1657 1591 1640 0
1657 -1590 -1640 0
-1658 1591 1641 0
1658 -1590 -1641 0
1647 -1591 0
-1648 1592 1630 0
1648 -1591 -1630 0
-1649 1592 1631 0
1649 -1591 -1631 0
-1650 1592 1632 0
1650 -1591 -1632 0
-1651 1592 1633 0
1651 -1591 -1633 0
-1652 1592 1634 0
1652 -1591 -1634 0
-1653 1592 1635 0
1653 -1591 -1635 0
-1654 1592 1636 0
1654 -1591 -1636 0
-1655 1592 1637 0
1655 -1591 -1637 0
-1656 1592 1638 0
1656 -1591 -1638 0
-1657 1592 1639 0
1657 -1591 -1639 0
-1658 1592 1640 0
1658 -1591 -1640 0
1648 -1592 0
-1649 1593 1630 0
1649 -1592 -1630 0
-1650 1593 1631 0
1650 -1592 -1631 0
-1651 1593 1632 0
1651 -1592 -1632 0
-1652 1593 1633 0
1652 -1592 -1633 0
-1653 1593 1634 0
1653 -1592 -1634 0
-1654 1593 1635 0
1654 -1592 -1635 0
-1655 1593 1636 0
1655 -1592 -1636 0
-1656 1593 1637 0
1656 -1592 -1637 0
-1657 1593 1638 0
1657 -1592 -1638 0
-1658 1593 1639 0
1658 -1592 -1639 0
1649 -1593 0
-1650 1594 1630 0
1650 -1593 -1630 0
-1651 1594 1631 0
1651 -1593 -1631 0
-1652 1594 1632 0
1652 -1593 -1632 0
-1653 1594 1633 0
1653 -1593 -1633 0
-1654 1594 1634 0
1654 -1593 -1634 0
-1655 1594 1635 0
1655 -1593 -1635 0
-1656 1594 1636 0
1656 -1593 -1636 0
-1657 1594 1637 0
1657 -1593 -1637 0
-1658 1594 1638 0
1658 -1593 -1638 0
1650 -1594 0
-1651 1595 1630 0
1651 -1594 -1630 0
-1652 1595 1631 0
1652 -1594 -1631 0
-1653 1595 1632 0
1653 -1594 -1632 0
-1654 1595 1633 0
1654 -1594 -1633 0
-1655 1595 1634 0
1655 -1594 -1634 0
-1656 1595 1635 0
1656 -1594 -1635 0
-1657 1595 1636 0
1657 -1594 -1636 0
-1658 1595 1637 0
1658 -1594 -1637 0
1651 -1595 0
-1652 1596 1630 0
1652 -1595 -1630 0
-1653 1596 1631 0
1653 -1595 -1631 0
-1654 1596 1632 0
1654 -1595 -1632 0
-1655 1596 1633 0
1655 -1595 -1633 0
-1656 1596 1634 0
1656 -1595 -1634 0
-1657 1596 1635 0
1657 -1595 -1635 0
-1658 1596 1636 0
1658 -1595 -1636 0
1652 -1596 0
-1653 1597 1630 0
1653 -1596 -1630 0
-1654 1597 1631 0
1654 -1596 -1631 0
-1655 1597 1632 0
1655 -1596 -1632 0
-1656 1597 1633 0
1656 -1596 -1633 0
-1657 1597 1634 0
1657 -1596 -1634 0
-1658 1597 1635 0
1658 -1596 -1635 0
1653 -1597 0
-1654 1630 0
1654 -1597 -1630 0
-1655 1631 0
1655 -1597 -1631 0
-1656 1632 0
1656 -1597 -1632 0
-1657 1633 0
1657 -1597 -1633 0
-1658 1634 0
1658 -1597 -1634 0
-1659 26 27 0
1659 -27 0
-1660 26 0
1659 -26 0
-1660 27 0
1660 -26 -27 0
-1661 25 1659 0
1661 -1659 0
-1662 25 1660 0
1662 -1660 0
-1663 25 0
1661 -25 0
-1662 1659 0
1662 -25 -1659 0
-1663 1660 0
1663 -25 -1660 0
-1664 29 30 0
1664 -30 0
-1665 29 0
1664 -29 0
-1665 30 0
1665 -29 -30 0
-1666 28 1664 0
1666 -1664 0
-1667 28 1665 0
1667 -1665 0
-1668 28 0
1666 -28 0
-1667 1664 0
1667 -28 -1664 0
-1668 1665 0
1668 -28 -1665 0
-1669 1661 1666 0
1669 -1666 0
-1670 1661 1667 0
1670 -1667 0
-1671 1661 1668 0
1671 -1668 0
-1672 1661 0
1669 -1661 0
-1670 1662 1666 0
1670 -1661 -1666 0
-1671 1662 1667 0
1671 -1661 -1667 0
-1672 1662 1668 0
1672 -1661 -1668 0
-1673 1662 0
1670 -1662 0
-1671 1663 1666 0
1671 -1662 -1666 0
-1672 1663 1667 0
1672 -1662 -1667 0
-1673 1663 1668 0
1673 -1662 -1668 0
-1674 1663 0
1671 -1663 0
-1672 1666 0
1672 -1663 -1666 0
-1673 1667 0
1673 -1663 -1667 0
-1674 1668 0
1674 -1663 -1668 0
-1675 32 33 0
1675 -33 0
-1676 32 0
1675 -32 0
-1676 33 0
1676 -32 -33 0
-1677 31 1675 0
1677 -1675 0
-1678 31 1676 0
1678 -1676 0
-1679 31 0
1677 -31 0
-1678 1675 0
1678 -31 -1675 0
-1679 1676 0
1679 -31 -1676 0
-1680 35 36 0
1680 -36 0
-1681 35 0
1680 -35 0
-1681 36 0
1681 -35 -36 0
-1682 34 1680 0
1682 -1680 0
-1683 34 1681 0
1683 -1681 0
-1684 34 0
1682 -34 0
-1683 1680 0
1683 -34 -1680 0
-1684 1681 0
1684 -34 -1681 0
-1685 1677 1682 0
1685 -1682 0
-1686 1677 1683 0
1686 -1683 0
-1687 1677 1684 0
1687 -1684 0
-1688 1677 0
1685 -1677 0
-1686 1678 1682 0
1686 -1677 -1682 0
-1687 1678 1683 0
1687 -1677 -1683 0
-1688 1678 1684 0
1688 -1677 -1684 0
-1689 1678 0
1686 -1678 0
-1687 1679 1682 0
1687 -1678 -1682 0
-1688 1679 1683 0
1688 -1678 -1683 0
-1689 1679 1684 0
1689 -1678 -1684 0
-1690 1679 0
1687 -1679 0
-1688 1682 0
1688 -1679 -1682 0
-1689 1683 0
1689 -1679 -1683 0
-1690 1684 0
1690 -1679 -1684 0
-1691 1669 1685 0
1691 -1685 0
-1692 1669 1686 0
1692 -1686 0
-1693 1669 1687 0
1693 -1687 0
-1694 1669 1688 0
1694 -1688 0
-1695 1669 1689 0
1695 -1689 0
-1696 1669 1690 0
1696 -1690 0
-1697 1669 0
1691 -1669 0
-1692 1670 1685 0
1692 -1669 -1685 0
-1693 1670 1686 0
1693 -1669 -1686 0
-1694 1670 1687 0
1694 -1669 -1687 0
-1695 1670 1688 0
1695 -1669 -1688 0
-1696 1670 1689 0
1696 -1669 -1689 0
-1697 1670 1690 0
1697 -1669 -1690 0
-1698 1670 0
1692 -1670 0
-1693 1671 1685 0
1693 -1670 -1685 0
-1694 1671 1686 0
1694 -1670 -1686 0
-1695 1671 1687 0
1695 -1670 -1687 0
-1696 1671 1688 0
1696 -1670 -1688 0
-1697 1671 1689 0
1697 -1670 -1689 0
-1698 1671 1690 0
1698 -1670 -1690 0
-1699 1671 0
1693 -1671 0
-1694 1672 1685 0
1694 -1671 -1685 0
-1695 1672 1686 0
1695 -1671 -1686 0
-1696 1672 1687 0
1696 -1671 -1687 0
-1697 1672 1688 0
1697 -1671 -1688 0
-1698 1672 1689 0
1698 -1671 -1689 0
-1699 1672 1690 0
1699 -1671 -1690 0
-1700 1672 0
1694 -1672 0
-1695 1673 1685 0
1695 -1672 -1685 0
-1696 1673 1686 0
1696 -1672 -1686 0
-1697 1673 1687 0
1697 -1672 -1687 0
-1698 1673 1688 0
1698 -1672 -1688 0
-1699 1673 1689 0
1699 -1672 -1689 0
-1700 1673 1690 0
1700 -1672 -1690 0
-1701 1673 0
1695 -1673 0
-1696 1674 1685 0
1696 -1673 -1685 0
-1697 1674 1686 0
1697 -1673 -1686 0
-1698 1674 1687 0
1698 -1673 -1687 0
-1699 1674 1688 0
1699 -1673 -1688 0
-1700 1674 1689 0
1700 -1673 -1689 0
-1701 1674 1690 0
1701 -1673 -1690 0
-1702 1674 0
1696 -1674 0
-1697 1685 0
1697 -1674 -1685 0
-1698 1686 0
1698 -1674 -1686 0
-1699 1687 0
1699 -1674 -1687 0
-1700 1688 0
1700 -1674 -1688 0
-1701 1689 0
1701 -1674 -1689 0
-1702 1690 0
1702 -1674 -1690 0
-1703 170 171 0
1703 -171 0
-1704 170 0
1703 -170 0
-1704 171 0
1704 -170 -171 0
-1705 169 1703 0
1705 -1703 0
-1706 169 1704 0
1706 -1704 0
-1707 169 0
1705 -169 0
-1706 1703 0
1706 -169 -1703 0
-1707 1704 0
1707 -169 -1704 0
-1708 173 174 0
1708 -174 0
-1709 173 0
1708 -173 0
-1709 174 0
1709 -173 -174 0
-1710 172 1708 0
1710 -1708 0
-1711 172 1709 0
1711 -1709 0
-1712 172 0
1710 -172 0
-1711 1708 0
1711 -172 -1708 0
-1712 1709 0
1712 -172 -1709 0
-1713 1705 1710 0
1713 -1710 0
-1714 1705 1711 0
1714 -1711 0
-1715 1705 1712 0
1715 -1712 0
-1716 1705 0
1713 -1705 0
-1714 1706 1710 0
1714 -1705 -1710 0
-1715 1706 1711 0
1715 -1705 -1711 0
-1716 1706 1712 0
1716 -1705 -1712 0
-1717 1706 0
1714 -1706 0
-1715 1707 1710 0
1715 -1706 -1710 0
-1716 1707 1711 0
1716 -1706 -1711 0
-1717 1707 1712 0
1717 -1706 -1712 0
-1718 1707 0
1715 -1707 0
-1716 1710 0
1716 -1707 -1710 0
-1717 1711 0
1717 -1707 -1711 0
-1718 1712 0
1718 -1707 -1712 0
-1719 176 177 0
1719 -177 0
-1720 176 0
1719 -176 0
-1720 177 0
1720 -176 -177 0
-1721 175 1719 0
1721 -1719 0
-1722 175 1720 0
1722 -1720 0
-1723 175 0
1721 -175 0
-1722 1719 0
1722 -175 -1719 0
-1723 1720 0
1723 -175 -1720 0
-1724 179 180 0
1724 -180 0
-1725 179 0
1724 -179 0
-1725 180 0
1725 -179 -180 0
-1726 178 1724 0
1726 -1724 0
-1727 178 1725 0
1727 -1725 0
-1728 178 0
1726 -178 0
-1727 1724 0
1727 -178 -1724 0
-1728 1725 0
1728 -178 -1725 0
-1729 1721 1726 0
1729 -1726 0
-1730 1721 1727 0
1730 -1727 0
-1731 1721 1728 0
1731 -1728 0
-1732 1721 0
1729 -1721 0
-1730 1722 1726 0
1730 -1721 -1726 0
-1731 1722 1727 0
1731 -1721 -1727 0
-1732 1722 1728 0
1732 -1721 -1728 0
-1733 1722 0
1730 -1722 0
-1731 1723 1726 0
1731 -1722 -1726 0
-1732 1723 1727 0
1732 -1722 -1727 0
-1733 1723 1728 0
1733 -1722 -1728 0
-1734 1723 0
1731 -1723 0
-1732 1726 0
1732 -1723 -1726 0
-1733 1727 0
1733 -1723 -1727 0
-1734 1728 0
1734 -1723 -1728 0
-1735 1713 1729 0
1735 -1729 0
-1736 1713 1730 0
1736 -1730 0
-1737 1713 1731 0
1737 -1731 0
-1738 1713 1732 0
1738 -1732 0
-1739 1713 1733 0
1739 -1733 0
-1740 1713 1734 0
1740 -1734 0
-1741 1713 0
1735 -1713 0
-1736 1714 1729 0
1736 -1713 -1729 0
-1737 1714 1730 0
1737 -1713 -1730 0
-1738 1714 1731 0
1738 -1713 -1731 0
-1739 1714 1732 0
1739 -1713 -1732 0
-1740 1714 1733 0
1740 -1713 -1733 0
-1741 1714 1734 0
1741 -1713 -1734 0
-1742 1714 0
1736 -1714 0
-1737 1715 1729 0
1737 -1714 -1729 0
-1738 1715 1730 0
1738 -1714 -1730 0
-1739 1715 1731 0
1739 -1714 -1731 0
-1740 1715 1732 0
1740 -1714 -1732 0
-1741 1715 1733 0
1741 -1714 -1733 0
-1742 1715 1734 0
1742 -1714 -1734 0
-1743 1715 0
1737 -1715 0
-1738 1716 1729 0
1738 -1715 -1729 0
-1739 1716 1730 0
1739 -1715 -1730 0
-1740 1716 1731 0
1740 -1715 -1731 0
-1741 1716 1732 0
1741 -1715 -1732 0
-1742 1716 1733 0
1742 -1715 -1733 0
-1743 1716 1734 0
1743 -1715 -1734 0
-1744 1716 0
1738 -1716 0
-1739 1717 1729 0
1739 -1716 -1729 0
-1740 1717 1730 0
1740 -1716 -1730 0
-1741 1717 1731 0
1741 -1716 -1731 0
-1742 1717 1732 0
1742 -1716 -1732 0
-1743 1717 1733 0
1743 -1716 -1733 0
-1744 1717 1734 0
1744 -1716 -1734 0
-1745 1717 0
1739 -1717 0
-1740 1718 1729 0
1740 -1717 -1729 0
-1741 1718 1730 0
1741 -1717 -1730 0
-1742 1718 1731 0
1742 -1717 -1731 0
-1743 1718 1732 0
1743 -1717 -1732 0
-1744 1718 1733 0
1744 -1717 -1733 0
-1745 1718 1734 0
1745 -1717 -1734 0
-1746 1718 0
1740 -1718 0
-1741 1729 0
1741 -1718 -1729 0
-1742 1730 0
1742 -1718 -1730 0
-1743 1731 0
1743 -1718 -1731 0
-1744 1732 0
1744 -1718 -1732 0
-1745 1733 0
1745 -1718 -1733 0
-1746 1734 0
1746 -1718 -1734 0
-1747 1691 1735 0
1747 -1735 0
-1748 1691 1736 0
1748 -1736 0
-1749 1691 1737 0
1749 -1737 0
-1750 1691 1738 0
1750 -1738 0
-1751 1691 1739 0
1751 -1739 0
-1752 1691 1740 0
1752 -1740 0
-1753 1691 1741 0
1753 -1741 0
-1754 1691 1742 0
1754 -1742 0
-1755 1691 1743 0
1755 -1743 0
-1756 1691 1744 0
1756 -1744 0
-1757 1691 1745 0
1757 -1745 0
-1758 1691 1746 0
1758 -1746 0
-1759 1691 0
1747 -1691 0
-1748 1692 1735 0
1748 -1691 -1735 0
-1749 1692 1736 0
1749 -1691 -1736 0
-1750 1692 1737 0
1750 -1691 -1737 0
-1751 1692 1738 0
1751 -1691 -1738 0
-1752 1692 1739 0
1752 -1691 -1739 0
-1753 1692 1740 0
1753 -1691 -1740 0
-1754 1692 1741 0
1754 -1691 -1741 0
-1755 1692 1742 0
1755 -1691 -1742 0
-1756 1692 1743 0
1756 -1691 -1743 0
-1757 1692 1744 0
1757 -1691 -1744 0
-1758 1692 1745 0
1758 -1691 -1745 0
-1759 1692 1746 0
1759 -1691 -1746 0
-1760 1692 0
1748 -1692 0
-1749 1693 1735 0
1749 -1692 -1735 0
-1750 1693 1736 0
1750 -1692 -1736 0
-1751 1693 1737 0
1751 -1692 -1737 0
-1752 1693 1738 0
1752 -1692 -1738 0
-1753 1693 1739 0
1753 -1692 -1739 0
-1754 1693 1740 0
1754 -1692 -1740 0
-1755 1693 1741 0
1755 -1692 -1741 0
-1756 1693 1742 0
1756 -1692 -1742 0
-1757 1693 1743 0
1757 -1692 -1743 0
-1758 1693 1744 0
1758 -1692 -1744 0
-1759 1693 1745 0
1759 -1692 -1745 0
-1760 1693 1746 0
1760 -1692 -1746 0
-1761 1693 0
1749 -1693 0
-1750 1694 1735 0
1750 -1693 -1735 0
-1751 1694 1736 0
1751 -1693 -1736 0
-1752 1694 1737 0
1752 -1693 -1737 0
-1753 1694 1738 0
1753 -1693 -1738 0
-1754 1694 1739 0
1754 -1693 -1739 0
-1755 1694 1740 0
1755 -1693 -1740 0
-1756 1694 1741 0
1756 -1693 -1741 0
-1757 1694 1742 0
1757 -1693 -1742 0
-1758 1694 1743 0
1758 -1693 -1743 0
-1759 1694 1744 0
1759 -1693 -1744 0
-1760 1694 1745 0
1760 -1693 -1745 0
-1761 1694 1746 0
1761 -1693 -1746 0
-1762 1694 0
1750 -1694 0
-1751 1695 1735 0
1751 -1694 -1735 0
-1752 1695 1736 0
1752 -1694 -1736 0
-1753 1695 1737 0
1753 -1694 -1737 0
-1754 1695 1738 0
1754 -1694 -1738 0
-1755 1695 1739 0
1755 -1694 -1739 0
-1756 1695 1740 0
1756 -1694 -1740 0
-1757 1695 1741 0
1757 -1694 -1741 0
-1758 1695 1742 0
1758 -1694 -1742 0
-1759 1695 1743 0
1759 -1694 -1743 0
-1760 1695 1744 0
1760 -1694 -1744 0
-1761 1695 1745 0
1761 -1694 -1745 0
-1762 1695 1746 0
1762 -1694 -1746 0
-1763 1695 0
1751 -1695 0
-1752 1696 1735 0
1752 -1695 -1735 0
-1753 1696 1736 0
1753 -1695 -1736 0
-1754 1696 1737 0
1754 -1695 -1737 0
-1755 1696 1738 0
1755 -1695 -1738 0
-1756 1696 1739 0
1756 -1695 -1739 0
-1757 1696 1740 0
1757 -1695 -1740 0
-1758 1696 1741 0
1758 -1695 -1741 0
-1759 1696 1742 0
1759 -1695 -1742 0
-1760 1696 1743 0
1760 -1695 -1743 0
-1761 1696 1744 0
1761 -1695 -1744 0
-1762 1696 1745 0
1762 -1695 -1745 0
-1763 1696 1746 0
1763 -1695 -1746 0
1752 -1696 0
-1753 1697 1735 0
1753 -1696 -1735 0
-1754 1697 1736 0
1754 -1696 -1736 0
-1755 1697 1737 0
1755 -1696 -1737 0
-1756 1697 1738 0
1756 -1696 -1738 0
-1757 1697 1739 0
1757 -1696 -1739 0
-1758 1697 1740 0
1758 -1696 -1740 0
-1759 1697 1741 0
1759 -1696 -1741 0
-1760 1697 1742 0
1760 -1696 -1742 0
-1761 1697 1743 0
1761 -1696 -1743 0
-1762 1697 1744 0
1762 -1696 -1744 0
-1763 1697 1745 0
1763 -1696 -1745 0
1753 -1697 0
-1754 1698 1735 0
1754 -1697 -1735 0
-1755 1698 1736 0
1755 -1697 -1736 0
-1756 1698 1737 0
1756 -1697 -1737 0
-1757 1698 1738 0
1757 -1697 -1738 0
-1758 1698 1739 0
1758 -1697 -1739 0
-1759 1698 1740 0
1759 -1697 -1740 0
-1760 1698 1741 0
1760 -1697 -1741 0
-1761 1698 1742 0
1761 -1697 -1742 0
-1762 1698 1743 0
1762 -1697 -1743 0
-1763 1698 1744 0
1763 -1697 -1744 0
1754 -1698 0
-1755 1699 1735 0
1755 -1698 -1735 0
-1756 1699 1736 0
1756 -1698 -1736 0
-1757 1699 1737 0
1757 -1698 -1737 0
-1758 1699 1738 0
1758 -1698 -1738 0
-1759 1699 1739 0
1759 -1698 -1739 0
-1760 1699 1740 0
1760 -1698 -1740 0
-1761 1699 1741 0
1761 -1698 -1741 0
-1762 1699 1742 0
1762 -1698 -1742 0
-1763 1699 1743 0
1763 -1698 -1743 0
1755 -1699 0
-1756 1700 1735 0
1756 -1699 -1735 0
-1757 1700 1736 0
1757 -1699 -1736 0
-1758 1700 1737 0
1758 -1699 -1737 0
-1759 1700 1738 0
1759 -1699 -1738 0
-1760 1700 1739 0
1760 -1699 -1739 0
-1761 1700 1740 0
1761 -1699 -1740 0
-1762 1700 1741 0
1762 -1699 -1741 0
-1763 1700 1742 0
1763 -1699 -1742 0
1756 -1700 0
-1757 1701 1735 0
1757 -1700 -1735 0
-1758 1701 1736 0
1758 -1700 -1736 0
-1759 1701 1737 0
1759 -1700 -1737 0
-1760 1701 1738 0
1760 -1700 -1738 0
-1761 1701 1739 0
1761 -1700 -1739 0
-1762 1701 1740 0
1762 -1700 -1740 0
-1763 1701 1741 0
1763 -1700 -1741 0
1757 -1701 0
-1758 1702 1735 0
1758 -1701 -1735 0
-1759 1702 1736 0
1759 -1701 -1736 0
-1760 1702 1737 0
1760 -1701 -1737 0
-1761 1702 1738 0
1761 -1701 -1738 0
-1762 1702 1739 0
1762 -1701 -1739 0
-1763 1702 1740 0
1763 -1701 -1740 0
1758 -1702 0
-1759 1735 0
1759 -1702 -1735 0
-1760 1736 0
1760 -1702 -1736 0
-1761 1737 0
1761 -1702 -1737 0
-1762 1738 0
1762 -1702 -1738 0
-1763 1739 0
1763 -1702 -1739 0
-1764 38 39 0
1764 -39 0
-1765 38 0
1764 -38 0
-1765 39 0
1765 -38 -39 0
-1766 37 1764 0
1766 -1764 0
-1767 37 1765 0
1767 -1765 0
-1768 37 0
1766 -37 0
-1767 1764 0
1767 -37 -1764 0
-1768 1765 0
1768 -37 -1765 0
-1769 41 42 0
1769 -42 0
-1770 41 0
1769 -41 0
-1770 42 0
1770 -41 -42 0
-1771 40 1769 0
1771 -1769 0
-1772 40 1770 0
1772 -1770 0
-1773 40 0
1771 -40 0
-1772 1769 0
1772 -40 -1769 0
-1773 1770 0
1773 -40 -1770 0
-1774 1766 1771 0
1774 -1771 0
-1775 1766 1772 0
1775 -1772 0
-1776 1766 1773 0
1776 -1773 0
-1777 1766 0
1774 -1766 0
-1775 1767 1771 0
1775 -1766 -1771 0
-1776 1767 1772 0
1776 -1766 -1772 0
-1777 1767 1773 0
1777 -1766 -1773 0
-1778 1767 0
1775 -1767 0
-1776 1768 1771 0
1776 -1767 -1771 0
-1777 1768 1772 0
1777 -1767 -1772 0
-1778 1768 1773 0
1778 -1767 -1773 0
-1779 1768 0
1776 -1768 0
-1777 1771 0
1777 -1768 -1771 0
-1778 1772 0
1778 -1768 -1772 0
-1779 1773 0
1779 -1768 -1773 0
-1780 44 45 0
1780 -45 0
-1781 44 0
1780 -44 0
-1781 45 0
1781 -44 -45 0
-1782 43 1780 0
1782 -1780 0
-1783 43 1781 0
1783 -1781 0
-1784 43 0
1782 -43 0
-1783 1780 0
1783 -43 -1780 0
-1784 1781 0
1784 -43 -1781 0
-1785 47 48 0
1785 -48 0
-1786 47 0
1785 -47 0
-1786 48 0
1786 -47 -48 0
-1787 46 1785 0
1787 -1785 0
-1788 46 1786 0
1788 -1786 0
-1789 46 0
1787 -46 0
-1788 1785 0
1788 -46 -1785 0
-1789 1786 0
1789 -46 -1786 0
-1790 1782 1787 0
1790 -1787 0
-1791 1782 1788 0
1791 -1788 0
-1792 1782 1789 0
1792 -1789 0
-1793 1782 0
1790 -1782 0
-1791 1783 1787 0
1791 -1782 -1787 0
-1792 1783 1788 0
1792 -1782 -1788 0
-1793 1783 1789 0
1793 -1782 -1789 0
-1794 1783 0
1791 -1783 0
-1792 1784 1787 0
1792 -1783 -1787 0
-1793 1784 1788 0
1793 -1783 -1788 0
-1794 1784 1789 0
1794 -1783 -1789 0
-1795 1784 0
1792 -1784 0
-1793 1787 0
1793 -1784 -1787 0
-1794 1788 0
1794 -1784 -1788 0
-1795 1789 0
1795 -1784 -1789 0
-1796 1774 1790 0
1796 -1790 0
-1797 1774 1791 0
1797 -1791 0
-1798 1774 1792 0
1798 -1792 0
-1799 1774 1793 0
1799 -1793 0
-1800 1774 1794 0
1800 -1794 0
-1801 1774 1795 0
1801 -1795 0
-1802 1774 0
1796 -1774 0
-1797 1775 1790 0
1797 -1774 -1790 0
-1798 1775 1791 0
1798 -1774 -1791 0
-1799 1775 1792 0
1799 -1774 -1792 0
-1800 1775 1793 0
1800 -1774 -1793 0
-1801 1775 1794 0
1801 -1774 -1794 0
-1802 1775 1795 0
1802 -1774 -1795 0
-1803 1775 0
1797 -1775 0
-1798 1776 1790 0
1798 -1775 -1790 0
-1799 1776 1791 0
1799 -1775 -1791 0
-1800 1776 1792 0
1800 -1775 -1792 0
-1801 1776 1793 0
1801 -1775 -1793 0
-1802 1776 1794 0
1802 -1775 -1794 0
-1803 1776 1795 0
1803 -1775 -1795 0
-1804 1776 0
1798 -1776 0
-1799 1777 1790 0
1799 -1776 -1790 0
-1800 1777 1791 0
1800 -1776 -1791 0
-1801 1777 1792 0
1801 -1776 -1792 0
-1802 1777 1793 0
1802 -1776 -1793 0
-1803 1777 1794 0
1803 -1776 -1794 0
-1804 1777 1795 0
1804 -1776 -1795 0
-1805 1777 0
1799 -1777 0
-1800 1778 1790 0
1800 -1777 -1790 0
-1801 1778 1791 0
1801 -1777 -1791 0
-1802 1778 1792 0
1802 -1777 -1792 0
-1803 1778 1793 0
1803 -1777 -1793 0
-1804 1778 1794 0
1804 -1777 -1794 0
-1805 1778 1795 0
1805 -1777 -1795 0
-1806 1778 0
1800 -1778 0
-1801 1779 1790 0
1801 -1778 -1790 0
-1802 1779 1791 0
1802 -1778 -1791 0
-1803 1779 1792 0
1803 -1778 -1792 0
-1804 1779 1793 0
1804 -1778 -1793 0
-1805 1779 1794 0
1805 -1778 -1794 0
-1806 1779 1795 0
1806 -1778 -1795 0
-1807 1779 0
1801 -1779 0
-1802 1790 0
1802 -1779 -1790 0
-1803 1791 0
1803 -1779 -1791 0
-1804 1792 0
1804 -1779 -1792 0
-1805 1793 0
1805 -1779 -1793 0
-1806 1794 0
1806 -1779 -1794 0
-1807 1795 0
1807 -1779 -1795 0
-1808 182 183 0
1808 -183 0
-1809 182 0
1808 -182 0
-1809 183 0
1809 -182 -183 0
-1810 181 1808 0
1810 -1808 0
-1811 181 1809 0
1811 -1809 0
-1812 181 0
1810 -181 0
-1811 1808 0
1811 -181 -1808 0
-1812 1809 0
1812 -181 -1809 0
-1813 185 186 0
1813 -186 0
-1814 185 0
1813 -185 0
-1814 186 0
1814 -185 -186 0
-1815 184 1813 0
1815 -1813 0
-1816 184 1814 0
1816 -1814 0
-1817 184 0
1815 -184 0
-1816 1813 0
1816 -184 -1813 0
-1817 1814 0
1817 -184 -1814 0
-1818 1810 1815 0
1818 -1815 0
-1819 1810 1816 0
1819 -1816 0
-1820 1810 1817 0
1820 -1817 0
-1821 1810 0
1818 -1810 0
-1819 1811 1815 0
1819 -1810 -1815 0
-1820 1811 1816 0
1820 -1810 -1816 0
-1821 1811 1817 0
1821 -1810 -1817 0
-1822 1811 0
1819 -1811 0
-1820 1812 1815 0
1820 -1811 -1815 0
-1821 1812 1816 0
1821 -1811 -1816 0
-1822 1812 1817 0
1822 -1811 -1817 0
-1823 1812 0
1820 -1812 0
-1821 1815 0
1821 -1812 -1815 0
-1822 1816 0
1822 -1812 -1816 0
-1823 1817 0
1823 -1812 -1817 0
-1824 188 189 0
1824 -189 0
-1825 188 0
1824 -188 0
-1825 189 0
1825 -188 -189 0
-1826 187 1824 0
1826 -1824 0
-1827 187 1825 0
1827 -1825 0
-1828 187 0
1826 -187 0
-1827 1824 0
1827 -187 -1824 0
-1828 1825 0
1828 -187 -1825 0
-1829 191 192 0
1829 -192 0
-1830 191 0
1829 -191 0
-1830 192 0
1830 -191 -192 0
-1831 190 1829 0
1831 -1829 0
-1832 190 1830 0
1832 -1830 0
-1833 190 0
1831 -190 0
-1832 1829 0
1832 -190 -1829 0
-1833 1830 0
1833 -190 -1830 0
-1834 1826 1831 0
1834 -1831 0
-1835 1826 1832 0
1835 -1832 0
-1836 1826 1833 0
1836 -1833 0
-1837 1826 0
1834 -1826 0
-1835 1827 1831 0
1835 -1826 -1831 0
-1836 1827 1832 0
1836 -1826 -1832 0
-1837 1827 1833 0
1837 -1826 -1833 0
-1838 1827 0
1835 -1827 0
-1836 1828 1831 0
1836 -1827 -1831 0
-1837 1828 1832 0
1837 -1827 -1832 0
-1838 1828 1833 0
1838 -1827 -1833 0
-1839 1828 0
1836 -1828 0
-1837 1831 0
1837 -1828 -1831 0
-1838 1832 0
1838 -1828 -1832 0
-1839 1833 0
1839 -1828 -1833 0
-1840 1818 1834 0
1840 -1834 0
-1841 1818 1835 0
1841 -1835 0
-1842 1818 1836 0
1842 -1836 0
-1843 1818 1837 0
1843 -1837 0
-1844 1818 1838 0
1844 -1838 0
-1845 1818 1839 0
1845 -1839 0
-1846 1818 0
1840 -1818 0
-1841 1819 1834 0
1841 -1818 -1834 0
-1842 1819 1835 0
1842 -1818 -1835 0
-1843 1819 1836 0
1843 -1818 -1836 0
-1844 1819 1837 0
1844 -1818 -1837 0
-1845 1819 1838 0
1845 -1818 -1838 0
-1846 1819 1839 0
1846 -1818 -1839 0
-1847 1819 0
1841 -1819 0
-1842 1820 1834 0
1842 -1819 -1834 0
-1843 1820 1835 0
1843 -1819 -1835 0
-1844 1820 1836 0
1844 -1819 -1836 0
-1845 1820 1837 0
1845 -1819 -1837 0
-1846 1820 1838 0
1846 -1819 -1838 0
-1847 1820 1839 0
1847 -1819 -1839 0
-1848 1820 0
1842 -1820 0
-1843 1821 1834 0
1843 -1820 -1834 0
-1844 1821 1835 0
1844 -1820 -1835 0
-1845 1821 1836 0
1845 -1820 -1836 0
-1846 1821 1837 0
1846 -1820 -1837 0
-1847 1821 1838 0
1847 -1820 -1838 0
-1848 1821 1839 0
1848 -1820 -1839 0
-1849 1821 0
1843 -1821 0
-1844 1822 1834 0
1844 -1821 -1834 0
-1845 1822 1835 0
1845 -1821 -1835 0
-1846 1822 1836 0
1846 -1821 -1836 0
-1847 1822 1837 0
1847 -1821 -1837 0
-1848 1822 1838 0
1848 -1821 -1838 0
-1849 1822 1839 0
1849 -1821 -1839 0
-1850 1822 0
1844 -1822 0
-1845 1823 1834 0
1845 -1822 -1834 0
-1846 1823 1835 0
1846 -1822 -1835 0
-1847 1823 1836 0
1847 -1822 -1836 0
-1848 1823 1837 0
1848 -1822 -1837 0
-1849 1823 1838 0
1849 -1822 -1838 0
-1850 1823 1839 0
1850 -1822 -1839 0
-1851 1823 0
1845 -1823 0
-1846 1834 0
1846 -1823 -1834 0
-1847 1835 0
1847 -1823 -1835 0
-1848 1836 0
1848 -1823 -1836 0
-1849 1837 0
1849 -1823 -1837 0
-1850 1838 0
1850 -1823 -1838 0
-1851 1839 0
1851 -1823 -1839 0
-1852 1796 1840 0
1852 -1840 0
-1853 1796 1841 0
1853 -1841 0
-1854 1796 1842 0
1854 -1842 0
-1855 1796 1843 0
1855 -1843 0
-1856 1796 1844 0
1856 -1844 0
-1857 1796 1845 0
1857 -1845 0
-1858 1796 1846 0
1858 -1846 0
-1859 1796 1847 0
1859 -1847 0
-1860 1796 1848 0
1860 -1848 0
-1861 1796 1849 0
1861 -1849 0
-1862 1796 1850 0
1862 -1850 0
-1863 1796 1851 0
1863 -1851 0
-1864 1796 0
1852 -1796 0
-1853 1797 1840 0
1853 -1796 -1840 0
-1854 1797 1841 0
1854 -1796 -1841 0
-1855 1797 1842 0
1855 -1796 -1842 0
-1856 1797 1843 0
1856 -1796 -1843 0
-1857 1797 1844 0
1857 -1796 -1844 0
-1858 1797 1845 0
1858 -1796 -1845 0
-1859 1797 1846 0
1859 -1796 -1846 0
-1860 1797 1847 0
1860 -1796 -1847 0
-1861 1797 1848 0
1861 -1796 -1848 0
-1862 1797 1849 0
1862 -1796 -1849 0
-1863 1797 1850 0
1863 -1796 -1850 0
-1864 1797 1851 0
1864 -1796 -1851 0
-1865 1797 0
1853 -1797 0
-1854 1798 1840 0
1854 -1797 -1840 0
-1855 1798 1841 0
1855 -1797 -1841 0
-1856 1798 1842 0
1856 -1797 -1842 0
-1857 1798 1843 0
1857 -1797 -1843 0
-1858 1798 1844 0
1858 -1797 -1844 0
-1859 1798 1845 0
1859 -1797 -1845 0
-1860 1798 1846 0
1860 -1797 -1846 0
-1861 1798 1847 0
1861 -1797 -1847 0
-1862 1798 1848 0
1862 -1797 -1848 0
-1863 1798 1849 0
1863 -1797 -1849 0
-1864 1798 1850 0
1864 -1797 -1850 0
-1865 1798 1851 0
1865 -1797 -1851 0
-1866 1798 0
1854 -1798 0
-1855 1799 1840 0
1855 -1798 -1840 0
-1856 1799 1841 0
1856 -1798 -1841 0
-1857 1799 1842 0
1857 -1798 -1842 0
-1858 1799 1843 0
1858 -1798 -1843 0
-1859 1799 1844 0
1859 -1798 -1844 0
-1860 1799 1845 0
1860 -1798 -1845 0
-1861 1799 1846 0
1861 -1798 -1846 0
-1862 1799 1847 0
1862 -1798 -1847 0
-1863 1799 1848 0
1863 -1798 -1848 0
-1864 1799 1849 0
1864 -1798 -1849 0
-1865 1799 1850 0
1865 -1798 -1850 0
-1866 1799 1851 0
1866 -1798 -1851 0
-1867 1799 0
1855 -1799 0
-1856 1800 1840 0
1856 -1799 -1840 0
-1857 1800 1841 0
1857 -1799 -1841 0
-1858 1800 1842 0
1858 -1799 -1842 0
-1859 1800 1843 0
1859 -1799 -1843 0
-1860 1800 1844 0
1860 -1799 -1844 0
-1861 1800 1845 0
1861 -1799 -1845 0
-1862 1800 1846 0
1862 -1799 -1846 0
-1863 1800 1847 0
1863 -1799 -1847 0
-1864 1800 1848 0
1864 -1799 -1848 0
-1865 1800 1849 0
1865 -1799 -1849 0
-1866 1800 1850 0
1866 -1799 -1850 0
-1867 1800 1851 0
1867 -1799 -1851 0
-1868 1800 0
1856 -1800 0
-1857 1801 1840 0
1857 -1800 -1840 0
-1858 1801 1841 0
1858 -1800 -1841 0
-1859 1801 1842 0
1859 -1800 -1842 0
-1860 1801 1843 0
1860 -1800 -1843 0
-1861 1801 1844 0
1861 -1800 -1844 0
-1862 1801 1845 0
1862 -1800 -1845 0
-1863 1801 1846 0
1863 -1800 -1846 0
-1864 1801 1847 0
1864 -1800 -1847 0
-1865 1801 1848 0
1865 -1800 -1848 0
-1866 1801 1849 0
1866 -1800 -1849 0
-1867 1801 1850 0
1867 -1800 -1850 0
-1868 1801 1851 0
1868 -1800 -1851 0
1857 -1801 0
-1858 1802 1840 0
1858 -1801 -1840 0
-1859 1802 1841 0
1859 -1801 -1841 0
-1860 1802 1842 0
1860 -1801 -1842 0
-1861 1802 1843 0
1861 -1801 -1843 0
-1862 1802 1844 0
1862 -1801 -1844 0
-1863 1802 1845 0
1863 -1801 -1845 0
-1864 1802 1846 0
1864 -1801 -1846 0
-1865 1802 1847 0
1865 -1801 -1847 0
-1866 1802 1848 0
1866 -1801 -1848 0
-1867 1802 1849 0
1867 -1801 -1849 0
-1868 1802 1850 0
1868 -1801 -1850 0
1858 -1802 0
-1859 1803 1840 0
1859 -1802 -1840 0
-1860 1803 1841 0
1860 -1802 -1841 0
-1861 1803 1842 0
1861 -1802 -1842 0
-1862 1803 1843 0
1862 -1802 -1843 0
-1863 1803 1844 0
1863 -1802 -1844 0
-1864 1803 1845 0
1864 -1802 -1845 0
-1865 1803 1846 0
1865 -1802 -1846 0
-1866 1803 1847 0
1866 -1802 -1847 0
-1867 1803 1848 0
1867 -1802 -1848 0
-1868 1803 1849 0
1868 -1802 -1849 0
1859 -1803 0
-1860 1804 1840 0
1860 -1803 -1840 0
-1861 1804 1841 0
1861 -1803 -1841 0
-1862 1804 1842 0
1862 -1803 -1842 0
-1863 1804 1843 0
1863 -1803 -1843 0
-1864 1804 1844 0
1864 -1803 -1844 0
-1865 1804 1845 0
1865 -1803 -1845 0
-1866 1804 1846 0
1866 -1803 -1846 0
-1867 1804 1847 0
1867 -1803 -1847 0
-1868 1804 1848 0
1868 -1803 -1848 0
1860 -1804 0
-1861 1805 1840 0
1861 -1804 -1840 0
-1862 1805 1841 0
1862 -1804 -1841 0
-1863 1805 1842 0
1863 -1804 -1842 0
-1864 1805 1843 0
1864 -1804 -1843 0
-1865 1805 1844 0
1865 -1804 -1844 0
-1866 1805 1845 0
1866 -1804 -1845 0
-1867 1805 1846 0
1867 -1804 -1846 0
-1868 1805 1847 0
1868 -1804 -1847 0
1861 -1805 0
-1862 1806 1840 0
1862 -1805 -1840 0
-1863 1806 1841 0
1863 -1805 -1841 0
-1864 1806 1842 0
1864 -1805 -1842 0
-1865 1806 1843 0
1865 -1805 -1843 0
-1866 1806 1844 0
1866 -1805 -1844 0
-1867 1806 1845 0
1867 -1805 -1845 0
-1868 1806 1846 0
1868 -1805 -1846 0
1862 -1806 0
-1863 1807 1840 0
1863 -1806 -1840 0
-1864 1807 1841 0
1864 -1806 -1841 0
-1865 1807 1842 0
1865 -1806 -1842 0
-1866 1807 1843 0
1866 -1806 -1843 0
-1867 1807 1844 0
1867 -1806 -1844 0
-1868 1807 1845 0
1868 -1806 -1845 0
1863 -1807 0
-1864 1840 0
1864 -1807 -1840 0
-1865 1841 0
1865 -1807 -1841 0
-1866 1842 0
1866 -1807 -1842 0
-1867 1843 0
1867 -1807 -1843 0
-1868 1844 0
1868 -1807 -1844 0
-1869 50 51 0
1869 -51 0
-1870 50 0
1869 -50 0
-1870 51 0
1870 -50 -51 0
-1871 49 1869 0
1871 -1869 0
-1872 49 1870 0
1872 -1870 0
-1873 49 0
1871 -49 0
-1872 1869 0
1872 -49 -1869 0
-1873 1870 0
1873 -49 -1870 0
-1874 53 54 0
1874 -54 0
-1875 53 0
1874 -53 0
-1875 54 0
1875 -53 -54 0
-1876 52 1874 0
1876 -1874 0
-1877 52 1875 0
1877 -1875 0
-1878 52 0
1876 -52 0
-1877 1874 0
1877 -52 -1874 0
-1878 1875 0
1878 -52 -1875 0
-1879 1871 1876 0
1879 -1876 0
-1880 1871 1877 0
1880 -1877 0
-1881 1871 1878 0
1881 -1878 0
-1882 1871 0
1879 -1871 0
-1880 1872 1876 0
1880 -1871 -1876 0
-1881 1872 1877 0
1881 -1871 -1877 0
-1882 1872 1878 0
1882 -1871 -1878 0
-1883 1872 0
1880 -1872 0
-1881 1873 1876 0
1881 -1872 -1876 0
-1882 1873 1877 0
1882 -1872 -1877 0
-1883 1873 1878 0
1883 -1872 -1878 0
-1884 1873 0
1881 -1873 0
-1882 1876 0
1882 -1873 -1876 0
-1883 1877 0
1883 -1873 -1877 0
-1884 1878 0
1884 -1873 -1878 0
-1885 56 57 0
1885 -57 0
-1886 56 0
1885 -56 0
-1886 57 0
1886 -56 -57 0
-1887 55 1885 0
1887 -1885 0
-1888 55 1886 0
1888 -1886 0
-1889 55 0
1887 -55 0
-1888 1885 0
1888 -55 -1885 0
-1889 1886 0
1889 -55 -1886 0
-1890 59 60 0
1890 -60 0
-1891 59 0
1890 -59 0
-1891 60 0
1891 -59 -60 0
-1892 58 1890 0
1892 -1890 0
-1893 58 1891 0
1893 -1891 0
-1894 58 0
1892 -58 0
-1893 1890 0
1893 -58 -1890 0
-1894 1891 0
1894 -58 -1891 0
-1895 1887 1892 0
1895 -1892 0
-1896 1887 1893 0
1896 -1893 0
-1897 1887 1894 0
1897 -1894 0
-1898 1887 0
1895 -1887 0
-1896 1888 1892 0
1896 -1887 -1892 0
-1897 1888 1893 0
1897 -1887 -1893 0
-1898 1888 1894 0
1898 -1887 -1894 0
-1899 1888 0
1896 -1888 0
-1897 1889 1892 0
1897 -1888 -1892 0
-1898 1889 1893 0
1898 -1888 -1893 0
-1899 1889 1894 0
1899 -1888 -1894 0
-1900 1889 0
1897 -1889 0
-1898 1892 0
1898 -1889 -1892 0
-1899 1893 0
1899 -1889 -1893 0
-1900 1894 0
1900 -1889 -1894 0
-1901 1879 1895 0
1901 -1895 0
-1902 1879 1896 0
1902 -1896 0
-1903 1879 1897 0
1903 -1897 0
-1904 1879 1898 0
1904 -1898 0
-1905 1879 1899 0
1905 -1899 0
-1906 1879 1900 0
1906 -1900 0
-1907 1879 0
1901 -1879 0
-1902 1880 1895 0
1902 -1879 -1895 0
-1903 1880 1896 0
1903 -1879 -1896 0
-1904 1880 1897 0
1904 -1879 -1897 0
-1905 1880 1898 0
1905 -1879 -1898 0
-1906 1880 1899 0
1906 -1879 -1899 0
-1907 1880 1900 0
1907 -1879 -1900 0
-1908 1880 0
1902 -1880 0
-1903 1881 1895 0
1903 -1880 -1895 0
-1904 1881 1896 0
1904 -1880 -1896 0
-1905 1881 1897 0
1905 -1880 -1897 0
-1906 1881 1898 0
1906 -1880 -1898 0
-1907 1881 1899 0
1907 -1880 -1899 0
-1908 1881 1900 0
1908 -1880 -1900 0
-1909 1881 0
1903 -1881 0
-1904 1882 1895 0
1904 -1881 -1895 0
-1905 1882 1896 0
1905 -1881 -1896 0
-1906 1882 1897 0
1906 -1881 -1897 0
-1907 1882 1898 0
1907 -1881 -1898 0
-1908 1882 1899 0
1908 -1881 -1899 0
-1909 1882 1900 0
1909 -1881 -1900 0
-1910 1882 0
1904 -1882 0
-1905 1883 1895 0
1905 -1882 -1895 0
-1906 1883 1896 0
1906 -1882 -1896 0
-1907 1883 1897 0
1907 -1882 -1897 0
-1908 1883 1898 0
1908 -1882 -1898 0
-1909 1883 1899 0
1909 -1882 -1899 0
-1910 1883 1900 0
1910 -1882 -1900 0
-1911 1883 0
1905 -1883 0
-1906 1884 1895 0
1906 -1883 -1895 0
-1907 1884 1896 0
1907 -1883 -1896 0
-1908 1884 1897 0
1908 -1883 -1897 0
-1909 1884 1898 0
1909 -1883 -1898 0
-1910 1884 1899 0
1910 -1883 -1899 0
-1911 1884 1900 0
1911 -1883 -1900 0
-1912 1884 0
1906 -1884 0
-1907 1895 0
1907 -1884 -1895 0
-1908 1896 0
1908 -1884 -1896 0
-1909 1897 0
1909 -1884 -1897 0
-1910 1898 0
1910 -1884 -1898 0
-1911 1899 0
1911 -1884 -1899 0
-1912 1900 0
1912 -1884 -1900 0
-1913 194 195 0
1913 -195 0
-1914 194 0
1913 -194 0
-1914 195 0
1914 -194 -195 0
-1915 193 1913 0
1915 -1913 0
-1916 193 1914 0
1916 -1914 0
-1917 193 0
1915 -193 0
-1916 1913 0
1916 -193 -1913 0
-1917 1914 0
1917 -193 -1914 0
-1918 197 198 0
1918 -198 0
-1919 197 0
1918 -197 0
-1919 198 0
1919 -197 -198 0
-1920 196 1918 0
1920 -1918 0
-1921 196 1919 0
1921 -1919 0
-1922 196 0
1920 -196 0
-1921 1918 0
1921 -196 -1918 0
-1922 1919 0
1922 -196 -1919 0
-1923 1915 1920 0
1923 -1920 0
-1924 1915 1921 0
1924 -1921 0
-1925 1915 1922 0
1925 -1922 0
-1926 1915 0
1923 -1915 0
-1924 1916 1920 0
1924 -1915 -1920 0
-1925 1916 1921 0
1925 -1915 -1921 0
-1926 1916 1922 0
1926 -1915 -1922 0
-1927 1916 0
1924 -1916 0
-1925 1917 1920 0
1925 -1916 -1920 0
-1926 1917 1921 0
1926 -1916 -1921 0
-1927 1917 1922 0
1927 -1916 -1922 0
-1928 1917 0
1925 -1917 0
-1926 1920 0
1926 -1917 -1920 0
-1927 1921 0
1927 -1917 -1921 0
-1928 1922 0
1928 -1917 -1922 0
-1929 200 201 0
1929 -201 0
-1930 200 0
1929 -200 0
-1930 201 0
1930 -200 -201 0
-1931 199 1929 0
1931 -1929 0
-1932 199 1930 0
1932 -1930 0
-1933 199 0
1931 -199 0
-1932 1929 0
1932 -199 -1929 0
-1933 1930 0
1933 -199 -1930 0
-1934 203 204 0
1934 -204 0
-1935 203 0
1934 -203 0
-1935 204 0
1935 -203 -204 0
-1936 202 1934 0
1936 -1934 0
-1937 202 1935 0
1937 -1935 0
-1938 202 0
1936 -202 0
-1937 1934 0
1937 -202 -1934 0
-1938 1935 0
1938 -202 -1935 0
-1939 1931 1936 0
1939 -1936 0
-1940 1931 1937 0
1940 -1937 0
-1941 1931 1938 0
1941 -1938 0
-1942 1931 0
1939 -1931 0
-1940 1932 1936 0
1940 -1931 -1936 0
-1941 1932 1937 0
1941 -1931 -1937 0
-1942 1932 1938 0
1942 -1931 -1938 0
-1943 1932 0
1940 -1932 0
-1941 1933 1936 0
1941 -1932 -1936 0
-1942 1933 1937 0
1942 -1932 -1937 0
-1943 1933 1938 0
1943 -1932 -1938 0
-1944 1933 0
1941 -1933 0
-1942 1936 0
1942 -1933 -1936 0
-1943 1937 0
1943 -1933 -1937 0
-1944 1938 0
1944 -1933 -1938 0
-1945 1923 1939 0
1945 -1939 0
-1946 1923 1940 0
1946 -1940 0
-1947 1923 1941 0
1947 -1941 0
-1948 1923 1942 0
1948 -1942 0
-1949 1923 1943 0
1949 -1943 0
-1950 1923 1944 0
1950 -1944 0
-1951 1923 0
1945 -1923 0
-1946 1924 1939 0
1946 -1923 -1939 0
-1947 1924 1940 0
1947 -1923 -1940 0
-1948 1924 1941 0
1948 -1923 -1941 0
-1949 1924 1942 0
1949 -1923 -1942 0
-1950 1924 1943 0
1950 -1923 -1943 0
-1951 1924 1944 0
1951 -1923 -1944 0
-1952 1924 0
1946 -1924 0
-1947 1925 1939 0
1947 -1924 -1939 0
-1948 1925 1940 0
1948 -1924 -1940 0
-1949 1925 1941 0
1949 -1924 -1941 0
-1950 1925 1942 0
1950 -1924 -1942 0
-1951 1925 1943 0
1951 -1924 -1943 0
-1952 1925 1944 0
1952 -1924 -1944 0
-1953 1925 0
1947 -1925 0
-1948 1926 1939 0
1948 -1925 -1939 0
-1949 1926 1940 0
1949 -1925 -1940 0
-1950 1926 1941 0
1950 -1925 -1941 0
-1951 1926 1942 0
1951 -1925 -1942 0
-1952 1926 1943 0
1952 -1925 -1943 0
-1953 1926 1944 0
1953 -1925 -1944 0
-1954 1926 0
1948 -1926 0
-1949 1927 1939 0
1949 -1926 -1939 0
-1950 1927 1940 0
1950 -1926 -1940 0
-1951 1927 1941 0
1951 -1926 -1941 0
-1952 1927 1942 0
1952 -1926 -1942 0
-1953 1927 1943 0
1953 -1926 -1943 0
-1954 1927 1944 0
1954 -1926 -1944 0
-1955 1927 0
1949 -1927 0
-1950 1928 1939 0
1950 -1927 -1939 0
-1951 1928 1940 0
1951 -1927 -1940 0
-1952 1928 1941 0
1952 -1927 -1941 0
-1953 1928 1942 0
1953 -1927 -1942 0
-1954 1928 1943 0
1954 -1927 -1943 0
-1955 1928 1944 0
1955 -1927 -1944 0
-1956 1928 0
1950 -1928 0
-1951 1939 0
1951 -1928 -1939 0
-1952 1940 0
1952 -1928 -1940 0
-1953 1941 0
1953 -1928 -1941 0
-1954 1942 0
1954 -1928 -1942 0
-1955 1943 0
1955 -1928 -1943 0
-1956 1944 0
1956 -1928 -1944 0
-1957 1901 1945 0
1957 -1945 0
-1958 1901 1946 0
1958 -1946 0
-1959 1901 1947 0
1959 -1947 0
-1960 1901 1948 0
1960 -1948 0
-1961 1901 1949 0
1961 -1949 0
-1962 1901 1950 0
1962 -1950 0
-1963 1901 1951 0
1963 -1951 0
-1964 1901 1952 0
1964 -1952 0
-1965 1901 1953 0
1965 -1953 0
-1966 1901 1954 0
1966 -1954 0
-1967 1901 1955 0
1967 -1955 0
-1968 1901 1956 0
1968 -1956 0
-1969 1901 0
1957 -1901 0
-1958 1902 1945 0
1958 -1901 -1945 0
-1959 1902 1946 0
1959 -1901 -1946 0
-1960 1902 1947 0
1960 -1901 -1947 0
-1961 1902 1948 0
1961 -1901 -1948 0
-1962 1902 1949 0
1962 -1901 -1949 0
-1963 1902 1950 0
1963 -1901 -1950 0
-1964 1902 1951 0
1964 -1901 -1951 0
-1965 1902 1952 0
1965 -1901 -1952 0
-1966 1902 1953 0
1966 -1901 -1953 0
-1967 1902 1954 0
1967 -1901 -1954 0
-1968 1902 1955 0
1968 -1901 -1955 0
-1969 1902 1956 0
1969 -1901 -1956 0
-1970 1902 0
1958 -1902 0
-1959 1903 1945 0
1959 -1902 -1945 0
-1960 1903 1946 0
1960 -1902 -1946 0
-1961 1903 1947 0
1961 -1902 -1947 0
-1962 1903 1948 0
1962 -1902 -1948 0
-1963 1903 1949 0
1963 -1902 -1949 0
-1964 1903 1950 0
1964 -1902 -1950 0
-1965 1903 1951 0
1965 -1902 -1951 0
-1966 1903 1952 0
1966 -1902 -1952 0
-1967 1903 1953 0
1967 -1902 -1953 0
-1968 1903 1954 0
1968 -1902 -1954 0
-1969 1903 1955 0
1969 -1902 -1955 0
-1970 1903 1956 0
1970 -1902 -1956 0
-1971 1903 0
1959 -1903 0
-1960 1904 1945 0
1960 -1903 -1945 0
-1961 1904 1946 0
1961 -1903 -1946 0
-1962 1904 1947 0
1962 -1903 -1947 0
-1963 1904 1948 0
1963 -1903 -1948 0
-1964 1904 1949 0
1964 -1903 -1949 0
-1965 1904 1950 0
1965 -1903 -1950 0
-1966 1904 1951 0
1966 -1903 -1951 0
-1967 1904 1952 0
1967 -1903 -1952 0
-1968 1904 1953 0
1968 -1903 -1953 0
-1969 1904 1954 0
1969 -1903 -1954 0
-1970 1904 1955 0
1970 -1903 -1955 0
-1971 1904 1956 0
1971 -1903 -1956 0
-1972 1904 0
1960 -1904 0
-1961 1905 1945 0
1961 -1904 -1945 0
-1962 1905 1946 0
1962 -1904 -1946 0
-1963 1905 1947 0
1963 -1904 -1947 0
-1964 1905 1948 0
1964 -1904 -1948 0
-1965 1905 1949 0
1965 -1904 -1949 0
-1966 1905 1950 0
1966 -1904 -1950 0
-1967 1905 1951 0
1967 -1904 -1951 0
-1968 1905 1952 0
1968 -1904 -1952 0
-1969 1905 1953 0
1969 -1904 -1953 0
-1970 1905 1954 0
1970 -1904 -1954 0
-1971 1905 1955 0
1971 -1904 -1955 0
-1972 1905 1956 0
1972 -1904 -1956 0
-1973 1905 0
1961 -1905 0
-1962 1906 1945 0
1962 -1905 -1945 0
-1963 1906 1946 0
1963 -1905 -1946 0
-1964 1906 1947 0
1964 -1905 -1947 0
-1965 1906 1948 0
1965 -1905 -1948 0
-1966 1906 1949 0
1966 -1905 -1949 0
-1967 1906 1950 0
1967 -1905 -1950 0
-1968 1906 1951 0
1968 -1905 -1951 0
-1969 1906 1952 0
1969 -1905 -1952 0
-1970 1906 1953 0
1970 -1905 -1953 0
-1971 1906 1954 0
1971 -1905 -1954 0
-1972 1906 1955 0
1972 -1905 -1955 0
-1973 1906 1956 0
1973 -1905 -1956 0
1962 -1906 0
-1963 1907 1945 0
1963 -1906 -1945 0
-1964 1907 1946 0
1964 -1906 -1946 0
-1965 1907 1947 0
1965 -1906 -1947 0
-1966 1907 1948 0
1966 -1906 -1948 0
-1967 1907 1949 0
1967 -1906 -1949 0
-1968 1907 1950 0
1968 -1906 -1950 0
-1969 1907 1951 0
1969 -1906 -1951 0
-1970 1907 1952 0
1970 -1906 -1952 0
-1971 1907 1953 0
1971 -1906 -1953 0
-1972 1907 1954 0
1972 -1906 -1954 0
-1973 1907 1955 0
1973 -1906 -1955 0
1963 -1907 0
-1964 1908 1945 0
1964 -1907 -1945 0
-1965 1908 1946 0
1965 -1907 -1946 0
-1966 1908 1947 0
1966 -1907 -1947 0
-1967 1908 1948 0
1967 -1907 -1948 0
-1968 1908 1949 0
1968 -1907 -1949 0
-1969 1908 1950 0
1969 -1907 -1950 0
-1970 1908 1951 0
1970 -1907 -1951 0
-1971 1908 1952 0
1971 -1907 -1952 0
-1972 1908 1953 0
1972 -1907 -1953 0
-1973 1908 1954 0
1973 -1907 -1954 0
1964 -1908 0
-1965 1909 1945 0
1965 -1908 -1945 0
-1966 1909 1946 0
1966 -1908 -1946 0
-1967 1909 1947 0
1967 -1908 -1947 0
-1968 1909 1948 0
1968 -1908 -1948 0
-1969 1909 1949 0
1969 -1908 -1949 0
-1970 1909 1950 0
1970 -1908 -1950 0
-1971 1909 1951 0
1971 -1908 -1951 0
-1972 1909 1952 0
1972 -1908 -1952 0
-1973 1909 1953 0
1973 -1908 -1953 0
1965 -1909 0
-1966 1910 1945 0
1966 -1909 -1945 0
-1967 1910 1946 0
1967 -1909 -1946 0
-1968 1910 1947 0
1968 -1909 -1947 0
-1969 1910 1948 0
1969 -1909 -1948 0
-1970 1910 1949 0
1970 -1909 -1949 0
-1971 1910 1950 0
1971 -1909 -1950 0
-1972 1910 1951 0
1972 -1909 -1951 0
-1973 1910 1952 0
1973 -1909 -1952 0
1966 -1910 0
-1967 1911 1945 0
1967 -1910 -1945 0
-1968 1911 1946 0
1968 -1910 -1946 0
-1969 1911 1947 0
1969 -1910 -1947 0
-1970 1911 1948 0
1970 -1910 -1948 0
-1971 1911 1949 0
1971 -1910 -1949 0
-1972 1911 1950 0
1972 -1910 -1950 0
-1973 1911 1951 0
1973 -1910 -1951 0
1967 -1911 0
-1968 1912 1945 0
1968 -1911 -1945 0
-1969 1912 1946 0
1969 -1911 -1946 0
-1970 1912 1947 0
1970 -1911 -1947 0
-1971 1912 1948 0
1971 -1911 -1948 0
-1972 1912 1949 0
1972 -1911 -1949 0
-1973 1912 1950 0
1973 -1911 -1950 0
1968 -1912 0
-1969 1945 0
1969 -1912 -1945 0
-1970 1946 0
1970 -1912 -1946 0
-1971 1947 0
1971 -1912 -1947 0
-1972 1948 0
1972 -1912 -1948 0
-1973 1949 0
1973 -1912 -1949 0
-1974 62 63 0
1974 -63 0
-1975 62 0
1974 -62 0
-1975 63 0
1975 -62 -63 0
-1976 61 1974 0
1976 -1974 0
-1977 61 1975 0
1977 -1975 0
-1978 61 0
1976 -61 0
-1977 1974 0
1977 -61 -1974 0
-1978 1975 0
1978 -61 -1975 0
-1979 65 66 0
1979 -66 0
-1980 65 0
1979 -65 0
-1980 66 0
1980 -65 -66 0
-1981 64 1979 0
1981 -1979 0
-1982 64 1980 0
1982 -1980 0
-1983 64 0
1981 -64 0
-1982 1979 0
1982 -64 -1979 0
-1983 1980 0
1983 -64 -1980 0
-1984 1976 1981 0
1984 -1981 0
-1985 1976 1982 0
1985 -1982 0
-1986 1976 1983 0
1986 -1983 0
-1987 1976 0
1984 -1976 0
-1985 1977 1981 0
1985 -1976 -1981 0
-1986 1977 1982 0
1986 -1976 -1982 0
-1987 1977 1983 0
1987 -1976 -1983 0
-1988 1977 0
1985 -1977 0
-1986 1978 1981 0
1986 -1977 -1981 0
-1987 1978 1982 0
1987 -1977 -1982 0
-1988 1978 1983 0
1988 -1977 -1983 0
-1989 1978 0
1986 -1978 0
-1987 1981 0
1987 -1978 -1981 0
-1988 1982 0
1988 -1978 -1982 0
-1989 1983 0
1989 -1978 -1983 0
-1990 68 69 0
1990 -69 0
-1991 68 0
1990 -68 0
-1991 69 0
1991 -68 -69 0
-1992 67 1990 0
1992 -1990 0
-1993 67 1991 0
1993 -1991 0
-1994 67 0
1992 -67 0
-1993 1990 0
1993 -67 -1990 0
-1994 1991 0
1994 -67 -1991 0
-1995 71 72 0
1995 -72 0
-1996 71 0
1995 -71 0
-1996 72 0
1996 -71 -72 0
-1997 70 1995 0
1997 -1995 0
-1998 70 1996 0
1998 -1996 0
-1999 70 0
1997 -70 0
-1998 1995 0
1998 -70 -1995 0
-1999 1996 0
1999 -70 -1996 0
-2000 1992 1997 0
2000 -1997 0
-2001 1992 1998 0
2001 -1998 0
-2002 1992 1999 0
2002 -1999 0
-2003 1992 0
2000 -1992 0
-2001 1993 1997 0
2001 -1992 -1997 0
-2002 1993 1998 0
2002 -1992 -1998 0
-2003 1993 1999 0
2003 -1992 -1999 0
-2004 1993 0
2001 -1993 0
-2002 1994 1997 0
2002 -1993 -1997 0
-2003 1994 1998 0
2003 -1993 -1998 0
-2004 1994 1999 0
2004 -1993 -1999 0
-2005 1994 0
2002 -1994 0
-2003 1997 0
2003 -1994 -1997 0
-2004 1998 0
2004 -1994 -1998 0
-2005 1999 0
2005 -1994 -1999 0
-2006 1984 2000 0
2006 -2000 0
-2007 1984 2001 0
2007 -2001 0
-2008 1984 2002 0
2008 -2002 0
-2009 1984 2003 0
2009 -2003 0
-2010 1984 2004 0
2010 -2004 0
-2011 1984 2005 0
2011 -2005 0
-2012 1984 0
2006 -1984 0
-2007 1985 2000 0
2007 -1984 -2000 0
-2008 1985 2001 0
2008 -1984 -2001 0
-2009 1985 2002 0
2009 -1984 -2002 0
-2010 1985 2003 0
2010 -1984 -2003 0
-2011 1985 2004 0
2011 -1984 -2004 0
-2012 1985 2005 0
2012 -1984 -2005 0
-2013 1985 0
2007 -1985 0
-2008 1986 2000 0
2008 -1985 -2000 0
-2009 1986 2001 0
2009 -1985 -2001 0
-2010 1986 2002 0
2010 -1985 -2002 0
-2011 1986 2003 0
2011 -1985 -2003 0
-2012 1986 2004 0
2012 -1985 -2004 0
-2013 1986 2005 0
2013 -1985 -2005 0
-2014 1986 0
2008 -1986 0
-2009 1987 2000 0
2009 -1986 -2000 0
-2010 1987 2001 0
2010 -1986 -2001 0
-2011 1987 2002 0
2011 -1986 -2002 0
-2012 1987 2003 0
2012 -1986 -2003 0
-2013 1987 2004 0
2013 -1986 -2004 0
-2014 1987 2005 0
2014 -1986 -2005 0
-2015 1987 0
2009 -1987 0
-2010 1988 2000 0
2010 -1987 -2000 0
-2011 1988 2001 0
2011 -1987 -2001 0
-2012 1988 2002 0
2012 -1987 -2002 0
-2013 1988 2003 0
2013 -1987 -2003 0
-2014 1988 2004 0
2014 -1987 -2004 0
-2015 1988 2005 0
2015 -1987 -2005 0
-2016 1988 0
2010 -1988 0
-2011 1989 2000 0
2011 -1988 -2000 0
-2012 1989 2001 0
2012 -1988 -2001 0
-2013 1989 2002 0
2013 -1988 -2002 0
-2014 1989 2003 0
2014 -1988 -2003 0
-2015 1989 2004 0
2015 -1988 -2004 0
-2016 1989 2005 0
2016 -1988 -2005 0
-2017 1989 0
2011 -1989 0
-2012 2000 0
2012 -1989 -2000 0
-2013 2001 0
2013 -1989 -2001 0
-2014 2002 0
2014 -1989 -2002 0
-2015 2003 0
2015 -1989 -2003 0
-2016 2004 0
2016 -1989 -2004 0
-2017 2005 0
2017 -1989 -2005 0
-2018 206 207 0
2018 -207 0
-2019 206 0
2018 -206 0
-2019 207 0
2019 -206 -207 0
-2020 205 2018 0
2020 -2018 0
-2021 205 2019 0
2021 -2019 0
-2022 205 0
2020 -205 0
-2021 2018 0
2021 -205 -2018 0
-2022 2019 0
2022 -205 -2019 0
-2023 209 210 0
2023 -210 0
-2024 209 0
2023 -209 0
-2024 210 0
2024 -209 -210 0
-2025 208 2023 0
2025 -2023 0
-2026 208 2024 0
2026 -2024 0
-2027 208 0
2025 -208 0
-2026 2023 0
2026 -208 -2023 0
-2027 2024 0
2027 -208 -2024 0
-2028 2020 2025 0
2028 -2025 0
-2029 2020 2026 0
2029 -2026 0
-2030 2020 2027 0
2030 -2027 0
-2031 2020 0
2028 -2020 0
-2029 2021 2025 0
2029 -2020 -2025 0
-2030 2021 2026 0
2030 -2020 -2026 0
-2031 2021 2027 0
2031 -2020 -2027 0
-2032 2021 0
2029 -2021 0
-2030 2022 2025 0
2030 -2021 -2025 0
-2031 2022 2026 0
2031 -2021 -2026 0
-2032 2022 2027 0
2032 -2021 -2027 0
-2033 2022 0
2030 -2022 0
-2031 2025 0
2031 -2022 -2025 0
-2032 2026 0
2032 -2022 -2026 0
-2033 2027 0
2033 -2022 -2027 0
-2034 212 213 0
2034 -213 0
-2035 212 0
2034 -212 0
-2035 213 0
2035 -212 -213 0
-2036 211 2034 0
2036 -2034 0
-2037 211 2035 0
2037 -2035 0
-2038 211 0
2036 -211 0
-2037 2034 0
2037 -211 -2034 0
-2038 2035 0
2038 -211 -2035 0
-2039 215 216 0
2039 -216 0
-2040 215 0
2039 -215 0
-2040 216 0
2040 -215 -216 0
-2041 214 2039 0
2041 -2039 0
-2042 214 2040 0
2042 -2040 0
-2043 214 0
2041 -214 0
-2042 2039 0
2042 -214 -2039 0
-2043 2040 0
2043 -214 -2040 0
-2044 2036 2041 0
2044 -2041 0
-2045 2036 2042 0
2045 -2042 0
-2046 2036 2043 0
2046 -2043 0
-2047 2036 0
2044 -2036 0
-2045 2037 2041 0
2045 -2036 -2041 0
-2046 2037 2042 0
2046 -2036 -2042 0
-2047 2037 2043 0
2047 -2036 -2043 0
-2048 2037 0
2045 -2037 0
-2046 2038 2041 0
2046 -2037 -2041 0
-2047 2038 2042 0
2047 -2037 -2042 0
-2048 2038 2043 0
2048 -2037 -2043 0
-2049 2038 0
2046 -2038 0
-2047 2041 0
2047 -2038 -2041 0
-2048 2042 0
2048 -2038 -2042 0
-2049 2043 0
2049 -2038 -2043 0
-2050 2028 2044 0
2050 -2044 0
-2051 2028 2045 0
2051 -2045 0
-2052 2028 2046 0
2052 -2046 0
-2053 2028 2047 0
2053 -2047 0
-2054 2028 2048 0
2054 -2048 0
-2055 2028 2049 0
2055 -2049 0
-2056 2028 0
2050 -2028 0
-2051 2029 2044 0
2051 -2028 -2044 0
-2052 2029 2045 0
2052 -2028 -2045 0
-2053 2029 2046 0
2053 -2028 -2046 0
-2054 2029 2047 0
2054 -2028 -2047 0
-2055 2029 2048 0
2055 -2028 -2048 0
-2056 2029 2049 0
2056 -2028 -2049 0
-2057 2029 0
2051 -2029 0
-2052 2030 2044 0
2052 -2029 -2044 0
-2053 2030 2045 0
2053 -2029 -2045 0
-2054 2030 2046 0
2054 -2029 -2046 0
-2055 2030 2047 0
2055 -2029 -2047 0
-2056 2030 2048 0
2056 -2029 -2048 0
-2057 2030 2049 0
2057 -2029 -2049 0
-2058 2030 0
2052 -2030 0
-2053 2031 2044 0
2053 -2030 -2044 0
-2054 2031 2045 0
2054 -2030 -2045 0
-2055 2031 2046 0
2055 -2030 -2046 0
-2056 2031 2047 0
2056 -2030 -2047 0
-2057 2031 2048 0
2057 -2030 -2048 0
-2058 2031 2049 0
2058 -2030 -2049 0
-2059 2031 0
2053 -2031 0
-2054 2032 2044 0
2054 -2031 -2044 0
-2055 2032 2045 0
2055 -2031 -2045 0
-2056 2032 2046 0
2056 -2031 -2046 0
-2057 2032 2047 0
2057 -2031 -2047 0
-2058 2032 2048 0
2058 -2031 -2048 0
-2059 2032 2049 0
2059 -2031 -2049 0
-2060 2032 0
2054 -2032 0
-2055 2033 2044 0
2055 -2032 -2044 0
-2056 2033 2045 0
2056 -2032 -2045 0
-2057 2033 2046 0
2057 -2032 -2046 0
-2058 2033 2047 0
2058 -2032 -2047 0
-2059 2033 2048 0
2059 -2032 -2048 0
-2060 2033 2049 0
2060 -2032 -2049 0
-2061 2033 0
2055 -2033 0
-2056 2044 0
2056 -2033 -2044 0
-2057 2045 0
2057 -2033 -2045 0
-2058 2046 0
2058 -2033 -2046 0
-2059 2047 0
2059 -2033 -2047 0
-2060 2048 0
2060 -2033 -2048 0
-2061 2049 0
2061 -2033 -2049 0
-2062 2006 2050 0
2062 -2050 0
-2063 2006 2051 0
2063 -2051 0
-2064 2006 2052 0
2064 -2052 0
-2065 2006 2053 0
2065 -2053 0
-2066 2006 2054 0
2066 -2054 0
-2067 2006 2055 0
2067 -2055 0
-2068 2006 2056 0
2068 -2056 0
-2069 2006 2057 0
2069 -2057 0
-2070 2006 2058 0
2070 -2058 0
-2071 2006 2059 0
2071 -2059 0
-2072 2006 2060 0
2072 -2060 0
-2073 2006 2061 0
2073 -2061 0
-2074 2006 0
2062 -2006 0
-2063 2007 2050 0
2063 -2006 -2050 0
-2064 2007 2051 0
2064 -2006 -2051 0
-2065 2007 2052 0
2065 -2006 -2052 0
-2066 2007 2053 0
2066 -2006 -2053 0
-2067 2007 2054 0
2067 -2006 -2054 0
-2068 2007 2055 0
2068 -2006 -2055 0
-2069 2007 2056 0
2069 -2006 -2056 0
-2070 2007 2057 0
2070 -2006 -2057 0
-2071 2007 2058 0
2071 -2006 -2058 0
-2072 2007 2059 0
2072 -2006 -2059 0
-2073 2007 2060 0
2073 -2006 -2060 0
-2074 2007 2061 0
2074 -2006 -2061 0
-2075 2007 0
2063 -2007 0
-2064 2008 2050 0
2064 -2007 -2050 0
-2065 2008 2051 0
2065 -2007 -2051 0
-2066 2008 2052 0
2066 -2007 -2052 0
-2067 2008 2053 0
2067 -2007 -2053 0
-2068 2008 2054 0
2068 -2007 -2054 0
-2069 2008 2055 0
2069 -2007 -2055 0
-2070 2008 2056 0
2070 -2007 -2056 0
-2071 2008 2057 0
2071 -2007 -2057 0
-2072 2008 2058 0
2072 -2007 -2058 0
-2073 2008 2059 0
2073 -2007 -2059 0
-2074 2008 2060 0
2074 -2007 -2060 0
-2075 2008 2061 0
2075 -2007 -2061 0
-2076 2008 0
2064 -2008 0
-2065 2009 2050 0
2065 -2008 -2050 0
-2066 2009 2051 0
2066 -2008 -2051 0
-2067 2009 2052 0
2067 -2008 -2052 0
-2068 2009 2053 0
2068 -2008 -2053 0
-2069 2009 2054 0
2069 -2008 -2054 0
-2070 2009 2055 0
2070 -2008 -2055 0
-2071 2009 2056 0
2071 -2008 -2056 0
-2072 2009 2057 0
2072 -2008 -2057 0
-2073 2009 2058 0
2073 -2008 -2058 0
-2074 2009 2059 0
2074 -2008 -2059 0
-2075 2009 2060 0
2075 -2008 -2060 0
-2076 2009 2061 0
2076 -2008 -2061 0
-2077 2009 0
2065 -2009 0
-2066 2010 2050 0
2066 -2009 -2050 0
-2067 2010 2051 0
2067 -2009 -2051 0
-2068 2010 2052 0
2068 -2009 -2052 0
-2069 2010 2053 0
2069 -2009 -2053 0
-2070 2010 2054 0
2070 -2009 -2054 0
-2071 2010 2055 0
2071 -2009 -2055 0
-2072 2010 2056 0
2072 -2009 -2056 0
-2073 2010 2057 0
2073 -2009 -2057 0
-2074 2010 2058 0
2074 -2009 -2058 0
-2075 2010 2059 0
2075 -2009 -2059 0
-2076 2010 2060 0
2076 -2009 -2060 0
-2077 2010 2061 0
2077 -2009 -2061 0
-2078 2010 0
2066 -2010 0
-2067 2011 2050 0
2067 -2010 -2050 0
-2068 2011 2051 0
2068 -2010 -2051 0
-2069 2011 2052 0
2069 -2010 -2052 0
-2070 2011 2053 0
2070 -2010 -2053 0
-2071 2011 2054 0
2071 -2010 -2054 0
-2072 2011 2055 0
2072 -2010 -2055 0
-2073 2011 2056 0
2073 -2010 -2056 0
-2074 2011 2057 0
2074 -2010 -2057 0
-2075 2011 2058 0
2075 -2010 -2058 0
-2076 2011 2059 0
2076 -2010 -2059 0
-2077 2011 2060 0
2077 -2010 -2060 0
-2078 2011 2061 0
2078 -2010 -2061 0
2067 -2011 0
-2068 2012 2050 0
2068 -2011 -2050 0
-2069 2012 2051 0
2069 -2011 -2051 0
-2070 2012 2052 0
2070 -2011 -2052 0
-2071 2012 2053 0
2071 -2011 -2053 0
-2072 2012 2054 0
2072 -2011 -2054 0
-2073 2012 2055 0
2073 -2011 -2055 0
-2074 2012 2056 0
2074 -2011 -2056 0
-2075 2012 2057 0
2075 -2011 -2057 0
-2076 2012 2058 0
2076 -2011 -2058 0
-2077 2012 2059 0
2077 -2011 -2059 0
-2078 2012 2060 0
2078 -2011 -2060 0
2068 -2012 0
-2069 2013 2050 0
2069 -2012 -2050 0
-2070 2013 2051 0
2070 -2012 -2051 0
-2071 2013 2052 0
2071 -2012 -2052 0
-2072 2013 2053 0
2072 -2012 -2053 0
-2073 2013 2054 0
2073 -2012 -2054 0
-2074 2013 2055 0
2074 -2012 -2055 0
-2075 2013 2056 0
2075 -2012 -2056 0
-2076 2013 2057 0
2076 -2012 -2057 0
-2077 2013 2058 0
2077 -2012 -2058 0
-2078 2013 2059 0
2078 -2012 -2059 0
2069 -2013 0
-2070 2014 2050 0
2070 -2013 -2050 0
-2071 2014 2051 0
2071 -2013 -2051 0
-2072 2014 2052 0
2072 -2013 -2052 0
-2073 2014 2053 0
2073 -2013 -2053 0
-2074 2014 2054 0
2074 -2013 -2054 0
-2075 2014 2055 0
2075 -2013 -2055 0
-2076 2014 2056 0
2076 -2013 -2056 0
-2077 2014 2057 0
2077 -2013 -2057 0
-2078 2014 2058 0
2078 -2013 -2058 0
2070 -2014 0
-2071 2015 2050 0
2071 -2014 -2050 0
-2072 2015 2051 0
2072 -2014 -2051 0
-2073 2015 2052 0
2073 -2014 -2052 0
-2074 2015 2053 0
2074 -2014 -2053 0
-2075 2015 2054 0
2075 -2014 -2054 0
-2076 2015 2055 0
2076 -2014 -2055 0
-2077 2015 2056 0
2077 -2014 -2056 0
-2078 2015 2057 0
2078 -2014 -2057 0
2071 -2015 0
-2072 2016 2050 0
2072 -2015 -2050 0
-2073 2016 2051 0
2073 -2015 -2051 0
-2074 2016 2052 0
2074 -2015 -2052 0
-2075 2016 2053 0
2075 -2015 -2053 0
-2076 2016 2054 0
2076 -2015 -2054 0
-2077 2016 2055 0
2077 -2015 -2055 0
-2078 2016 2056 0
2078 -2015 -2056 0
2072 -2016 0
-2073 2017 2050 0
2073 -2016 -2050 0
-2074 2017 2051 0
2074 -2016 -2051 0
-2075 2017 2052 0
2075 -2016 -2052 0
-2076 2017 2053 0
2076 -2016 -2053 0
-2077 2017 2054 0
2077 -2016 -2054 0
-2078 2017 2055 0
2078 -2016 -2055 0
2073 -2017 0
-2074 2050 0
2074 -2017 -2050 0
-2075 2051 0
2075 -2017 -2051 0
-2076 2052 0
2076 -2017 -2052 0
-2077 2053 0
2077 -2017 -2053 0
-2078 2054 0
2078 -2017 -2054 0
-2079 74 75 0
2079 -75 0
-2080 74 0
2079 -74 0
-2080 75 0
2080 -74 -75 0
-2081 73 2079 0
2081 -2079 0
-2082 73 2080 0
2082 -2080 0
-2083 73 0
2081 -73 0
-2082 2079 0
2082 -73 -2079 0
-2083 2080 0
2083 -73 -2080 0
-2084 77 78 0
2084 -78 0
-2085 77 0
2084 -77 0
-2085 78 0
2085 -77 -78 0
-2086 76 2084 0
2086 -2084 0
-2087 76 2085 0
2087 -2085 0
-2088 76 0
2086 -76 0
-2087 2084 0
2087 -76 -2084 0
-2088 2085 0
2088 -76 -2085 0
-2089 2081 2086 0
2089 -2086 0
-2090 2081 2087 0
2090 -2087 0
-2091 2081 2088 0
2091 -2088 0
-2092 2081 0
2089 -2081 0
-2090 2082 2086 0
2090 -2081 -2086 0
-2091 2082 2087 0
2091 -2081 -2087 0
-2092 2082 2088 0
2092 -2081 -2088 0
-2093 2082 0
2090 -2082 0
-2091 2083 2086 0
2091 -2082 -2086 0
-2092 2083 2087 0
2092 -2082 -2087 0
-2093 2083 2088 0
2093 -2082 -2088 0
-2094 2083 0
2091 -2083 0
-2092 2086 0
2092 -2083 -2086 0
-2093 2087 0
2093 -2083 -2087 0
-2094 2088 0
2094 -2083 -2088 0
-2095 80 81 0
2095 -81 0
-2096 80 0
2095 -80 0
-2096 81 0
2096 -80 -81 0
-2097 79 2095 0
2097 -2095 0
-2098 79 2096 0
2098 -2096 0
-2099 79 0
2097 -79 0
-2098 2095 0
2098 -79 -2095 0
-2099 2096 0
2099 -79 -2096 0
-2100 83 84 0
2100 -84 0
-2101 83 0
2100 -83 0
-2101 84 0
2101 -83 -84 0
-2102 82 2100 0
2102 -2100 0
-2103 82 2101 0
2103 -2101 0
-2104 82 0
2102 -82 0
-2103 2100 0
2103 -82 -2100 0
-2104 2101 0
2104 -82 -2101 0
-2105 2097 2102 0
2105 -2102 0
-2106 2097 2103 0
2106 -2103 0
-2107 2097 2104 0
2107 -2104 0
-2108 2097 0
2105 -2097 0
-2106 2098 2102 0
2106 -2097 -2102 0
-2107 2098 2103 0
2107 -2097 -2103 0
-2108 2098 2104 0
2108 -2097 -2104 0
-2109 2098 0
2106 -2098 0
-2107 2099 2102 0
2107 -2098 -2102 0
-2108 2099 2103 0
2108 -2098 -2103 0
-2109 2099 2104 0
2109 -2098 -2104 0
-2110 2099 0
2107 -2099 0
-2108 2102 0
2108 -2099 -2102 0
-2109 2103 0
2109 -2099 -2103 0
-2110 2104 0
2110 -2099 -2104 0
-2111 2089 2105 0
2111 -2105 0
-2112 2089 2106 0
2112 -2106 0
-2113 2089 2107 0
2113 -2107 0
-2114 2089 2108 0
2114 -2108 0
-2115 2089 2109 0
2115 -2109 0
-2116 2089 2110 0
2116 -2110 0
-2117 2089 0
2111 -2089 0
-2112 2090 2105 0
2112 -2089 -2105 0
-2113 2090 2106 0
2113 -2089 -2106 0
-2114 2090 2107 0
2114 -2089 -2107 0
-2115 2090 2108 0
2115 -2089 -2108 0
-2116 2090 2109 0
2116 -2089 -2109 0
-2117 2090 2110 0
2117 -2089 -2110 0
-2118 2090 0
2112 -2090 0
-2113 2091 2105 0
2113 -2090 -2105 0
-2114 2091 2106 0
2114 -2090 -2106 0
-2115 2091 2107 0
2115 -2090 -2107 0
-2116 2091 2108 0
2116 -2090 -2108 0
-2117 2091 2109 0
2117 -2090 -2109 0
-2118 2091 2110 0
2118 -2090 -2110 0
-2119 2091 0
2113 -2091 0
-2114 2092 2105 0
2114 -2091 -2105 0
-2115 2092 2106 0
2115 -2091 -2106 0
-2116 2092 2107 0
2116 -2091 -2107 0
-2117 2092 2108 0
2117 -2091 -2108 0
-2118 2092 2109 0
2118 -2091 -2109 0
-2119 2092 2110 0
2119 -2091 -2110 0
-2120 2092 0
2114 -2092 0
-2115 2093 2105 0
2115 -2092 -2105 0
-2116 2093 2106 0
2116 -2092 -2106 0
-2117 2093 2107 0
2117 -2092 -2107 0
-2118 2093 2108 0
2118 -2092 -2108 0
-2119 2093 2109 0
2119 -2092 -2109 0
-2120 2093 2110 0
2120 -2092 -2110 0
-2121 2093 0
2115 -2093 0
-2116 2094 2105 0
2116 -2093 -2105 0
-2117 2094 2106 0
2117 -2093 -2106 0
-2118 2094 2107 0
2118 -2093 -2107 0
-2119 2094 2108 0
2119 -2093 -2108 0
-2120 2094 2109 0
2120 -2093 -2109 0
-2121 2094 2110 0
2121 -2093 -2110 0
-2122 2094 0
2116 -2094 0
-2117 2105 0
2117 -2094 -2105 0
-2118 2106 0
2118 -2094 -2106 0
-2119 2107 0
2119 -2094 -2107 0
-2120 2108 0
2120 -2094 -2108 0
-2121 2109 0
2121 -2094 -2109 0
-2122 2110 0
2122 -2094 -2110 0
-2123 218 219 0
2123 -219 0
-2124 218 0
2123 -218 0
-2124 219 0
2124 -218 -219 0
-2125 217 2123 0
2125 -2123 0
-2126 217 2124 0
2126 -2124 0
-2127 217 0
2125 -217 0
-2126 2123 0
2126 -217 -2123 0
-2127 2124 0
2127 -217 -2124 0
-2128 221 222 0
2128 -222 0
-2129 221 0
2128 -221 0
-2129 222 0
2129 -221 -222 0
-2130 220 2128 0
2130 -2128 0
-2131 220 2129 0
2131 -2129 0
-2132 220 0
2130 -220 0
-2131 2128 0
2131 -220 -2128 0
-2132 2129 0
2132 -220 -2129 0
-2133 2125 2130 0
2133 -2130 0
-2134 2125 2131 0
2134 -2131 0
-2135 2125 2132 0
2135 -2132 0
-2136 2125 0
2133 -2125 0
-2134 2126 2130 0
2134 -2125 -2130 0
-2135 2126 2131 0
2135 -2125 -2131 0
-2136 2126 2132 0
2136 -2125 -2132 0
-2137 2126 0
2134 -2126 0
-2135 2127 2130 0
2135 -2126 -2130 0
-2136 2127 2131 0
2136 -2126 -2131 0
-2137 2127 2132 0
2137 -2126 -2132 0
-2138 2127 0
2135 -2127 0
-2136 2130 0
2136 -2127 -2130 0
-2137 2131 0
2137 -2127 -2131 0
-2138 2132 0
2138 -2127 -2132 0
-2139 224 225 0
2139 -225 0
-2140 224 0
2139 -224 0
-2140 225 0
2140 -224 -225 0
-2141 223 2139 0
2141 -2139 0
-2142 223 2140 0
2142 -2140 0
-2143 223 0
2141 -223 0
-2142 2139 0
2142 -223 -2139 0
-2143 2140 0
2143 -223 -2140 0
-2144 227 228 0
2144 -228 0
-2145 227 0
2144 -227 0
-2145 228 0
2145 -227 -228 0
-2146 226 2144 0
2146 -2144 0
-2147 226 2145 0
2147 -2145 0
-2148 226 0
2146 -226 0
-2147 2144 0
2147 -226 -2144 0
-2148 2145 0
2148 -226 -2145 0
-2149 2141 2146 0
2149 -2146 0
-2150 2141 2147 0
2150 -2147 0
-2151 2141 2148 0
2151 -2148 0
-2152 2141 0
2149 -2141 0
-2150 2142 2146 0
2150 -2141 -2146 0
-2151 2142 2147 0
2151 -2141 -2147 0
-2152 2142 2148 0
2152 -2141 -2148 0
-2153 2142 0
2150 -2142 0
-2151 2143 2146 0
2151 -2142 -2146 0
-2152 2143 2147 0
2152 -2142 -2147 0
-2153 2143 2148 0
2153 -2142 -2148 0
-2154 2143 0
2151 -2143 0
-2152 2146 0
2152 -2143 -2146 0
-2153 2147 0
2153 -2143 -2147 0
-2154 2148 0
2154 -2143 -2148 0
-2155 2133 2149 0
2155 -2149 0
-2156 2133 2150 0
2156 -2150 0
-2157 2133 2151 0
2157 -2151 0
-2158 2133 2152 0
2158 -2152 0
-2159 2133 2153 0
2159 -2153 0
-2160 2133 2154 0
2160 -2154 0
-2161 2133 0
2155 -2133 0
-2156 2134 2149 0
2156 -2133 -2149 0
-2157 2134 2150 0
2157 -2133 -2150 0
-2158 2134 2151 0
2158 -2133 -2151 0
-2159 2134 2152 0
2159 -2133 -2152 0
-2160 2134 2153 0
2160 -2133 -2153 0
-2161 2134 2154 0
2161 -2133 -2154 0
-2162 2134 0
2156 -2134 0
-2157 2135 2149 0
2157 -2134 -2149 0
-2158 2135 2150 0
2158 -2134 -2150 0
-2159 2135 2151 0
2159 -2134 -2151 0
-2160 2135 2152 0
2160 -2134 -2152 0
-2161 2135 2153 0
2161 -2134 -2153 0
-2162 2135 2154 0
2162 -2134 -2154 0
-2163 2135 0
2157 -2135 0
-2158 2136 2149 0
2158 -2135 -2149 0
-2159 2136 2150 0
2159 -2135 -2150 0
-2160 2136 2151 0
2160 -2135 -2151 0
-2161 2136 2152 0
2161 -2135 -2152 0
-2162 2136 2153 0
2162 -2135 -2153 0
-2163 2136 2154 0
2163 -2135 -2154 0
-2164 2136 0
2158 -2136 0
-2159 2137 2149 0
2159 -2136 -2149 0
-2160 2137 2150 0
2160 -2136 -2150 0
-2161 2137 2151 0
2161 -2136 -2151 0
-2162 2137 2152 0
2162 -2136 -2152 0
-2163 2137 2153 0
2163 -2136 -2153 0
-2164 2137 2154 0
2164 -2136 -2154 0
-2165 2137 0
2159 -2137 0
-2160 2138 2149 0
2160 -2137 -2149 0
-2161 2138 2150 0
2161 -2137 -2150 0
-2162 2138 2151 0
2162 -2137 -2151 0
-2163 2138 2152 0
2163 -2137 -2152 0
-2164 2138 2153 0
2164 -2137 -2153 0
-2165 2138 2154 0
2165 -2137 -2154 0
-2166 2138 0
2160 -2138 0
-2161 2149 0
2161 -2138 -2149 0
-2162 2150 0
2162 -2138 -2150 0
-2163 2151 0
2163 -2138 -2151 0
-2164 2152 0
2164 -2138 -2152 0
-2165 2153 0
2165 -2138 -2153 0
-2166 2154 0
2166 -2138 -2154 0
-2167 2111 2155 0
2167 -2155 0
-2168 2111 2156 0
2168 -2156 0
-2169 2111 2157 0
2169 -2157 0
-2170 2111 2158 0
2170 -2158 0
-2171 2111 2159 0
2171 -2159 0
-2172 2111 2160 0
2172 -2160 0
-2173 2111 2161 0
2173 -2161 0
-2174 2111 2162 0
2174 -2162 0
-2175 2111 2163 0
2175 -2163 0
-2176 2111 2164 0
2176 -2164 0
-2177 2111 2165 0
2177 -2165 0
-2178 2111 2166 0
2178 -2166 0
-2179 2111 0
2167 -2111 0
-2168 2112 2155 0
2168 -2111 -2155 0
-2169 2112 2156 0
2169 -2111 -2156 0
-2170 2112 2157 0
2170 -2111 -2157 0
-2171 2112 2158 0
2171 -2111 -2158 0
-2172 2112 2159 0
2172 -2111 -2159 0
-2173 2112 2160 0
2173 -2111 -2160 0
-2174 2112 2161 0
2174 -2111 -2161 0
-2175 2112 2162 0
2175 -2111 -2162 0
-2176 2112 2163 0
2176 -2111 -2163 0
-2177 2112 2164 0
2177 -2111 -2164 0
-2178 2112 2165 0
2178 -2111 -2165 0
-2179 2112 2166 0
2179 -2111 -2166 0
-2180 2112 0
2168 -2112 0
-2169 2113 2155 0
2169 -2112 -2155 0
-2170 2113 2156 0
2170 -2112 -2156 0
-2171 2113 2157 0
2171 -2112 -2157 0
-2172 2113 2158 0
2172 -2112 -2158 0
-2173 2113 2159 0
2173 -2112 -2159 0
-2174 2113 2160 0
2174 -2112 -2160 0
-2175 2113 2161 0
2175 -2112 -2161 0
-2176 2113 2162 0
2176 -2112 -2162 0
-2177 2113 2163 0
2177 -2112 -2163 0
-2178 2113 2164 0
2178 -2112 -2164 0
-2179 2113 2165 0
2179 -2112 -2165 0
-2180 2113 2166 0
2180 -2112 -2166 0
-2181 2113 0
2169 -2113 0
-2170 2114 2155 0
2170 -2113 -2155 0
-2171 2114 2156 0
2171 -2113 -2156 0
-2172 2114 2157 0
2172 -2113 -2157 0
-2173 2114 2158 0
2173 -2113 -2158 0
-2174 2114 2159 0
2174 -2113 -2159 0
-2175 2114 2160 0
2175 -2113 -2160 0
-2176 2114 2161 0
2176 -2113 -2161 0
-2177 2114 2162 0
2177 -2113 -2162 0
-2178 2114 2163 0
2178 -2113 -2163 0
-2179 2114 2164 0
2179 -2113 -2164 0
-2180 2114 2165 0
2180 -2113 -2165 0
-2181 2114 2166 0
2181 -2113 -2166 0
-2182 2114 0
2170 -2114 0
-2171 2115 2155 0
2171 -2114 -2155 0
-2172 2115 2156 0
2172 -2114 -2156 0
-2173 2115 2157 0
2173 -2114 -2157 0
-2174 2115 2158 0
2174 -2114 -2158 0
-2175 2115 2159 0
2175 -2114 -2159 0
-2176 2115 2160 0
2176 -2114 -2160 0
-2177 2115 2161 0
2177 -2114 -2161 0
-2178 2115 2162 0
2178 -2114 -2162 0
-2179 2115 2163 0
2179 -2114 -2163 0
-2180 2115 2164 0
2180 -2114 -2164 0
-2181 2115 2165 0
2181 -2114 -2165 0
-2182 2115 2166 0
2182 -2114 -2166 0
-2183 2115 0
2171 -2115 0
-2172 2116 2155 0
2172 -2115 -2155 0
-2173 2116 2156 0
2173 -2115 -2156 0
-2174 2116 2157 0
2174 -2115 -2157 0
-2175 2116 2158 0
2175 -2115 -2158 0
-2176 2116 2159 0
2176 -2115 -2159 0
-2177 2116 2160 0
2177 -2115 -2160 0
-2178 2116 2161 0
2178 -2115 -2161 0
-2179 2116 2162 0
2179 -2115 -2162 0
-2180 2116 2163 0
2180 -2115 -2163 0
-2181 2116 2164 0
2181 -2115 -2164 0
-2182 2116 2165 0
2182 -2115 -2165 0
-2183 2116 2166 0
2183 -2115 -2166 0
2172 -2116 0
-2173 2117 2155 0
2173 -2116 -2155 0
-2174 2117 2156 0
2174 -2116 -2156 0
-2175 2117 2157 0
2175 -2116 -2157 0
-2176 2117 2158 0
2176 -2116 -2158 0
-2177 2117 2159 0
2177 -2116 -2159 0
-2178 2117 2160 0
2178 -2116 -2160 0
-2179 2117 2161 0
2179 -2116 -2161 0
-2180 2117 2162 0
2180 -2116 -2162 0
-2181 2117 2163 0
2181 -2116 -2163 0
-2182 2117 2164 0
2182 -2116 -2164 0
-2183 2117 2165 0
2183 -2116 -2165 0
2173 -2117 0
-2174 2118 2155 0
2174 -2117 -2155 0
-2175 2118 2156 0
2175 -2117 -2156 0
-2176 2118 2157 0
2176 -2117 -2157 0
-2177 2118 2158 0
2177 -2117 -2158 0
-2178 2118 2159 0
2178 -2117 -2159 0
-2179 2118 2160 0
2179 -2117 -2160 0
-2180 2118 2161 0
2180 -2117 -2161 0
-2181 2118 2162 0
2181 -2117 -2162 0
-2182 2118 2163 0
2182 -2117 -2163 0
-2183 2118 2164 0
2183 -2117 -2164 0
2174 -2118 0
-2175 2119 2155 0
2175 -2118 -2155 0
-2176 2119 2156 0
2176 -2118 -2156 0
-2177 2119 2157 0
2177 -2118 -2157 0
-2178 2119 2158 0
2178 -2118 -2158 0
-2179 2119 2159 0
2179 -2118 -2159 0
-2180 2119 2160 0
2180 -2118 -2160 0
-2181 2119 2161 0
2181 -2118 -2161 0
-2182 2119 2162 0
2182 -2118 -2162 0
-2183 2119 2163 0
2183 -2118 -2163 0
2175 -2119 0
-2176 2120 2155 0
2176 -2119 -2155 0
-2177 2120 2156 0
2177 -2119 -2156 0
-2178 2120 2157 0
2178 -2119 -2157 0
-2179 2120 2158 0
2179 -2119 -2158 0
-2180 2120 2159 0
2180 -2119 -2159 0
-2181 2120 2160 0
2181 -2119 -2160 0
-2182 2120 2161 0
2182 -2119 -2161 0
-2183 2120 2162 0
2183 -2119 -2162 0
2176 -2120 0
-2177 2121 2155 0
2177 -2120 -2155 0
-2178 2121 2156 0
2178 -2120 -2156 0
-2179 2121 2157 0
2179 -2120 -2157 0
-2180 2121 2158 0
2180 -2120 -2158 0
-2181 2121 2159 0
2181 -2120 -2159 0
-2182 2121 2160 0
2182 -2120 -2160 0
-2183 2121 2161 0
2183 -2120 -2161 0
2177 -2121 0
-2178 2122 2155 0
2178 -2121 -2155 0
-2179 2122 2156 0
2179 -2121 -2156 0
-2180 2122 2157 0
2180 -2121 -2157 0
-2181 2122 2158 0
2181 -2121 -2158 0
-2182 2122 2159 0
2182 -2121 -2159 0
-2183 2122 2160 0
2183 -2121 -2160 0
2178 -2122 0
-2179 2155 0
2179 -2122 -2155 0
-2180 2156 0
2180 -2122 -2156 0
-2181 2157 0
2181 -2122 -2157 0
-2182 2158 0
2182 -2122 -2158 0
-2183 2159 0
2183 -2122 -2159 0
-2184 86 87 0
2184 -87 0
-2185 86 0
2184 -86 0
-2185 87 0
2185 -86 -87 0
-2186 85 2184 0
2186 -2184 0
-2187 85 2185 0
2187 -2185 0
-2188 85 0
2186 -85 0
-2187 2184 0
2187 -85 -2184 0
-2188 2185 0
2188 -85 -2185 0
-2189 89 90 0
2189 -90 0
-2190 89 0
2189 -89 0
-2190 90 0
2190 -89 -90 0
-2191 88 2189 0
2191 -2189 0
-2192 88 2190 0
2192 -2190 0
-2193 88 0
2191 -88 0
-2192 2189 0
2192 -88 -2189 0
-2193 2190 0
2193 -88 -2190 0
-2194 2186 2191 0
2194 -2191 0
-2195 2186 2192 0
2195 -2192 0
-2196 2186 2193 0
2196 -2193 0
-2197 2186 0
2194 -2186 0
-2195 2187 2191 0
2195 -2186 -2191 0
-2196 2187 2192 0
2196 -2186 -2192 0
-2197 2187 2193 0
2197 -2186 -2193 0
-2198 2187 0
2195 -2187 0
-2196 2188 2191 0
2196 -2187 -2191 0
-2197 2188 2192 0
2197 -2187 -2192 0
-2198 2188 2193 0
2198 -2187 -2193 0
-2199 2188 0
2196 -2188 0
-2197 2191 0
2197 -2188 -2191 0
-2198 2192 0
2198 -2188 -2192 0
-2199 2193 0
2199 -2188 -2193 0
-2200 92 93 0
2200 -93 0
-2201 92 0
2200 -92 0
-2201 93 0
2201 -92 -93 0
-2202 91 2200 0
2202 -2200 0
-2203 91 2201 0
2203 -2201 0
-2204 91 0
2202 -91 0
-2203 2200 0
2203 -91 -2200 0
-2204 2201 0
2204 -91 -2201 0
-2205 95 96 0
2205 -96 0
-2206 95 0
2205 -95 0
-2206 96 0
2206 -95 -96 0
-2207 94 2205 0
2207 -2205 0
-2208 94 2206 0
2208 -2206 0
-2209 94 0
2207 -94 0
-2208 2205 0
2208 -94 -2205 0
-2209 2206 0
2209 -94 -2206 0
-2210 2202 2207 0
2210 -2207 0
-2211 2202 2208 0
2211 -2208 0
-2212 2202 2209 0
2212 -2209 0
-2213 2202 0
2210 -2202 0
-2211 2203 2207 0
2211 -2202 -2207 0
-2212 2203 2208 0
2212 -2202 -2208 0
-2213 2203 2209 0
2213 -2202 -2209 0
-2214 2203 0
2211 -2203 0
-2212 2204 2207 0
2212 -2203 -2207 0
-2213 2204 2208 0
2213 -2203 -2208 0
-2214 2204 2209 0
2214 -2203 -2209 0
-2215 2204 0
2212 -2204 0
-2213 2207 0
2213 -2204 -2207 0
-2214 2208 0
2214 -2204 -2208 0
-2215 2209 0
2215 -2204 -2209 0
-2216 2194 2210 0
2216 -2210 0
-2217 2194 2211 0
2217 -2211 0
-2218 2194 2212 0
2218 -2212 0
-2219 2194 2213 0
2219 -2213 0
-2220 2194 2214 0
2220 -2214 0
-2221 2194 2215 0
2221 -2215 0
-2222 2194 0
2216 -2194 0
-2217 2195 2210 0
2217 -2194 -2210 0
-2218 2195 2211 0
2218 -2194 -2211 0
-2219 2195 2212 0
2219 -2194 -2212 0
-2220 2195 2213 0
2220 -2194 -2213 0
-2221 2195 2214 0
2221 -2194 -2214 0
-2222 2195 2215 0
2222 -2194 -2215 0
-2223 2195 0
2217 -2195 0
-2218 2196 2210 0
2218 -2195 -2210 0
-2219 2196 2211 0
2219 -2195 -2211 0
-2220 2196 2212 0
2220 -2195 -2212 0
-2221 2196 2213 0
2221 -2195 -2213 0
-2222 2196 2214 0
2222 -2195 -2214 0
-2223 2196 2215 0
2223 -2195 -2215 0
-2224 2196 0
2218 -2196 0
-2219 2197 2210 0
2219 -2196 -2210 0
-2220 2197 2211 0
2220 -2196 -2211 0
-2221 2197 2212 0
2221 -2196 -2212 0
-2222 2197 2213 0
2222 -2196 -2213 0
-2223 2197 2214 0
2223 -2196 -2214 0
-2224 2197 2215 0
2224 -2196 -2215 0
-2225 2197 0
2219 -2197 0
-2220 2198 2210 0
2220 -2197 -2210 0
-2221 2198 2211 0
2221 -2197 -2211 0
-2222 2198 2212 0
2222 -2197 -2212 0
-2223 2198 2213 0
2223 -2197 -2213 0
-2224 2198 2214 0
2224 -2197 -2214 0
-2225 2198 2215 0
2225 -2197 -2215 0
-2226 2198 0
2220 -2198 0
-2221 2199 2210 0
2221 -2198 -2210 0
-2222 2199 2211 0
2222 -2198 -2211 0
-2223 2199 2212 0
2223 -2198 -2212 0
-2224 2199 2213 0
2224 -2198 -2213 0
-2225 2199 2214 0
2225 -2198 -2214 0
-2226 2199 2215 0
2226 -2198 -2215 0
-2227 2199 0
2221 -2199 0
-2222 2210 0
2222 -2199 -2210 0
-2223 2211 0
2223 -2199 -2211 0
-2224 2212 0
2224 -2199 -2212 0
-2225 2213 0
2225 -2199 -2213 0
-2226 2214 0
2226 -2199 -2214 0
-2227 2215 0
2227 -2199 -2215 0
-2228 230 231 0
2228 -231 0
-2229 230 0
2228 -230 0
-2229 231 0
2229 -230 -231 0
-2230 229 2228 0
2230 -2228 0
-2231 229 2229 0
2231 -2229 0
-2232 229 0
2230 -229 0
-2231 2228 0
2231 -229 -2228 0
-2232 2229 0
2232 -229 -2229 0
-2233 233 234 0
2233 -234 0
-2234 233 0
2233 -233 0
-2234 234 0
2234 -233 -234 0
-2235 232 2233 0
2235 -2233 0
-2236 232 2234 0
2236 -2234 0
-2237 232 0
2235 -232 0
-2236 2233 0
2236 -232 -2233 0
-2237 2234 0
2237 -232 -2234 0
-2238 2230 2235 0
2238 -2235 0
-2239 2230 2236 0
2239 -2236 0
-2240 2230 2237 0
2240 -2237 0
-2241 2230 0
2238 -2230 0
-2239 2231 2235 0
2239 -2230 -2235 0
-2240 2231 2236 0
2240 -2230 -2236 0
-2241 2231 2237 0
2241 -2230 -2237 0
-2242 2231 0
2239 -2231 0
-2240 2232 2235 0
2240 -2231 -2235 0
-2241 2232 2236 0
2241 -2231 -2236 0
-2242 2232 2237 0
2242 -2231 -2237 0
-2243 2232 0
2240 -2232 0
-2241 2235 0
2241 -2232 -2235 0
-2242 2236 0
2242 -2232 -2236 0
-2243 2237 0
2243 -2232 -2237 0
-2244 236 237 0
2244 -237 0
-2245 236 0
2244 -236 0
-2245 237 0
2245 -236 -237 0
-2246 235 2244 0
2246 -2244 0
-2247 235 2245 0
2247 -2245 0
-2248 235 0
2246 -235 0
-2247 2244 0
2247 -235 -2244 0
-2248 2245 0
2248 -235 -2245 0
-2249 239 240 0
2249 -240 0
-2250 239 0
2249 -239 0
-2250 240 0
2250 -239 -240 0
-2251 238 2249 0
2251 -2249 0
-2252 238 2250 0
2252 -2250 0
-2253 238 0
2251 -238 0
-2252 2249 0
2252 -238 -2249 0
-2253 2250 0
2253 -238 -2250 0
-2254 2246 2251 0
2254 -2251 0
-2255 2246 2252 0
2255 -2252 0
-2256 2246 2253 0
2256 -2253 0
-2257 2246 0
2254 -2246 0
-2255 2247 2251 0
2255 -2246 -2251 0
-2256 2247 2252 0
2256 -2246 -2252 0
-2257 2247 2253 0
2257 -2246 -2253 0
-2258 2247 0
2255 -2247 0
-2256 2248 2251 0
2256 -2247 -2251 0
-2257 2248 2252 0
2257 -2247 -2252 0
-2258 2248 2253 0
2258 -2247 -2253 0
-2259 2248 0
2256 -2248 0
-2257 2251 0
2257 -2248 -2251 0
-2258 2252 0
2258 -2248 -2252 0
-2259 2253 0
2259 -2248 -2253 0
-2260 2238 2254 0
2260 -2254 0
-2261 2238 2255 0
2261 -2255 0
-2262 2238 2256 0
2262 -2256 0
-2263 2238 2257 0
2263 -2257 0
-2264 2238 2258 0
2264 -2258 0
-2265 2238 2259 0
2265 -2259 0
-2266 2238 0
2260 -2238 0
-2261 2239 2254 0
2261 -2238 -2254 0
-2262 2239 2255 0
2262 -2238 -2255 0
-2263 2239 2256 0
2263 -2238 -2256 0
-2264 2239 2257 0
2264 -2238 -2257 0
-2265 2239 2258 0
2265 -2238 -2258 0
-2266 2239 2259 0
2266 -2238 -2259 0
-2267 2239 0
2261 -2239 0
-2262 2240 2254 0
2262 -2239 -2254 0
-2263 2240 2255 0
2263 -2239 -2255 0
-2264 2240 2256 0
2264 -2239 -2256 0
-2265 2240 2257 0
2265 -2239 -2257 0
-2266 2240 2258 0
2266 -2239 -2258 0
-2267 2240 2259 0
2267 -2239 -2259 0
-2268 2240 0
2262 -2240 0
-2263 2241 2254 0
2263 -2240 -2254 0
-2264 2241 2255 0
2264 -2240 -2255 0
-2265 2241 2256 0
2265 -2240 -2256 0
-2266 2241 2257 0
2266 -2240 -2257 0
-2267 2241 2258 0
2267 -2240 -2258 0
-2268 2241 2259 0
2268 -2240 -2259 0
-2269 2241 0
2263 -2241 0
-2264 2242 2254 0
2264 -2241 -2254 0
-2265 2242 2255 0
2265 -2241 -2255 0
-2266 2242 2256 0
2266 -2241 -2256 0
-2267 2242 2257 0
2267 -2241 -2257 0
-2268 2242 2258 0
2268 -2241 -2258 0
-2269 2242 2259 0
2269 -2241 -2259 0
-2270 2242 0
2264 -2242 0
-2265 2243 2254 0
2265 -2242 -2254 0
-2266 2243 2255 0
2266 -2242 -2255 0
-2267 2243 2256 0
2267 -2242 -2256 0
-2268 2243 2257 0
2268 -2242 -2257 0
-2269 2243 2258 0
2269 -2242 -2258 0
-2270 2243 2259 0
2270 -2242 -2259 0
-2271 2243 0
2265 -2243 0
-2266 2254 0
2266 -2243 -2254 0
-2267 2255 0
2267 -2243 -2255 0
-2268 2256 0
2268 -2243 -2256 0
-2269 2257 0
2269 -2243 -2257 0
-2270 2258 0
2270 -2243 -2258 0
-2271 2259 0
2271 -2243 -2259 0
-2272 2216 2260 0
2272 -2260 0
-2273 2216 2261 0
2273 -2261 0
-2274 2216 2262 0
2274 -2262 0
-2275 2216 2263 0
2275 -2263 0
-2276 2216 2264 0
2276 -2264 0
-2277 2216 2265 0
2277 -2265 0
-2278 2216 2266 0
2278 -2266 0
-2279 2216 2267 0
2279 -2267 0
-2280 2216 2268 0
2280 -2268 0
-2281 2216 2269 0
2281 -2269 0
-2282 2216 2270 0
2282 -2270 0
-2283 2216 2271 0
2283 -2271 0
-2284 2216 0
2272 -2216 0
-2273 2217 2260 0
2273 -2216 -2260 0
-2274 2217 2261 0
2274 -2216 -2261 0
-2275 2217 2262 0
2275 -2216 -2262 0
-2276 2217 2263 0
2276 -2216 -2263 0
-2277 2217 2264 0
2277 -2216 -2264 0
-2278 2217 2265 0
2278 -2216 -2265 0
-2279 2217 2266 0
2279 -2216 -2266 0
-2280 2217 2267 0
2280 -2216 -2267 0
-2281 2217 2268 0
2281 -2216 -2268 0
-2282 2217 2269 0
2282 -2216 -2269 0
-2283 2217 2270 0
2283 -2216 -2270 0
-2284 2217 2271 0
2284 -2216 -2271 0
-2285 2217 0
2273 -2217 0
-2274 2218 2260 0
2274 -2217 -2260 0
-2275 2218 2261 0
2275 -2217 -2261 0
-2276 2218 2262 0
2276 -2217 -2262 0
-2277 2218 2263 0
2277 -2217 -2263 0
-2278 2218 2264 0
2278 -2217 -2264 0
-2279 2218 2265 0
2279 -2217 -2265 0
-2280 2218 2266 0
2280 -2217 -2266 0
-2281 2218 2267 0
2281 -2217 -2267 0
-2282 2218 2268 0
2282 -2217 -2268 0
-2283 2218 2269 0
2283 -2217 -2269 0
-2284 2218 2270 0
2284 -2217 -2270 0
-2285 2218 2271 0
2285 -2217 -2271 0
-2286 2218 0
2274 -2218 0
-2275 2219 2260 0
2275 -2218 -2260 0
-2276 2219 2261 0
2276 -2218 -2261 0
-2277 2219 2262 0
2277 -2218 -2262 0
-2278 2219 2263 0
2278 -2218 -2263 0
-2279 2219 2264 0
2279 -2218 -2264 0
-2280 2219 2265 0
2280 -2218 -2265 0
-2281 2219 2266 0
2281 -2218 -2266 0
-2282 2219 2267 0
2282 -2218 -2267 0
-2283 2219 2268 0
2283 -2218 -2268 0
-2284 2219 2269 0
2284 -2218 -2269 0
-2285 2219 2270 0
2285 -2218 -2270 0
-2286 2219 2271 0
2286 -2218 -2271 0
-2287 2219 0
2275 -2219 0
-2276 2220 2260 0
2276 -2219 -2260 0
-2277 2220 2261 0
2277 -2219 -2261 0
-2278 2220 2262 0
2278 -2219 -2262 0
-2279 2220 2263 0
2279 -2219 -2263 0
-2280 2220 2264 0
2280 -2219 -2264 0
-2281 2220 2265 0
2281 -2219 -2265 0
-2282 2220 2266 0
2282 -2219 -2266 0
-2283 2220 2267 0
2283 -2219 -2267 0
-2284 2220 2268 0
2284 -2219 -2268 0
-2285 2220 2269 0
2285 -2219 -2269 0
-2286 2220 2270 0
2286 -2219 -2270 0
-2287 2220 2271 0
2287 -2219 -2271 0
-2288 2220 0
2276 -2220 0
-2277 2221 2260 0
2277 -2220 -2260 0
-2278 2221 2261 0
2278 -2220 -2261 0
-2279 2221 2262 0
2279 -2220 -2262 0
-2280 2221 2263 0
2280 -2220 -2263 0
-2281 2221 2264 0
2281 -2220 -2264 0
-2282 2221 2265 0
2282 -2220 -2265 0
-2283 2221 2266 0
2283 -2220 -2266 0
-2284 2221 2267 0
2284 -2220 -2267 0
-2285 2221 2268 0
2285 -2220 -2268 0
-2286 2221 2269 0
2286 -2220 -2269 0
-2287 2221 2270 0
2287 -2220 -2270 0
-2288 2221 2271 0
2288 -2220 -2271 0
2277 -2221 0
-2278 2222 2260 0
2278 -2221 -2260 0
-2279 2222 2261 0
2279 -2221 -2261 0
-2280 2222 2262 0
2280 -2221 -2262 0
-2281 2222 2263 0
2281 -2221 -2263 0
-2282 2222 2264 0
2282 -2221 -2264 0
-2283 2222 2265 0
2283 -2221 -2265 0
-2284 2222 2266 0
2284 -2221 -2266 0
-2285 2222 2267 0
2285 -2221 -2267 0
-2286 2222 2268 0
2286 -2221 -2268 0
-2287 2222 2269 0
2287 -2221 -2269 0
-2288 2222 2270 0
2288 -2221 -2270 0
2278 -2222 0
-2279 2223 2260 0
2279 -2222 -2260 0
-2280 2223 2261 0
2280 -2222 -2261 0
-2281 2223 2262 0
2281 -2222 -2262 0
-2282 2223 2263 0
2282 -2222 -2263 0
-2283 2223 2264 0
2283 -2222 -2264 0
-2284 2223 2265 0
2284 -2222 -2265 0
-2285 2223 2266 0
2285 -2222 -2266 0
-2286 2223 2267 0
2286 -2222 -2267 0
-2287 2223 2268 0
2287 -2222 -2268 0
-2288 2223 2269 0
2288 -2222 -2269 0
2279 -2223 0
-2280 2224 2260 0
2280 -2223 -2260 0
-2281 2224 2261 0
2281 -2223 -2261 0
-2282 2224 2262 0
2282 -2223 -2262 0
-2283 2224 2263 0
2283 -2223 -2263 0
-2284 2224 2264 0
2284 -2223 -2264 0
-2285 2224 2265 0
2285 -2223 -2265 0
-2286 2224 2266 0
2286 -2223 -2266 0
-2287 2224 2267 0
2287 -2223 -2267 0
-2288 2224 2268 0
2288 -2223 -2268 0
2280 -2224 0
-2281 2225 2260 0
2281 -2224 -2260 0
-2282 2225 2261 0
2282 -2224 -2261 0
-2283 2225 2262 0
2283 -2224 -2262 0
-2284 2225 2263 0
2284 -2224 -2263 0
-2285 2225 2264 0
2285 -2224 -2264 0
-2286 2225 2265 0
2286 -2224 -2265 0
-2287 2225 2266 0
2287 -2224 -2266 0
-2288 2225 2267 0
2288 -2224 -2267 0
2281 -2225 0
-2282 2226 2260 0
2282 -2225 -2260 0
-2283 2226 2261 0
2283 -2225 -2261 0
-2284 2226 2262 0
2284 -2225 -2262 0
-2285 2226 2263 0
2285 -2225 -2263 0
-2286 2226 2264 0
2286 -2225 -2264 0
-2287 2226 2265 0
2287 -2225 -2265 0
-2288 2226 2266 0
2288 -2225 -2266 0
2282 -2226 0
-2283 2227 2260 0
2283 -2226 -2260 0
-2284 2227 2261 0
2284 -2226 -2261 0
-2285 2227 2262 0
2285 -2226 -2262 0
-2286 2227 2263 0
2286 -2226 -2263 0
-2287 2227 2264 0
2287 -2226 -2264 0
-2288 2227 2265 0
2288 -2226 -2265 0
2283 -2227 0
-2284 2260 0
2284 -2227 -2260 0
-2285 2261 0
2285 -2227 -2261 0
-2286 2262 0
2286 -2227 -2262 0
-2287 2263 0
2287 -2227 -2263 0
-2288 2264 0
2288 -2227 -2264 0
-2289 98 99 0
2289 -99 0
-2290 98 0
2289 -98 0
-2290 99 0
2290 -98 -99 0
-2291 97 2289 0
2291 -2289 0
-2292 97 2290 0
2292 -2290 0
-2293 97 0
2291 -97 0
-2292 2289 0
2292 -97 -2289 0
-2293 2290 0
2293 -97 -2290 0
-2294 101 102 0
2294 -102 0
-2295 101 0
2294 -101 0
-2295 102 0
2295 -101 -102 0
-2296 100 2294 0
2296 -2294 0
-2297 100 2295 0
2297 -2295 0
-2298 100 0
2296 -100 0
-2297 2294 0
2297 -100 -2294 0
-2298 2295 0
2298 -100 -2295 0
-2299 2291 2296 0
2299 -2296 0
-2300 2291 2297 0
2300 -2297 0
-2301 2291 2298 0
2301 -2298 0
-2302 2291 0
2299 -2291 0
-2300 2292 2296 0
2300 -2291 -2296 0
-2301 2292 2297 0
2301 -2291 -2297 0
-2302 2292 2298 0
2302 -2291 -2298 0
-2303 2292 0
2300 -2292 0
-2301 2293 2296 0
2301 -2292 -2296 0
-2302 2293 2297 0
2302 -2292 -2297 0
-2303 2293 2298 0
2303 -2292 -2298 0
-2304 2293 0
2301 -2293 0
-2302 2296 0
2302 -2293 -2296 0
-2303 2297 0
2303 -2293 -2297 0
-2304 2298 0
2304 -2293 -2298 0
-2305 104 105 0
2305 -105 0
-2306 104 0
2305 -104 0
-2306 105 0
2306 -104 -105 0
-2307 103 2305 0
2307 -2305 0
-2308 103 2306 0
2308 -2306 0
-2309 103 0
2307 -103 0
-2308 2305 0
2308 -103 -2305 0
-2309 2306 0
2309 -103 -2306 0
-2310 107 108 0
2310 -108 0
-2311 107 0
2310 -107 0
-2311 108 0
2311 -107 -108 0
-2312 106 2310 0
2312 -2310 0
-2313 106 2311 0
2313 -2311 0
-2314 106 0
2312 -106 0
-2313 2310 0
2313 -106 -2310 0
-2314 2311 0
2314 -106 -2311 0
-2315 2307 2312 0
2315 -2312 0
-2316 2307 2313 0
2316 -2313 0
-2317 2307 2314 0
2317 -2314 0
-2318 2307 0
2315 -2307 0
-2316 2308 2312 0
2316 -2307 -2312 0
-2317 2308 2313 0
2317 -2307 -2313 0
-2318 2308 2314 0
2318 -2307 -2314 0
-2319 2308 0
2316 -2308 0
-2317 2309 2312 0
2317 -2308 -2312 0
-2318 2309 2313 0
2318 -2308 -2313 0
-2319 2309 2314 0
2319 -2308 -2314 0
-2320 2309 0
2317 -2309 0
-2318 2312 0
2318 -2309 -2312 0
-2319 2313 0
2319 -2309 -2313 0
-2320 2314 0
2320 -2309 -2314 0
-2321 2299 2315 0
2321 -2315 0
-2322 2299 2316 0
2322 -2316 0
-2323 2299 2317 0
2323 -2317 0
-2324 2299 2318 0
2324 -2318 0
-2325 2299 2319 0
2325 -2319 0
-2326 2299 2320 0
2326 -2320 0
-2327 2299 0
2321 -2299 0
-2322 2300 2315 0
2322 -2299 -2315 0
-2323 2300 2316 0
2323 -2299 -2316 0
-2324 2300 2317 0
2324 -2299 -2317 0
-2325 2300 2318 0
2325 -2299 -2318 0
-2326 2300 2319 0
2326 -2299 -2319 0
-2327 2300 2320 0
2327 -2299 -2320 0
-2328 2300 0
2322 -2300 0
-2323 2301 2315 0
2323 -2300 -2315 0
-2324 2301 2316 0
2324 -2300 -2316 0
-2325 2301 2317 0
2325 -2300 -2317 0
-2326 2301 2318 0
2326 -2300 -2318 0
-2327 2301 2319 0
2327 -2300 -2319 0
-2328 2301 2320 0
2328 -2300 -2320 0
-2329 2301 0
2323 -2301 0
-2324 2302 2315 0
2324 -2301 -2315 0
-2325 2302 2316 0
2325 -2301 -2316 0
-2326 2302 2317 0
2326 -2301 -2317 0
-2327 2302 2318 0
2327 -2301 -2318 0
-2328 2302 2319 0
2328 -2301 -2319 0
-2329 2302 2320 0
2329 -2301 -2320 0
-2330 2302 0
2324 -2302 0
-2325 2303 2315 0
2325 -2302 -2315 0
-2326 2303 2316 0
2326 -2302 -2316 0
-2327 2303 2317 0
2327 -2302 -2317 0
-2328 2303 2318 0
2328 -2302 -2318 0
-2329 2303 2319 0
2329 -2302 -2319 0
-2330 2303 2320 0
2330 -2302 -2320 0
-2331 2303 0
2325 -2303 0
-2326 2304 2315 0
2326 -2303 -2315 0
-2327 2304 2316 0
2327 -2303 -2316 0
-2328 2304 2317 0
2328 -2303 -2317 0
-2329 2304 2318 0
2329 -2303 -2318 0
-2330 2304 2319 0
2330 -2303 -2319 0
-2331 2304 2320 0
2331 -2303 -2320 0
-2332 2304 0
2326 -2304 0
-2327 2315 0
2327 -2304 -2315 0
-2328 2316 0
2328 -2304 -2316 0
-2329 2317 0
2329 -2304 -2317 0
-2330 2318 0
2330 -2304 -2318 0
-2331 2319 0
2331 -2304 -2319 0
-2332 2320 0
2332 -2304 -2320 0
-2333 242 243 0
2333 -243 0
-2334 242 0
2333 -242 0
-2334 243 0
2334 -242 -243 0
-2335 241 2333 0
2335 -2333 0
-2336 241 2334 0
2336 -2334 0
-2337 241 0
2335 -241 0
-2336 2333 0
2336 -241 -2333 0
-2337 2334 0
2337 -241 -2334 0
-2338 245 246 0
2338 -246 0
-2339 245 0
2338 -245 0
-2339 246 0
2339 -245 -246 0
-2340 244 2338 0
2340 -2338 0
-2341 244 2339 0
2341 -2339 0
-2342 244 0
2340 -244 0
-2341 2338 0
2341 -244 -2338 0
-2342 2339 0
2342 -244 -2339 0
-2343 2335 2340 0
2343 -2340 0
-2344 2335 2341 0
2344 -2341 0
-2345 2335 2342 0
2345 -2342 0
-2346 2335 0
2343 -2335 0
-2344 2336 2340 0
2344 -2335 -2340 0
-2345 2336 2341 0
2345 -2335 -2341 0
-2346 2336 2342 0
2346 -2335 -2342 0
-2347 2336 0
2344 -2336 0
-2345 2337 2340 0
2345 -2336 -2340 0
-2346 2337 2341 0
2346 -2336 -2341 0
-2347 2337 2342 0
2347 -2336 -2342 0
-2348 2337 0
2345 -2337 0
-2346 2340 0
2346 -2337 -2340 0
-2347 2341 0
2347 -2337 -2341 0
-2348 2342 0
2348 -2337 -2342 0
-2349 248 249 0
2349 -249 0
-2350 248 0
2349 -248 0
-2350 249 0
2350 -248 -249 0
-2351 247 2349 0
2351 -2349 0
-2352 247 2350 0
2352 -2350 0
-2353 247 0
2351 -247 0
-2352 2349 0
2352 -247 -2349 0
-2353 2350 0
2353 -247 -2350 0
-2354 251 252 0
2354 -252 0
-2355 251 0
2354 -251 0
-2355 252 0
2355 -251 -252 0
-2356 250 2354 0
2356 -2354 0
-2357 250 2355 0
2357 -2355 0
-2358 250 0
2356 -250 0
-2357 2354 0
2357 -250 -2354 0
-2358 2355 0
2358 -250 -2355 0
-2359 2351 2356 0
2359 -2356 0
-2360 2351 2357 0
2360 -2357 0
-2361 2351 2358 0
2361 -2358 0
-2362 2351 0
2359 -2351 0
-2360 2352 2356 0
2360 -2351 -2356 0
-2361 2352 2357 0
2361 -2351 -2357 0
-2362 2352 2358 0
2362 -2351 -2358 0
-2363 2352 0
2360 -2352 0
-2361 2353 2356 0
2361 -2352 -2356 0
-2362 2353 2357 0
2362 -2352 -2357 0
-2363 2353 2358 0
2363 -2352 -2358 0
-2364 2353 0
2361 -2353 0
-2362 2356 0
2362 -2353 -2356 0
-2363 2357 0
2363 -2353 -2357 0
-2364 2358 0
2364 -2353 -2358 0
-2365 2343 2359 0
2365 -2359 0
-2366 2343 2360 0
2366 -2360 0
-2367 2343 2361 0
2367 -2361 0
-2368 2343 2362 0
2368 -2362 0
-2369 2343 2363 0
2369 -2363 0
-2370 2343 2364 0
2370 -2364 0
-2371 2343 0
2365 -2343 0
-2366 2344 2359 0
2366 -2343 -2359 0
-2367 2344 2360 0
2367 -2343 -2360 0
-2368 2344 2361 0
2368 -2343 -2361 0
-2369 2344 2362 0
2369 -2343 -2362 0
-2370 2344 2363 0
2370 -2343 -2363 0
-2371 2344 2364 0
2371 -2343 -2364 0
-2372 2344 0
2366 -2344 0
-2367 2345 2359 0
2367 -2344 -2359 0
-2368 2345 2360 0
2368 -2344 -2360 0
-2369 2345 2361 0
2369 -2344 -2361 0
-2370 2345 2362 0
2370 -2344 -2362 0
-2371 2345 2363 0
2371 -2344 -2363 0
-2372 2345 2364 0
2372 -2344 -2364 0
-2373 2345 0
2367 -2345 0
-2368 2346 2359 0
2368 -2345 -2359 0
-2369 2346 2360 0
2369 -2345 -2360 0
-2370 2346 2361 0
2370 -2345 -2361 0
-2371 2346 2362 0
2371 -2345 -2362 0
-2372 2346 2363 0
2372 -2345 -2363 0
-2373 2346 2364 0
2373 -2345 -2364 0
-2374 2346 0
2368 -2346 0
-2369 2347 2359 0
2369 -2346 -2359 0
-2370 2347 2360 0
2370 -2346 -2360 0
-2371 2347 2361 0
2371 -2346 -2361 0
-2372 2347 2362 0
2372 -2346 -2362 0
-2373 2347 2363 0
2373 -2346 -2363 0
-2374 2347 2364 0
2374 -2346 -2364 0
-2375 2347 0
2369 -2347 0
-2370 2348 2359 0
2370 -2347 -2359 0
-2371 2348 2360 0
2371 -2347 -2360 0
-2372 2348 2361 0
2372 -2347 -2361 0
-2373 2348 2362 0
2373 -2347 -2362 0
-2374 2348 2363 0
2374 -2347 -2363 0
-2375 2348 2364 0
2375 -2347 -2364 0
-2376 2348 0
2370 -2348 0
-2371 2359 0
2371 -2348 -2359 0
-2372 2360 0
2372 -2348 -2360 0
-2373 2361 0
2373 -2348 -2361 0
-2374 2362 0
2374 -2348 -2362 0
-2375 2363 0
2375 -2348 -2363 0
-2376 2364 0
2376 -2348 -2364 0
-2377 2321 2365 0
2377 -2365 0
-2378 2321 2366 0
2378 -2366 0
-2379 2321 2367 0
2379 -2367 0
-2380 2321 2368 0
2380 -2368 0
-2381 2321 2369 0
2381 -2369 0
-2382 2321 2370 0
2382 -2370 0
-2383 2321 2371 0
2383 -2371 0
-2384 2321 2372 0
2384 -2372 0
-2385 2321 2373 0
2385 -2373 0
-2386 2321 2374 0
2386 -2374 0
-2387 2321 2375 0
2387 -2375 0
-2388 2321 2376 0
2388 -2376 0
-2389 2321 0
2377 -2321 0
-2378 2322 2365 0
2378 -2321 -2365 0
-2379 2322 2366 0
2379 -2321 -2366 0
-2380 2322 2367 0
2380 -2321 -2367 0
-2381 2322 2368 0
2381 -2321 -2368 0
-2382 2322 2369 0
2382 -2321 -2369 0
-2383 2322 2370 0
2383 -2321 -2370 0
-2384 2322 2371 0
2384 -2321 -2371 0
-2385 2322 2372 0
2385 -2321 -2372 0
-2386 2322 2373 0
2386 -2321 -2373 0
-2387 2322 2374 0
2387 -2321 -2374 0
-2388 2322 2375 0
2388 -2321 -2375 0
-2389 2322 2376 0
2389 -2321 -2376 0
-2390 2322 0
2378 -2322 0
-2379 2323 2365 0
2379 -2322 -2365 0
-2380 2323 2366 0
2380 -2322 -2366 0
-2381 2323 2367 0
2381 -2322 -2367 0
-2382 2323 2368 0
2382 -2322 -2368 0
-2383 2323 2369 0
2383 -2322 -2369 0
-2384 2323 2370 0
2384 -2322 -2370 0
-2385 2323 2371 0
2385 -2322 -2371 0
-2386 2323 2372 0
2386 -2322 -2372 0
-2387 2323 2373 0
2387 -2322 -2373 0
-2388 2323 2374 0
2388 -2322 -2374 0
-2389 2323 2375 0
2389 -2322 -2375 0
-2390 2323 2376 0
2390 -2322 -2376 0
-2391 2323 0
2379 -2323 0
-2380 2324 2365 0
2380 -2323 -2365 0
-2381 2324 2366 0
2381 -2323 -2366 0
-2382 2324 2367 0
2382 -2323 -2367 0
-2383 2324 2368 0
2383 -2323 -2368 0
-2384 2324 2369 0
2384 -2323 -2369 0
-2385 2324 2370 0
2385 -2323 -2370 0
-2386 2324 2371 0
2386 -2323 -2371 0
-2387 2324 2372 0
2387 -2323 -2372 0
-2388 2324 2373 0
2388 -2323 -2373 0
-2389 2324 2374 0
2389 -2323 -2374 0
-2390 2324 2375 0
2390 -2323 -2375 0
-2391 2324 2376 0
2391 -2323 -2376 0
-2392 2324 0
2380 -2324 0
-2381 2325 2365 0
2381 -2324 -2365 0
-2382 2325 2366 0
2382 -2324 -2366 0
-2383 2325 2367 0
2383 -2324 -2367 0
-2384 2325 2368 0
2384 -2324 -2368 0
-2385 2325 2369 0
2385 -2324 -2369 0
-2386 2325 2370 0
2386 -2324 -2370 0
-2387 2325 2371 0
2387 -2324 -2371 0
-2388 2325 2372 0
2388 -2324 -2372 0
-2389 2325 2373 0
2389 -2324 -2373 0
-2390 2325 2374 0
2390 -2324 -2374 0
-2391 2325 2375 0
2391 -2324 -2375 0
-2392 2325 2376 0
2392 -2324 -2376 0
-2393 2325 0
2381 -2325 0
-2382 2326 2365 0
2382 -2325 -2365 0
-2383 2326 2366 0
2383 -2325 -2366 0
-2384 2326 2367 0
2384 -2325 -2367 0
-2385 2326 2368 0
2385 -2325 -2368 0
-2386 2326 2369 0
2386 -2325 -2369 0
-2387 2326 2370 0
2387 -2325 -2370 0
-2388 2326 2371 0
2388 -2325 -2371 0
-2389 2326 2372 0
2389 -2325 -2372 0
-2390 2326 2373 0
2390 -2325 -2373 0
-2391 2326 2374 0
2391 -2325 -2374 0
-2392 2326 2375 0
2392 -2325 -2375 0
-2393 2326 2376 0
2393 -2325 -2376 0
2382 -2326 0
-2383 2327 2365 0
2383 -2326 -2365 0
-2384 2327 2366 0
2384 -2326 -2366 0
-2385 2327 2367 0
2385 -2326 -2367 0
-2386 2327 2368 0
2386 -2326 -2368 0
-2387 2327 2369 0
2387 -2326 -2369 0
-2388 2327 2370 0
2388 -2326 -2370 0
-2389 2327 2371 0
2389 -2326 -2371 0
-2390 2327 2372 0
2390 -2326 -2372 0
-2391 2327 2373 0
2391 -2326 -2373 0
-2392 2327 2374 0
2392 -2326 -2374 0
-2393 2327 2375 0
2393 -2326 -2375 0
2383 -2327 0
-2384 2328 2365 0
2384 -2327 -2365 0
-2385 2328 2366 0
2385 -2327 -2366 0
-2386 2328 2367 0
2386 -2327 -2367 0
-2387 2328 2368 0
2387 -2327 -2368 0
-2388 2328 2369 0
2388 -2327 -2369 0
-2389 2328 2370 0
2389 -2327 -2370 0
-2390 2328 2371 0
2390 -2327 -2371 0
-2391 2328 2372 0
2391 -2327 -2372 0
-2392 2328 2373 0
2392 -2327 -2373 0
-2393 2328 2374 0
2393 -2327 -2374 0
2384 -2328 0
-2385 2329 2365 0
2385 -2328 -2365 0
-2386 2329 2366 0
2386 -2328 -2366 0
-2387 2329 2367 0
2387 -2328 -2367 0
-2388 2329 2368 0
2388 -2328 -2368 0
-2389 2329 2369 0
2389 -2328 -2369 0
-2390 2329 2370 0
2390 -2328 -2370 0
-2391 2329 2371 0
2391 -2328 -2371 0
-2392 2329 2372 0
2392 -2328 -2372 0
-2393 2329 2373 0
2393 -2328 -2373 0
2385 -2329 0
-2386 2330 2365 0
2386 -2329 -2365 0
-2387 2330 2366 0
2387 -2329 -2366 0
-2388 2330 2367 0
2388 -2329 -2367 0
-2389 2330 2368 0
2389 -2329 -2368 0
-2390 2330 2369 0
2390 -2329 -2369 0
-2391 2330 2370 0
2391 -2329 -2370 0
-2392 2330 2371 0
2392 -2329 -2371 0
-2393 2330 2372 0
2393 -2329 -2372 0
2386 -2330 0
-2387 2331 2365 0
2387 -2330 -2365 0
-2388 2331 2366 0
2388 -2330 -2366 0
-2389 2331 2367 0
2389 -2330 -2367 0
-2390 2331 2368 0
2390 -2330 -2368 0
-2391 2331 2369 0
2391 -2330 -2369 0
-2392 2331 2370 0
2392 -2330 -2370 0
-2393 2331 2371 0
2393 -2330 -2371 0
2387 -2331 0
-2388 2332 2365 0
2388 -2331 -2365 0
-2389 2332 2366 0
2389 -2331 -2366 0
-2390 2332 2367 0
2390 -2331 -2367 0
-2391 2332 2368 0
2391 -2331 -2368 0
-2392 2332 2369 0
2392 -2331 -2369 0
-2393 2332 2370 0
2393 -2331 -2370 0
2388 -2332 0
-2389 2365 0
2389 -2332 -2365 0
-2390 2366 0
2390 -2332 -2366 0
-2391 2367 0
2391 -2332 -2367 0
-2392 2368 0
2392 -2332 -2368 0
-2393 2369 0
2393 -2332 -2369 0
-2394 110 111 0
2394 -111 0
-2395 110 0
2394 -110 0
-2395 111 0
2395 -110 -111 0
-2396 109 2394 0
2396 -2394 0
-2397 109 2395 0
2397 -2395 0
-2398 109 0
2396 -109 0
-2397 2394 0
2397 -109 -2394 0
-2398 2395 0
2398 -109 -2395 0
-2399 113 114 0
2399 -114 0
-2400 113 0
2399 -113 0
-2400 114 0
2400 -113 -114 0
-2401 112 2399 0
2401 -2399 0
-2402 112 2400 0
2402 -2400 0
-2403 112 0
2401 -112 0
-2402 2399 0
2402 -112 -2399 0
-2403 2400 0
2403 -112 -2400 0
-2404 2396 2401 0
2404 -2401 0
-2405 2396 2402 0
2405 -2402 0
-2406 2396 2403 0
2406 -2403 0
-2407 2396 0
2404 -2396 0
-2405 2397 2401 0
2405 -2396 -2401 0
-2406 2397 2402 0
2406 -2396 -2402 0
-2407 2397 2403 0
2407 -2396 -2403 0
-2408 2397 0
2405 -2397 0
-2406 2398 2401 0
2406 -2397 -2401 0
-2407 2398 2402 0
2407 -2397 -2402 0
-2408 2398 2403 0
2408 -2397 -2403 0
-2409 2398 0
2406 -2398 0
-2407 2401 0
2407 -2398 -2401 0
-2408 2402 0
2408 -2398 -2402 0
-2409 2403 0
2409 -2398 -2403 0
-2410 116 117 0
2410 -117 0
-2411 116 0
2410 -116 0
-2411 117 0
2411 -116 -117 0
-2412 115 2410 0
2412 -2410 0
-2413 115 2411 0
2413 -2411 0
-2414 115 0
2412 -115 0
-2413 2410 0
2413 -115 -2410 0
-2414 2411 0
2414 -115 -2411 0
-2415 119 120 0
2415 -120 0
-2416 119 0
2415 -119 0
-2416 120 0
2416 -119 -120 0
-2417 118 2415 0
2417 -2415 0
-2418 118 2416 0
2418 -2416 0
-2419 118 0
2417 -118 0
-2418 2415 0
2418 -118 -2415 0
-2419 2416 0
2419 -118 -2416 0
-2420 2412 2417 0
2420 -2417 0
-2421 2412 2418 0
2421 -2418 0
-2422 2412 2419 0
2422 -2419 0
-2423 2412 0
2420 -2412 0
-2421 2413 2417 0
2421 -2412 -2417 0
-2422 2413 2418 0
2422 -2412 -2418 0
-2423 2413 2419 0
2423 -2412 -2419 0
-2424 2413 0
2421 -2413 0
-2422 2414 2417 0
2422 -2413 -2417 0
-2423 2414 2418 0
2423 -2413 -2418 0
-2424 2414 2419 0
2424 -2413 -2419 0
-2425 2414 0
2422 -2414 0
-2423 2417 0
2423 -2414 -2417 0
-2424 2418 0
2424 -2414 -2418 0
-2425 2419 0
2425 -2414 -2419 0
-2426 2404 2420 0
2426 -2420 0
-2427 2404 2421 0
2427 -2421 0
-2428 2404 2422 0
2428 -2422 0
-2429 2404 2423 0
2429 -2423 0
-2430 2404 2424 0
2430 -2424 0
-2431 2404 2425 0
2431 -2425 0
-2432 2404 0
2426 -2404 0
-2427 2405 2420 0
2427 -2404 -2420 0
-2428 2405 2421 0
2428 -2404 -2421 0
-2429 2405 2422 0
2429 -2404 -2422 0
-2430 2405 2423 0
2430 -2404 -2423 0
-2431 2405 2424 0
2431 -2404 -2424 0
-2432 2405 2425 0
2432 -2404 -2425 0
-2433 2405 0
2427 -2405 0
-2428 2406 2420 0
2428 -2405 -2420 0
-2429 2406 2421 0
2429 -2405 -2421 0
-2430 2406 2422 0
2430 -2405 -2422 0
-2431 2406 2423 0
2431 -2405 -2423 0
-2432 2406 2424 0
2432 -2405 -2424 0
-2433 2406 2425 0
2433 -2405 -2425 0
-2434 2406 0
2428 -2406 0
-2429 2407 2420 0
2429 -2406 -2420 0
-2430 2407 2421 0
2430 -2406 -2421 0
-2431 2407 2422 0
2431 -2406 -2422 0
-2432 2407 2423 0
2432 -2406 -2423 0
-2433 2407 2424 0
2433 -2406 -2424 0
-2434 2407 2425 0
2434 -2406 -2425 0
-2435 2407 0
2429 -2407 0
-2430 2408 2420 0
2430 -2407 -2420 0
-2431 2408 2421 0
2431 -2407 -2421 0
-2432 2408 2422 0
2432 -2407 -2422 0
-2433 2408 2423 0
2433 -2407 -2423 0
-2434 2408 2424 0
2434 -2407 -2424 0
-2435 2408 2425 0
2435 -2407 -2425 0
-2436 2408 0
2430 -2408 0
-2431 2409 2420 0
2431 -2408 -2420 0
-2432 2409 2421 0
2432 -2408 -2421 0
-2433 2409 2422 0
2433 -2408 -2422 0
-2434 2409 2423 0
2434 -2408 -2423 0
-2435 2409 2424 0
2435 -2408 -2424 0
-2436 2409 2425 0
2436 -2408 -2425 0
-2437 2409 0
2431 -2409 0
-2432 2420 0
2432 -2409 -2420 0
-2433 2421 0
2433 -2409 -2421 0
-2434 2422 0
2434 -2409 -2422 0
-2435 2423 0
2435 -2409 -2423 0
-2436 2424 0
2436 -2409 -2424 0
-2437 2425 0
2437 -2409 -2425 0
-2438 254 255 0
2438 -255 0
-2439 254 0
2438 -254 0
-2439 255 0
2439 -254 -255 0
-2440 253 2438 0
2440 -2438 0
-2441 253 2439 0
2441 -2439 0
-2442 253 0
2440 -253 0
-2441 2438 0
2441 -253 -2438 0
-2442 2439 0
2442 -253 -2439 0
-2443 257 258 0
2443 -258 0
-2444 257 0
2443 -257 0
-2444 258 0
2444 -257 -258 0
-2445 256 2443 0
2445 -2443 0
-2446 256 2444 0
2446 -2444 0
-2447 256 0
2445 -256 0
-2446 2443 0
2446 -256 -2443 0
-2447 2444 0
2447 -256 -2444 0
-2448 2440 2445 0
2448 -2445 0
-2449 2440 2446 0
2449 -2446 0
-2450 2440 2447 0
2450 -2447 0
-2451 2440 0
2448 -2440 0
-2449 2441 2445 0
2449 -2440 -2445 0
-2450 2441 2446 0
2450 -2440 -2446 0
-2451 2441 2447 0
2451 -2440 -2447 0
-2452 2441 0
2449 -2441 0
-2450 2442 2445 0
2450 -2441 -2445 0
-2451 2442 2446 0
2451 -2441 -2446 0
-2452 2442 2447 0
2452 -2441 -2447 0
-2453 2442 0
2450 -2442 0
-2451 2445 0
2451 -2442 -2445 0
-2452 2446 0
2452 -2442 -2446 0
-2453 2447 0
2453 -2442 -2447 0
-2454 260 261 0
2454 -261 0
-2455 260 0
2454 -260 0
-2455 261 0
2455 -260 -261 0
-2456 259 2454 0
2456 -2454 0
-2457 259 2455 0
2457 -2455 0
-2458 259 0
2456 -259 0
-2457 2454 0
2457 -259 -2454 0
-2458 2455 0
2458 -259 -2455 0
-2459 263 264 0
2459 -264 0
-2460 263 0
2459 -263 0
-2460 264 0
2460 -263 -264 0
-2461 262 2459 0
2461 -2459 0
-2462 262 2460 0
2462 -2460 0
-2463 262 0
2461 -262 0
-2462 2459 0
2462 -262 -2459 0
-2463 2460 0
2463 -262 -2460 0
-2464 2456 2461 0
2464 -2461 0
-2465 2456 2462 0
2465 -2462 0
-2466 2456 2463 0
2466 -2463 0
-2467 2456 0
2464 -2456 0
-2465 2457 2461 0
2465 -2456 -2461 0
-2466 2457 2462 0
2466 -2456 -2462 0
-2467 2457 2463 0
2467 -2456 -2463 0
-2468 2457 0
2465 -2457 0
-2466 2458 2461 0
2466 -2457 -2461 0
-2467 2458 2462 0
2467 -2457 -2462 0
-2468 2458 2463 0
2468 -2457 -2463 0
-2469 2458 0
2466 -2458 0
-2467 2461 0
2467 -2458 -2461 0
-2468 2462 0
2468 -2458 -2462 0
-2469 2463 0
2469 -2458 -2463 0
-2470 2448 2464 0
2470 -2464 0
-2471 2448 2465 0
2471 -2465 0
-2472 2448 2466 0
2472 -2466 0
-2473 2448 2467 0
2473 -2467 0
-2474 2448 2468 0
2474 -2468 0
-2475 2448 2469 0
2475 -2469 0
-2476 2448 0
2470 -2448 0
-2471 2449 2464 0
2471 -2448 -2464 0
-2472 2449 2465 0
2472 -2448 -2465 0
-2473 2449 2466 0
2473 -2448 -2466 0
-2474 2449 2467 0
2474 -2448 -2467 0
-2475 2449 2468 0
2475 -2448 -2468 0
-2476 2449 2469 0
2476 -2448 -2469 0
-2477 2449 0
2471 -2449 0
-2472 2450 2464 0
2472 -2449 -2464 0
-2473 2450 2465 0
2473 -2449 -2465 0
-2474 2450 2466 0
2474 -2449 -2466 0
-2475 2450 2467 0
2475 -2449 -2467 0
-2476 2450 2468 0
2476 -2449 -2468 0
-2477 2450 2469 0
2477 -2449 -2469 0
-2478 2450 0
2472 -2450 0
-2473 2451 2464 0
2473 -2450 -2464 0
-2474 2451 2465 0
2474 -2450 -2465 0
-2475 2451 2466 0
2475 -2450 -2466 0
-2476 2451 2467 0
2476 -2450 -2467 0
-2477 2451 2468 0
2477 -2450 -2468 0
-2478 2451 2469 0
2478 -2450 -2469 0
-2479 2451 0
2473 -2451 0
-2474 2452 2464 0
2474 -2451 -2464 0
-2475 2452 2465 0
2475 -2451 -2465 0
-2476 2452 2466 0
2476 -2451 -2466 0
-2477 2452 2467 0
2477 -2451 -2467 0
-2478 2452 2468 0
2478 -2451 -2468 0
-2479 2452 2469 0
2479 -2451 -2469 0
-2480 2452 0
2474 -2452 0
-2475 2453 2464 0
2475 -2452 -2464 0
-2476 2453 2465 0
2476 -2452 -2465 0
-2477 2453 2466 0
2477 -2452 -2466 0
-2478 2453 2467 0
2478 -2452 -2467 0
-2479 2453 2468 0
2479 -2452 -2468 0
-2480 2453 2469 0
2480 -2452 -2469 0
-2481 2453 0
2475 -2453 0
-2476 2464 0
2476 -2453 -2464 0
-2477 2465 0
2477 -2453 -2465 0
-2478 2466 0
2478 -2453 -2466 0
-2479 2467 0
2479 -2453 -2467 0
-2480 2468 0
2480 -2453 -2468 0
-2481 2469 0
2481 -2453 -2469 0
-2482 2426 2470 0
2482 -2470 0
-2483 2426 2471 0
2483 -2471 0
-2484 2426 2472 0
2484 -2472 0
-2485 2426 2473 0
2485 -2473 0
-2486 2426 2474 0
2486 -2474 0
-2487 2426 2475 0
2487 -2475 0
-2488 2426 2476 0
2488 -2476 0
-2489 2426 2477 0
2489 -2477 0
-2490 2426 2478 0
2490 -2478 0
-2491 2426 2479 0
2491 -2479 0
-2492 2426 2480 0
2492 -2480 0
-2493 2426 2481 0
2493 -2481 0
-2494 2426 0
2482 -2426 0
-2483 2427 2470 0
2483 -2426 -2470 0
-2484 2427 2471 0
2484 -2426 -2471 0
-2485 2427 2472 0
2485 -2426 -2472 0
-2486 2427 2473 0
2486 -2426 -2473 0
-2487 2427 2474 0
2487 -2426 -2474 0
-2488 2427 2475 0
2488 -2426 -2475 0
-2489 2427 2476 0
2489 -2426 -2476 0
-2490 2427 2477 0
2490 -2426 -2477 0
-2491 2427 2478 0
2491 -2426 -2478 0
-2492 2427 2479 0
2492 -2426 -2479 0
-2493 2427 2480 0
2493 -2426 -2480 0
-2494 2427 2481 0
2494 -2426 -2481 0
-2495 2427 0
2483 -2427 0
-2484 2428 2470 0
2484 -2427 -2470 0
-2485 2428 2471 0
2485 -2427 -2471 0
-2486 2428 2472 0
2486 -2427 -2472 0
-2487 2428 2473 0
2487 -2427 -2473 0
-2488 2428 2474 0
2488 -2427 -2474 0
-2489 2428 2475 0
2489 -2427 -2475 0
-2490 2428 2476 0
2490 -2427 -2476 0
-2491 2428 2477 0
2491 -2427 -2477 0
-2492 2428 2478 0
2492 -2427 -2478 0
-2493 2428 2479 0
2493 -2427 -2479 0
-2494 2428 2480 0
2494 -2427 -2480 0
-2495 2428 2481 0
2495 -2427 -2481 0
-2496 2428 0
2484 -2428 0
-2485 2429 2470 0
2485 -2428 -2470 0
-2486 2429 2471 0
2486 -2428 -2471 0
-2487 2429 2472 0
2487 -2428 -2472 0
-2488 2429 2473 0
2488 -2428 -2473 0
-2489 2429 2474 0
2489 -2428 -2474 0
-2490 2429 2475 0
2490 -2428 -2475 0
-2491 2429 2476 0
2491 -2428 -2476 0
-2492 2429 2477 0
2492 -2428 -2477 0
-2493 2429 2478 0
2493 -2428 -2478 0
-2494 2429 2479 0
2494 -2428 -2479 0
-2495 2429 2480 0
2495 -2428 -2480 0
-2496 2429 2481 0
2496 -2428 -2481 0
-2497 2429 0
2485 -2429 0
-2486 2430 2470 0
2486 -2429 -2470 0
-2487 2430 2471 0
2487 -2429 -2471 0
-2488 2430 2472 0
2488 -2429 -2472 0
-2489 2430 2473 0
2489 -2429 -2473 0
-2490 2430 2474 0
2490 -2429 -2474 0
-2491 2430 2475 0
2491 -2429 -2475 0
-2492 2430 2476 0
2492 -2429 -2476 0
-2493 2430 2477 0
2493 -2429 -2477 0
-2494 2430 2478 0
2494 -2429 -2478 0
-2495 2430 2479 0
2495 -2429 -2479 0
-2496 2430 2480 0
2496 -2429 -2480 0
-2497 2430 2481 0
2497 -2429 -2481 0
-2498 2430 0
2486 -2430 0
-2487 2431 2470 0
2487 -2430 -2470 0
-2488 2431 2471 0
2488 -2430 -2471 0
-2489 2431 2472 0
2489 -2430 -2472 0
-2490 2431 2473 0
2490 -2430 -2473 0
-2491 2431 2474 0
2491 -2430 -2474 0
-2492 2431 2475 0
2492 -2430 -2475 0
-2493 2431 2476 0
2493 -2430 -2476 0
-2494 2431 2477 0
2494 -2430 -2477 0
-2495 2431 2478 0
2495 -2430 -2478 0
-2496 2431 2479 0
2496 -2430 -2479 0
-2497 2431 2480 0
2497 -2430 -2480 0
-2498 2431 2481 0
2498 -2430 -2481 0
2487 -2431 0
-2488 2432 2470 0
2488 -2431 -2470 0
-2489 2432 2471 0
2489 -2431 -2471 0
-2490 2432 2472 0
2490 -2431 -2472 0
-2491 2432 2473 0
2491 -2431 -2473 0
-2492 2432 2474 0
2492 -2431 -2474 0
-2493 2432 2475 0
2493 -2431 -2475 0
-2494 2432 2476 0
2494 -2431 -2476 0
-2495 2432 2477 0
2495 -2431 -2477 0
-2496 2432 2478 0
2496 -2431 -2478 0
-2497 2432 2479 0
2497 -2431 -2479 0
-2498 2432 2480 0
2498 -2431 -2480 0
2488 -2432 0
-2489 2433 2470 0
2489 -2432 -2470 0
-2490 2433 2471 0
2490 -2432 -2471 0
-2491 2433 2472 0
2491 -2432 -2472 0
-2492 2433 2473 0
2492 -2432 -2473 0
-2493 2433 2474 0
2493 -2432 -2474 0
-2494 2433 2475 0
2494 -2432 -2475 0
-2495 2433 2476 0
2495 -2432 -2476 0
-2496 2433 2477 0
2496 -2432 -2477 0
-2497 2433 2478 0
2497 -2432 -2478 0
-2498 2433 2479 0
2498 -2432 -2479 0
2489 -2433 0
-2490 2434 2470 0
2490 -2433 -2470 0
-2491 2434 2471 0
2491 -2433 -2471 0
-2492 2434 2472 0
2492 -2433 -2472 0
-2493 2434 2473 0
2493 -2433 -2473 0
-2494 2434 2474 0
2494 -2433 -2474 0
-2495 2434 2475 0
2495 -2433 -2475 0
-2496 2434 2476 0
2496 -2433 -2476 0
-2497 2434 2477 0
2497 -2433 -2477 0
-2498 2434 2478 0
2498 -2433 -2478 0
2490 -2434 0
-2491 2435 2470 0
2491 -2434 -2470 0
-2492 2435 2471 0
2492 -2434 -2471 0
-2493 2435 2472 0
2493 -2434 -2472 0
-2494 2435 2473 0
2494 -2434 -2473 0
-2495 2435 2474 0
2495 -2434 -2474 0
-2496 2435 2475 0
2496 -2434 -2475 0
-2497 2435 2476 0
2497 -2434 -2476 0
-2498 2435 2477 0
2498 -2434 -2477 0
2491 -2435 0
-2492 2436 2470 0
2492 -2435 -2470 0
-2493 2436 2471 0
2493 -2435 -2471 0
-2494 2436 2472 0
2494 -2435 -2472 0
-2495 2436 2473 0
2495 -2435 -2473 0
-2496 2436 2474 0
2496 -2435 -2474 0
-2497 2436 2475 0
2497 -2435 -2475 0
-2498 2436 2476 0
2498 -2435 -2476 0
2492 -2436 0
-2493 2437 2470 0
2493 -2436 -2470 0
-2494 2437 2471 0
2494 -2436 -2471 0
-2495 2437 2472 0
2495 -2436 -2472 0
-2496 2437 2473 0
2496 -2436 -2473 0
-2497 2437 2474 0
2497 -2436 -2474 0
-2498 2437 2475 0
2498 -2436 -2475 0
2493 -2437 0
-2494 2470 0
2494 -2437 -2470 0
-2495 2471 0
2495 -2437 -2471 0
-2496 2472 0
2496 -2437 -2472 0
-2497 2473 0
2497 -2437 -2473 0
-2498 2474 0
2498 -2437 -2474 0
-2499 122 123 0
2499 -123 0
-2500 122 0
2499 -122 0
-2500 123 0
2500 -122 -123 0
-2501 121 2499 0
2501 -2499 0
-2502 121 2500 0
2502 -2500 0
-2503 121 0
2501 -121 0
-2502 2499 0
2502 -121 -2499 0
-2503 2500 0
2503 -121 -2500 0
-2504 125 126 0
2504 -126 0
-2505 125 0
2504 -125 0
-2505 126 0
2505 -125 -126 0
-2506 124 2504 0
2506 -2504 0
-2507 124 2505 0
2507 -2505 0
-2508 124 0
2506 -124 0
-2507 2504 0
2507 -124 -2504 0
-2508 2505 0
2508 -124 -2505 0
-2509 2501 2506 0
2509 -2506 0
-2510 2501 2507 0
2510 -2507 0
-2511 2501 2508 0
2511 -2508 0
-2512 2501 0
2509 -2501 0
-2510 2502 2506 0
2510 -2501 -2506 0
-2511 2502 2507 0
2511 -2501 -2507 0
-2512 2502 2508 0
2512 -2501 -2508 0
-2513 2502 0
2510 -2502 0
-2511 2503 2506 0
2511 -2502 -2506 0
-2512 2503 2507 0
2512 -2502 -2507 0
-2513 2503 2508 0
2513 -2502 -2508 0
-2514 2503 0
2511 -2503 0
-2512 2506 0
2512 -2503 -2506 0
-2513 2507 0
2513 -2503 -2507 0
-2514 2508 0
2514 -2503 -2508 0
-2515 128 129 0
2515 -129 0
-2516 128 0
2515 -128 0
-2516 129 0
2516 -128 -129 0
-2517 127 2515 0
2517 -2515 0
-2518 127 2516 0
2518 -2516 0
-2519 127 0
2517 -127 0
-2518 2515 0
2518 -127 -2515 0
-2519 2516 0
2519 -127 -2516 0
-2520 131 132 0
2520 -132 0
-2521 131 0
2520 -131 0
-2521 132 0
2521 -131 -132 0
-2522 130 2520 0
2522 -2520 0
-2523 130 2521 0
2523 -2521 0
-2524 130 0
2522 -130 0
-2523 2520 0
2523 -130 -2520 0
-2524 2521 0
2524 -130 -2521 0
-2525 2517 2522 0
2525 -2522 0
-2526 2517 2523 0
2526 -2523 0
-2527 2517 2524 0
2527 -2524 0
-2528 2517 0
2525 -2517 0
-2526 2518 2522 0
2526 -2517 -2522 0
-2527 2518 2523 0
2527 -2517 -2523 0
-2528 2518 2524 0
2528 -2517 -2524 0
-2529 2518 0
2526 -2518 0
-2527 2519 2522 0
2527 -2518 -2522 0
-2528 2519 2523 0
2528 -2518 -2523 0
-2529 2519 2524 0
2529 -2518 -2524 0
-2530 2519 0
2527 -2519 0
-2528 2522 0
2528 -2519 -2522 0
-2529 2523 0
2529 -2519 -2523 0
-2530 2524 0
2530 -2519 -2524 0
-2531 2509 2525 0
2531 -2525 0
-2532 2509 2526 0
2532 -2526 0
-2533 2509 2527 0
2533 -2527 0
-2534 2509 2528 0
2534 -2528 0
-2535 2509 2529 0
2535 -2529 0
-2536 2509 2530 0
2536 -2530 0
-2537 2509 0
2531 -2509 0
-2532 2510 2525 0
2532 -2509 -2525 0
-2533 2510 2526 0
2533 -2509 -2526 0
-2534 2510 2527 0
2534 -2509 -2527 0
-2535 2510 2528 0
2535 -2509 -2528 0
-2536 2510 2529 0
2536 -2509 -2529 0
-2537 2510 2530 0
2537 -2509 -2530 0
-2538 2510 0
2532 -2510 0
-2533 2511 2525 0
2533 -2510 -2525 0
-2534 2511 2526 0
2534 -2510 -2526 0
-2535 2511 2527 0
2535 -2510 -2527 0
-2536 2511 2528 0
2536 -2510 -2528 0
-2537 2511 2529 0
2537 -2510 -2529 0
-2538 2511 2530 0
2538 -2510 -2530 0
-2539 2511 0
2533 -2511 0
-2534 2512 2525 0
2534 -2511 -2525 0
-2535 2512 2526 0
2535 -2511 -2526 0
-2536 2512 2527 0
2536 -2511 -2527 0
-2537 2512 2528 0
2537 -2511 -2528 0
-2538 2512 2529 0
2538 -2511 -2529 0
-2539 2512 2530 0
2539 -2511 -2530 0
-2540 2512 0
2534 -2512 0
-2535 2513 2525 0
2535 -2512 -2525 0
-2536 2513 2526 0
2536 -2512 -2526 0
-2537 2513 2527 0
2537 -2512 -2527 0
-2538 2513 2528 0
2538 -2512 -2528 0
-2539 2513 2529 0
2539 -2512 -2529 0
-2540 2513 2530 0
2540 -2512 -2530 0
-2541 2513 0
2535 -2513 0
-2536 2514 2525 0
2536 -2513 -2525 0
-2537 2514 2526 0
2537 -2513 -2526 0
-2538 2514 2527 0
2538 -2513 -2527 0
-2539 2514 2528 0
2539 -2513 -2528 0
-2540 2514 2529 0
2540 -2513 -2529 0
-2541 2514 2530 0
2541 -2513 -2530 0
-2542 2514 0
2536 -2514 0
-2537 2525 0
2537 -2514 -2525 0
-2538 2526 0
2538 -2514 -2526 0
-2539 2527 0
2539 -2514 -2527 0
-2540 2528 0
2540 -2514 -2528 0
-2541 2529 0
2541 -2514 -2529 0
-2542 2530 0
2542 -2514 -2530 0
-2543 266 267 0
2543 -267 0
-2544 266 0
2543 -266 0
-2544 267 0
2544 -266 -267 0
-2545 265 2543 0
2545 -2543 0
-2546 265 2544 0
2546 -2544 0
-2547 265 0
2545 -265 0
-2546 2543 0
2546 -265 -2543 0
-2547 2544 0
2547 -265 -2544 0
-2548 269 270 0
2548 -270 0
-2549 269 0
2548 -269 0
-2549 270 0
2549 -269 -270 0
-2550 268 2548 0
2550 -2548 0
-2551 268 2549 0
2551 -2549 0
-2552 268 0
2550 -268 0
-2551 2548 0
2551 -268 -2548 0
-2552 2549 0
2552 -268 -2549 0
-2553 2545 2550 0
2553 -2550 0
-2554 2545 2551 0
2554 -2551 0
-2555 2545 2552 0
2555 -2552 0
-2556 2545 0
2553 -2545 0
-2554 2546 2550 0
2554 -2545 -2550 0
-2555 2546 2551 0
2555 -2545 -2551 0
-2556 2546 2552 0
2556 -2545 -2552 0
-2557 2546 0
2554 -2546 0
-2555 2547 2550 0
2555 -2546 -2550 0
-2556 2547 2551 0
2556 -2546 -2551 0
-2557 2547 2552 0
2557 -2546 -2552 0
-2558 2547 0
2555 -2547 0
-2556 2550 0
2556 -2547 -2550 0
-2557 2551 0
2557 -2547 -2551 0
-2558 2552 0
2558 -2547 -2552 0
-2559 272 273 0
2559 -273 0
-2560 272 0
2559 -272 0
-2560 273 0
2560 -272 -273 0
-2561 271 2559 0
2561 -2559 0
-2562 271 2560 0
2562 -2560 0
-2563 271 0
2561 -271 0
-2562 2559 0
2562 -271 -2559 0
-2563 2560 0
2563 -271 -2560 0
-2564 275 276 0
2564 -276 0
-2565 275 0
2564 -275 0
-2565 276 0
2565 -275 -276 0
-2566 274 2564 0
2566 -2564 0
-2567 274 2565 0
2567 -2565 0
-2568 274 0
2566 -274 0
-2567 2564 0
2567 -274 -2564 0
-2568 2565 0
2568 -274 -2565 0
-2569 2561 2566 0
2569 -2566 0
-2570 2561 2567 0
2570 -2567 0
-2571 2561 2568 0
2571 -2568 0
-2572 2561 0
2569 -2561 0
-2570 2562 2566 0
2570 -2561 -2566 0
-2571 2562 2567 0
2571 -2561 -2567 0
-2572 2562 2568 0
2572 -2561 -2568 0
-2573 2562 0
2570 -2562 0
-2571 2563 2566 0
2571 -2562 -2566 0
-2572 2563 2567 0
2572 -2562 -2567 0
-2573 2563 2568 0
2573 -2562 -2568 0
-2574 2563 0
2571 -2563 0
-2572 2566 0
2572 -2563 -2566 0
-2573 2567 0
2573 -2563 -2567 0
-2574 2568 0
2574 -2563 -2568 0
-2575 2553 2569 0
2575 -2569 0
-2576 2553 2570 0
2576 -2570 0
-2577 2553 2571 0
2577 -2571 0
-2578 2553 2572 0
2578 -2572 0
-2579 2553 2573 0
2579 -2573 0
-2580 2553 2574 0
2580 -2574 0
-2581 2553 0
2575 -2553 0
-2576 2554 2569 0
2576 -2553 -2569 0
-2577 2554 2570 0
2577 -2553 -2570 0
-2578 2554 2571 0
2578 -2553 -2571 0
-2579 2554 2572 0
2579 -2553 -2572 0
-2580 2554 2573 0
2580 -2553 -2573 0
-2581 2554 2574 0
2581 -2553 -2574 0
-2582 2554 0
2576 -2554 0
-2577 2555 2569 0
2577 -2554 -2569 0
-2578 2555 2570 0
2578 -2554 -2570 0
-2579 2555 2571 0
2579 -2554 -2571 0
-2580 2555 2572 0
2580 -2554 -2572 0
-2581 2555 2573 0
2581 -2554 -2573 0
-2582 2555 2574 0
2582 -2554 -2574 0
-2583 2555 0
2577 -2555 0
-2578 2556 2569 0
2578 -2555 -2569 0
-2579 2556 2570 0
2579 -2555 -2570 0
-2580 2556 2571 0
2580 -2555 -2571 0
-2581 2556 2572 0
2581 -2555 -2572 0
-2582 2556 2573 0
2582 -2555 -2573 0
-2583 2556 2574 0
2583 -2555 -2574 0
-2584 2556 0
2578 -2556 0
-2579 2557 2569 0
2579 -2556 -2569 0
-2580 2557 2570 0
2580 -2556 -2570 0
-2581 2557 2571 0
2581 -2556 -2571 0
-2582 2557 2572 0
2582 -2556 -2572 0
-2583 2557 2573 0
2583 -2556 -2573 0
-2584 2557 2574 0
2584 -2556 -2574 0
-2585 2557 0
2579 -2557 0
-2580 2558 2569 0
2580 -2557 -2569 0
-2581 2558 2570 0
2581 -2557 -2570 0
-2582 2558 2571 0
2582 -2557 -2571 0
-2583 2558 2572 0
2583 -2557 -2572 0
-2584 2558 2573 0
2584 -2557 -2573 0
-2585 2558 2574 0
2585 -2557 -2574 0
-2586 2558 0
2580 -2558 0
-2581 2569 0
2581 -2558 -2569 0
-2582 2570 0
2582 -2558 -2570 0
-2583 2571 0
2583 -2558 -2571 0
-2584 2572 0
2584 -2558 -2572 0
-2585 2573 0
2585 -2558 -2573 0
-2586 2574 0
2586 -2558 -2574 0
-2587 2531 2575 0
2587 -2575 0
-2588 2531 2576 0
2588 -2576 0
-2589 2531 2577 0
2589 -2577 0
-2590 2531 2578 0
2590 -2578 0
-2591 2531 2579 0
2591 -2579 0
-2592 2531 2580 0
2592 -2580 0
-2593 2531 2581 0
2593 -2581 0
-2594 2531 2582 0
2594 -2582 0
-2595 2531 2583 0
2595 -2583 0
-2596 2531 2584 0
2596 -2584 0
-2597 2531 2585 0
2597 -2585 0
-2598 2531 2586 0
2598 -2586 0
-2599 2531 0
2587 -2531 0
-2588 2532 2575 0
2588 -2531 -2575 0
-2589 2532 2576 0
2589 -2531 -2576 0
-2590 2532 2577 0
2590 -2531 -2577 0
-2591 2532 2578 0
2591 -2531 -2578 0
-2592 2532 2579 0
2592 -2531 -2579 0
-2593 2532 2580 0
2593 -2531 -2580 0
-2594 2532 2581 0
2594 -2531 -2581 0
-2595 2532 2582 0
2595 -2531 -2582 0
-2596 2532 2583 0
2596 -2531 -2583 0
-2597 2532 2584 0
2597 -2531 -2584 0
-2598 2532 2585 0
2598 -2531 -2585 0
-2599 2532 2586 0
2599 -2531 -2586 0
-2600 2532 0
2588 -2532 0
-2589 2533 2575 0
2589 -2532 -2575 0
-2590 2533 2576 0
2590 -2532 -2576 0
-2591 2533 2577 0
2591 -2532 -2577 0
-2592 2533 2578 0
2592 -2532 -2578 0
-2593 2533 2579 0
2593 -2532 -2579 0
-2594 2533 2580 0
2594 -2532 -2580 0
-2595 2533 2581 0
2595 -2532 -2581 0
-2596 2533 2582 0
2596 -2532 -2582 0
-2597 2533 2583 0
2597 -2532 -2583 0
-2598 2533 2584 0
2598 -2532 -2584 0
-2599 2533 2585 0
2599 -2532 -2585 0
-2600 2533 2586 0
2600 -2532 -2586 0
-2601 2533 0
2589 -2533 0
-2590 2534 2575 0
2590 -2533 -2575 0
-2591 2534 2576 0
2591 -2533 -2576 0
-2592 2534 2577 0
2592 -2533 -2577 0
-2593 2534 2578 0
2593 -2533 -2578 0
-2594 2534 2579 0
2594 -2533 -2579 0
-2595 2534 2580 0
2595 -2533 -2580 0
-2596 2534 2581 0
2596 -2533 -2581 0
-2597 2534 2582 0
2597 -2533 -2582 0
-2598 2534 2583 0
2598 -2533 -2583 0
-2599 2534 2584 0
2599 -2533 -2584 0
-2600 2534 2585 0
2600 -2533 -2585 0
-2601 2534 2586 0
2601 -2533 -2586 0
-2602 2534 0
2590 -2534 0
-2591 2535 2575 0
2591 -2534 -2575 0
-2592 2535 2576 0
2592 -2534 -2576 0
-2593 2535 2577 0
2593 -2534 -2577 0
-2594 2535 2578 0
2594 -2534 -2578 0
-2595 2535 2579 0
2595 -2534 -2579 0
-2596 2535 2580 0
2596 -2534 -2580 0
-2597 2535 2581 0
2597 -2534 -2581 0
-2598 2535 2582 0
2598 -2534 -2582 0
-2599 2535 2583 0
2599 -2534 -2583 0
-2600 2535 2584 0
2600 -2534 -2584 0
-2601 2535 2585 0
2601 -2534 -2585 0
-2602 2535 2586 0
2602 -2534 -2586 0
-2603 2535 0
2591 -2535 0
-2592 2536 2575 0
2592 -2535 -2575 0
-2593 2536 2576 0
2593 -2535 -2576 0
-2594 2536 2577 0
2594 -2535 -2577 0
-2595 2536 2578 0
2595 -2535 -2578 0
-2596 2536 2579 0
2596 -2535 -2579 0
-2597 2536 2580 0
2597 -2535 -2580 0
-2598 2536 2581 0
2598 -2535 -2581 0
-2599 2536 2582 0
2599 -2535 -2582 0
-2600 2536 2583 0
2600 -2535 -2583 0
-2601 2536 2584 0
2601 -2535 -2584 0
-2602 2536 2585 0
2602 -2535 -2585 0
-2603 2536 2586 0
2603 -2535 -2586 0
2592 -2536 0
-2593 2537 2575 0
2593 -2536 -2575 0
-2594 2537 2576 0
2594 -2536 -2576 0
-2595 2537 2577 0
2595 -2536 -2577 0
-2596 2537 2578 0
2596 -2536 -2578 0
-2597 2537 2579 0
2597 -2536 -2579 0
-2598 2537 2580 0
2598 -2536 -2580 0
-2599 2537 2581 0
2599 -2536 -2581 0
-2600 2537 2582 0
2600 -2536 -2582 0
-2601 2537 2583 0
2601 -2536 -2583 0
-2602 2537 2584 0
2602 -2536 -2584 0
-2603 2537 2585 0
2603 -2536 -2585 0
2593 -2537 0
-2594 2538 2575 0
2594 -2537 -2575 0
-2595 2538 2576 0
2595 -2537 -2576 0
-2596 2538 2577 0
2596 -2537 -2577 0
-2597 2538 2578 0
2597 -2537 -2578 0
-2598 2538 2579 0
2598 -2537 -2579 0
-2599 2538 2580 0
2599 -2537 -2580 0
-2600 2538 2581 0
2600 -2537 -2581 0
-2601 2538 2582 0
2601 -2537 -2582 0
-2602 2538 2583 0
2602 -2537 -2583 0
-2603 2538 2584 0
2603 -2537 -2584 0
2594 -2538 0
-2595 2539 2575 0
2595 -2538 -2575 0
-2596 2539 2576 0
2596 -2538 -2576 0
-2597 2539 2577 0
2597 -2538 -2577 0
-2598 2539 2578 0
2598 -2538 -2578 0
-2599 2539 2579 0
2599 -2538 -2579 0
-2600 2539 2580 0
2600 -2538 -2580 0
-2601 2539 2581 0
2601 -2538 -2581 0
-2602 2539 2582 0
2602 -2538 -2582 0
-2603 2539 2583 0
2603 -2538 -2583 0
2595 -2539 0
-2596 2540 2575 0
2596 -2539 -2575 0
-2597 2540 2576 0
2597 -2539 -2576 0
-2598 2540 2577 0
2598 -2539 -2577 0
-2599 2540 2578 0
2599 -2539 -2578 0
-2600 2540 2579 0
2600 -2539 -2579 0
-2601 2540 2580 0
2601 -2539 -2580 0
-2602 2540 2581 0
2602 -2539 -2581 0
-2603 2540 2582 0
2603 -2539 -2582 0
2596 -2540 0
-2597 2541 2575 0
2597 -2540 -2575 0
-2598 2541 2576 0
2598 -2540 -2576 0
-2599 2541 2577 0
2599 -2540 -2577 0
-2600 2541 2578 0
2600 -2540 -2578 0
-2601 2541 2579 0
2601 -2540 -2579 0
-2602 2541 2580 0
2602 -2540 -2580 0
-2603 2541 2581 0
2603 -2540 -2581 0
2597 -2541 0
-2598 2542 2575 0
2598 -2541 -2575 0
-2599 2542 2576 0
2599 -2541 -2576 0
-2600 2542 2577 0
2600 -2541 -2577 0
-2601 2542 2578 0
2601 -2541 -2578 0
-2602 2542 2579 0
2602 -2541 -2579 0
-2603 2542 2580 0
2603 -2541 -2580 0
2598 -2542 0
-2599 2575 0
2599 -2542 -2575 0
-2600 2576 0
2600 -2542 -2576 0
-2601 2577 0
2601 -2542 -2577 0
-2602 2578 0
2602 -2542 -2578 0
-2603 2579 0
2603 -2542 -2579 0
-2604 134 135 0
2604 -135 0
-2605 134 0
2604 -134 0
-2605 135 0
2605 -134 -135 0
-2606 133 2604 0
2606 -2604 0
-2607 133 2605 0
2607 -2605 0
-2608 133 0
2606 -133 0
-2607 2604 0
2607 -133 -2604 0
-2608 2605 0
2608 -133 -2605 0
-2609 137 138 0
2609 -138 0
-2610 137 0
2609 -137 0
-2610 138 0
2610 -137 -138 0
-2611 136 2609 0
2611 -2609 0
-2612 136 2610 0
2612 -2610 0
-2613 136 0
2611 -136 0
-2612 2609 0
2612 -136 -2609 0
-2613 2610 0
2613 -136 -2610 0
-2614 2606 2611 0
2614 -2611 0
-2615 2606 2612 0
2615 -2612 0
-2616 2606 2613 0
2616 -2613 0
-2617 2606 0
2614 -2606 0
-2615 2607 2611 0
2615 -2606 -2611 0
-2616 2607 2612 0
2616 -2606 -2612 0
-2617 2607 2613 0
2617 -2606 -2613 0
-2618 2607 0
2615 -2607 0
-2616 2608 2611 0
2616 -2607 -2611 0
-2617 2608 2612 0
2617 -2607 -2612 0
-2618 2608 2613 0
2618 -2607 -2613 0
-2619 2608 0
2616 -2608 0
-2617 2611 0
2617 -2608 -2611 0
-2618 2612 0
2618 -2608 -2612 0
-2619 2613 0
2619 -2608 -2613 0
-2620 140 141 0
2620 -141 0
-2621 140 0
2620 -140 0
-2621 141 0
2621 -140 -141 0
-2622 139 2620 0
2622 -2620 0
-2623 139 2621 0
2623 -2621 0
-2624 139 0
2622 -139 0
-2623 2620 0
2623 -139 -2620 0
-2624 2621 0
2624 -139 -2621 0
-2625 143 144 0
2625 -144 0
-2626 143 0
2625 -143 0
-2626 144 0
2626 -143 -144 0
-2627 142 2625 0
2627 -2625 0
-2628 142 2626 0
2628 -2626 0
-2629 142 0
2627 -142 0
-2628 2625 0
2628 -142 -2625 0
-2629 2626 0
2629 -142 -2626 0
-2630 2622 2627 0
2630 -2627 0
-2631 2622 2628 0
2631 -2628 0
-2632 2622 2629 0
2632 -2629 0
-2633 2622 0
2630 -2622 0
-2631 2623 2627 0
2631 -2622 -2627 0
-2632 2623 2628 0
2632 -2622 -2628 0
-2633 2623 2629 0
2633 -2622 -2629 0
-2634 2623 0
2631 -2623 0
-2632 2624 2627 0
2632 -2623 -2627 0
-2633 2624 2628 0
2633 -2623 -2628 0
-2634 2624 2629 0
2634 -2623 -2629 0
-2635 2624 0
2632 -2624 0
-2633 2627 0
2633 -2624 -2627 0
-2634 2628 0
2634 -2624 -2628 0
-2635 2629 0
2635 -2624 -2629 0
-2636 2614 2630 0
2636 -2630 0
-2637 2614 2631 0
2637 -2631 0
-2638 2614 2632 0
2638 -2632 0
-2639 2614 2633 0
2639 -2633 0
-2640 2614 2634 0
2640 -2634 0
-2641 2614 2635 0
2641 -2635 0
-2642 2614 0
2636 -2614 0
-2637 2615 2630 0
2637 -2614 -2630 0
-2638 2615 2631 0
2638 -2614 -2631 0
-2639 2615 2632 0
2639 -2614 -2632 0
-2640 2615 2633 0
2640 -2614 -2633 0
-2641 2615 2634 0
2641 -2614 -2634 0
-2642 2615 2635 0
2642 -2614 -2635 0
-2643 2615 0
2637 -2615 0
-2638 2616 2630 0
2638 -2615 -2630 0
-2639 2616 2631 0
2639 -2615 -2631 0
-2640 2616 2632 0
2640 -2615 -2632 0
-2641 2616 2633 0
2641 -2615 -2633 0
-2642 2616 2634 0
2642 -2615 -2634 0
-2643 2616 2635 0
2643 -2615 -2635 0
-2644 2616 0
2638 -2616 0
-2639 2617 2630 0
2639 -2616 -2630 0
-2640 2617 2631 0
2640 -2616 -2631 0
-2641 2617 2632 0
2641 -2616 -2632 0
-2642 2617 2633 0
2642 -2616 -2633 0
-2643 2617 2634 0
2643 -2616 -2634 0
-2644 2617 2635 0
2644 -2616 -2635 0
-2645 2617 0
2639 -2617 0
-2640 2618 2630 0
2640 -2617 -2630 0
-2641 2618 2631 0
2641 -2617 -2631 0
-2642 2618 2632 0
2642 -2617 -2632 0
-2643 2618 2633 0
2643 -2617 -2633 0
-2644 2618 2634 0
2644 -2617 -2634 0
-2645 2618 2635 0
2645 -2617 -2635 0
-2646 2618 0
2640 -2618 0
-2641 2619 2630 0
2641 -2618 -2630 0
-2642 2619 2631 0
2642 -2618 -2631 0
-2643 2619 2632 0
2643 -2618 -2632 0
-2644 2619 2633 0
2644 -2618 -2633 0
-2645 2619 2634 0
2645 -2618 -2634 0
-2646 2619 2635 0
2646 -2618 -2635 0
-2647 2619 0
2641 -2619 0
-2642 2630 0
2642 -2619 -2630 0
-2643 2631 0
2643 -2619 -2631 0
-2644 2632 0
2644 -2619 -2632 0
-2645 2633 0
2645 -2619 -2633 0
-2646 2634 0
2646 -2619 -2634 0
-2647 2635 0
2647 -2619 -2635 0
-2648 278 279 0
2648 -279 0
-2649 278 0
2648 -278 0
-2649 279 0
2649 -278 -279 0
-2650 277 2648 0
2650 -2648 0
-2651 277 2649 0
2651 -2649 0
-2652 277 0
2650 -277 0
-2651 2648 0
2651 -277 -2648 0
-2652 2649 0
2652 -277 -2649 0
-2653 281 282 0
2653 -282 0
-2654 281 0
2653 -281 0
-2654 282 0
2654 -281 -282 0
-2655 280 2653 0
2655 -2653 0
-2656 280 2654 0
2656 -2654 0
-2657 280 0
2655 -280 0
-2656 2653 0
2656 -280 -2653 0
-2657 2654 0
2657 -280 -2654 0
-2658 2650 2655 0
2658 -2655 0
-2659 2650 2656 0
2659 -2656 0
-2660 2650 2657 0
2660 -2657 0
-2661 2650 0
2658 -2650 0
-2659 2651 2655 0
2659 -2650 -2655 0
-2660 2651 2656 0
2660 -2650 -2656 0
-2661 2651 2657 0
2661 -2650 -2657 0
-2662 2651 0
2659 -2651 0
-2660 2652 2655 0
2660 -2651 -2655 0
-2661 2652 2656 0
2661 -2651 -2656 0
-2662 2652 2657 0
2662 -2651 -2657 0
-2663 2652 0
2660 -2652 0
-2661 2655 0
2661 -2652 -2655 0
-2662 2656 0
2662 -2652 -2656 0
-2663 2657 0
2663 -2652 -2657 0
-2664 284 285 0
2664 -285 0
-2665 284 0
2664 -284 0
-2665 285 0
2665 -284 -285 0
-2666 283 2664 0
2666 -2664 0
-2667 283 2665 0
2667 -2665 0
-2668 283 0
2666 -283 0
-2667 2664 0
2667 -283 -2664 0
-2668 2665 0
2668 -283 -2665 0
-2669 287 288 0
2669 -288 0
-2670 287 0
2669 -287 0
-2670 288 0
2670 -287 -288 0
-2671 286 2669 0
2671 -2669 0
-2672 286 2670 0
2672 -2670 0
-2673 286 0
2671 -286 0
-2672 2669 0
2672 -286 -2669 0
-2673 2670 0
2673 -286 -2670 0
-2674 2666 2671 0
2674 -2671 0
-2675 2666 2672 0
2675 -2672 0
-2676 2666 2673 0
2676 -2673 0
-2677 2666 0
2674 -2666 0
-2675 2667 2671 0
2675 -2666 -2671 0
-2676 2667 2672 0
2676 -2666 -2672 0
-2677 2667 2673 0
2677 -2666 -2673 0
-2678 2667 0
2675 -2667 0
-2676 2668 2671 0
2676 -2667 -2671 0
-2677 2668 2672 0
2677 -2667 -2672 0
-2678 2668 2673 0
2678 -2667 -2673 0
-2679 2668 0
2676 -2668 0
-2677 2671 0
2677 -2668 -2671 0
-2678 2672 0
2678 -2668 -2672 0
-2679 2673 0
2679 -2668 -2673 0
-2680 2658 2674 0
2680 -2674 0
-2681 2658 2675 0
2681 -2675 0
-2682 2658 2676 0
2682 -2676 0
-2683 2658 2677 0
2683 -2677 0
-2684 2658 2678 0
2684 -2678 0
-2685 2658 2679 0
2685 -2679 0
-2686 2658 0
2680 -2658 0
-2681 2659 2674 0
2681 -2658 -2674 0
-2682 2659 2675 0
2682 -2658 -2675 0
-2683 2659 2676 0
2683 -2658 -2676 0
-2684 2659 2677 0
2684 -2658 -2677 0
-2685 2659 2678 0
2685 -2658 -2678 0
-2686 2659 2679 0
2686 -2658 -2679 0
-2687 2659 0
2681 -2659 0
-2682 2660 2674 0
2682 -2659 -2674 0
-2683 2660 2675 0
2683 -2659 -2675 0
-2684 2660 2676 0
2684 -2659 -2676 0
-2685 2660 2677 0
2685 -2659 -2677 0
-2686 2660 2678 0
2686 -2659 -2678 0
-2687 2660 2679 0
2687 -2659 -2679 0
-2688 2660 0
2682 -2660 0
-2683 2661 2674 0
2683 -2660 -2674 0
-2684 2661 2675 0
2684 -2660 -2675 0
-2685 2661 2676 0
2685 -2660 -2676 0
-2686 2661 2677 0
2686 -2660 -2677 0
-2687 2661 2678 0
2687 -2660 -2678 0
-2688 2661 2679 0
2688 -2660 -2679 0
-2689 2661 0
2683 -2661 0
-2684 2662 2674 0
2684 -2661 -2674 0
-2685 2662 2675 0
2685 -2661 -2675 0
-2686 2662 2676 0
2686 -2661 -2676 0
-2687 2662 2677 0
2687 -2661 -2677 0
-2688 2662 2678 0
2688 -2661 -2678 0
-2689 2662 2679 0
2689 -2661 -2679 0
-2690 2662 0
2684 -2662 0
-2685 2663 2674 0
2685 -2662 -2674 0
-2686 2663 2675 0
2686 -2662 -2675 0
-2687 2663 2676 0
2687 -2662 -2676 0
-2688 2663 2677 0
2688 -2662 -2677 0
-2689 2663 2678 0
2689 -2662 -2678 0
-2690 2663 2679 0
2690 -2662 -2679 0
-2691 2663 0
2685 -2663 0
-2686 2674 0
2686 -2663 -2674 0
-2687 2675 0
2687 -2663 -2675 0
-2688 2676 0
2688 -2663 -2676 0
-2689 2677 0
2689 -2663 -2677 0
-2690 2678 0
2690 -2663 -2678 0
-2691 2679 0
2691 -2663 -2679 0
-2692 2636 2680 0
2692 -2680 0
-2693 2636 2681 0
2693 -2681 0
-2694 2636 2682 0
2694 -2682 0
-2695 2636 2683 0
2695 -2683 0
-2696 2636 2684 0
2696 -2684 0
-2697 2636 2685 0
2697 -2685 0
-2698 2636 2686 0
2698 -2686 0
-2699 2636 2687 0
2699 -2687 0
-2700 2636 2688 0
2700 -2688 0
-2701 2636 2689 0
2701 -2689 0
-2702 2636 2690 0
2702 -2690 0
-2703 2636 2691 0
2703 -2691 0
-2704 2636 0
2692 -2636 0
-2693 2637 2680 0
2693 -2636 -2680 0
-2694 2637 2681 0
2694 -2636 -2681 0
-2695 2637 2682 0
2695 -2636 -2682 0
-2696 2637 2683 0
2696 -2636 -2683 0
-2697 2637 2684 0
2697 -2636 -2684 0
-2698 2637 2685 0
2698 -2636 -2685 0
-2699 2637 2686 0
2699 -2636 -2686 0
-2700 2637 2687 0
2700 -2636 -2687 0
-2701 2637 2688 0
2701 -2636 -2688 0
-2702 2637 2689 0
2702 -2636 -2689 0
-2703 2637 2690 0
2703 -2636 -2690 0
-2704 2637 2691 0
2704 -2636 -2691 0
-2705 2637 0
2693 -2637 0
-2694 2638 2680 0
2694 -2637 -2680 0
-2695 2638 2681 0
2695 -2637 -2681 0
-2696 2638 2682 0
2696 -2637 -2682 0
-2697 2638 2683 0
2697 -2637 -2683 0
-2698 2638 2684 0
2698 -2637 -2684 0
-2699 2638 2685 0
2699 -2637 -2685 0
-2700 2638 2686 0
2700 -2637 -2686 0
-2701 2638 2687 0
2701 -2637 -2687 0
-2702 2638 2688 0
2702 -2637 -2688 0
-2703 2638 2689 0
2703 -2637 -2689 0
-2704 2638 2690 0
2704 -2637 -2690 0
-2705 2638 2691 0
2705 -2637 -2691 0
-2706 2638 0
2694 -2638 0
-2695 2639 2680 0
2695 -2638 -2680 0
-2696 2639 2681 0
2696 -2638 -2681 0
-2697 2639 2682 0
2697 -2638 -2682 0
-2698 2639 2683 0
2698 -2638 -2683 0
-2699 2639 2684 0
2699 -2638 -2684 0
-2700 2639 2685 0
2700 -2638 -2685 0
-2701 2639 2686 0
2701 -2638 -2686 0
-2702 2639 2687 0
2702 -2638 -2687 0
-2703 2639 2688 0
2703 -2638 -2688 0
-2704 2639 2689 0
2704 -2638 -2689 0
-2705 2639 2690 0
2705 -2638 -2690 0
-2706 2639 2691 0
2706 -2638 -2691 0
-2707 2639 0
2695 -2639 0
-2696 2640 2680 0
2696 -2639 -2680 0
-2697 2640 2681 0
2697 -2639 -2681 0
-2698 2640 2682 0
2698 -2639 -2682 0
-2699 2640 2683 0
2699 -2639 -2683 0
-2700 2640 2684 0
2700 -2639 -2684 0
-2701 2640 2685 0
2701 -2639 -2685 0
-2702 2640 2686 0
2702 -2639 -2686 0
-2703 2640 2687 0
2703 -2639 -2687 0
-2704 2640 2688 0
2704 -2639 -2688 0
-2705 2640 2689 0
2705 -2639 -2689 0
-2706 2640 2690 0
2706 -2639 -2690 0
-2707 2640 2691 0
2707 -2639 -2691 0
-2708 2640 0
2696 -2640 0
-2697 2641 2680 0
2697 -2640 -2680 0
-2698 2641 2681 0
2698 -2640 -2681 0
-2699 2641 2682 0
2699 -2640 -2682 0
-2700 2641 2683 0
2700 -2640 -2683 0
-2701 2641 2684 0
2701 -2640 -2684 0
-2702 2641 2685 0
2702 -2640 -2685 0
-2703 2641 2686 0
2703 -2640 -2686 0
-2704 2641 2687 0
2704 -2640 -2687 0
-2705 2641 2688 0
2705 -2640 -2688 0
-2706 2641 2689 0
2706 -2640 -2689 0
-2707 2641 2690 0
2707 -2640 -2690 0
-2708 2641 2691 0
2708 -2640 -2691 0
2697 -2641 0
-2698 2642 2680 0
2698 -2641 -2680 0
-2699 2642 2681 0
2699 -2641 -2681 0
-2700 2642 2682 0
2700 -2641 -2682 0
-2701 2642 2683 0
2701 -2641 -2683 0
-2702 2642 2684 0
2702 -2641 -2684 0
-2703 2642 2685 0
2703 -2641 -2685 0
-2704 2642 2686 0
2704 -2641 -2686 0
-2705 2642 2687 0
2705 -2641 -2687 0
-2706 2642 2688 0
2706 -2641 -2688 0
-2707 2642 2689 0
2707 -2641 -2689 0
-2708 2642 2690 0
2708 -2641 -2690 0
2698 -2642 0
-2699 2643 2680 0
2699 -2642 -2680 0
-2700 2643 2681 0
2700 -2642 -2681 0
-2701 2643 2682 0
2701 -2642 -2682 0
-2702 2643 2683 0
2702 -2642 -2683 0
-2703 2643 2684 0
2703 -2642 -2684 0
-2704 2643 2685 0
2704 -2642 -2685 0
-2705 2643 2686 0
2705 -2642 -2686 0
-2706 2643 2687 0
2706 -2642 -2687 0
-2707 2643 2688 0
2707 -2642 -2688 0
-2708 2643 2689 0
2708 -2642 -2689 0
2699 -2643 0
-2700 2644 2680 0
2700 -2643 -2680 0
-2701 2644 2681 0
2701 -2643 -2681 0
-2702 2644 2682 0
2702 -2643 -2682 0
-2703 2644 2683 0
2703 -2643 -2683 0
-2704 2644 2684 0
2704 -2643 -2684 0
-2705 2644 2685 0
2705 -2643 -2685 0
-2706 2644 2686 0
2706 -2643 -2686 0
-2707 2644 2687 0
2707 -2643 -2687 0
-2708 2644 2688 0
2708 -2643 -2688 0
2700 -2644 0
-2701 2645 2680 0
2701 -2644 -2680 0
-2702 2645 2681 0
2702 -2644 -2681 0
-2703 2645 2682 0
2703 -2644 -2682 0
-2704 2645 2683 0
2704 -2644 -2683 0
-2705 2645 2684 0
2705 -2644 -2684 0
-2706 2645 2685 0
2706 -2644 -2685 0
-2707 2645 2686 0
2707 -2644 -2686 0
-2708 2645 2687 0
2708 -2644 -2687 0
2701 -2645 0
-2702 2646 2680 0
2702 -2645 -2680 0
-2703 2646 2681 0
2703 -2645 -2681 0
-2704 2646 2682 0
2704 -2645 -2682 0
-2705 2646 2683 0
2705 -2645 -2683 0
-2706 2646 2684 0
2706 -2645 -2684 0
-2707 2646 2685 0
2707 -2645 -2685 0
-2708 2646 2686 0
2708 -2645 -2686 0
2702 -2646 0
-2703 2647 2680 0
2703 -2646 -2680 0
-2704 2647 2681 0
2704 -2646 -2681 0
-2705 2647 2682 0
2705 -2646 -2682 0
-2706 2647 2683 0
2706 -2646 -2683 0
-2707 2647 2684 0
2707 -2646 -2684 0
-2708 2647 2685 0
2708 -2646 -2685 0
2703 -2647 0
-2704 2680 0
2704 -2647 -2680 0
-2705 2681 0
2705 -2647 -2681 0
-2706 2682 0
2706 -2647 -2682 0
-2707 2683 0
2707 -2647 -2683 0
-2708 2684 0
2708 -2647 -2684 0
-2709 1537 1642 0
2709 -1642 0
-2710 1537 1643 0
2710 -1643 0
-2711 1537 1644 0
2711 -1644 0
-2712 1537 1645 0
2712 -1645 0
-2713 1537 1646 0
2713 -1646 0
-2714 1537 1647 0
2714 -1647 0
-2715 1537 1648 0
2715 -1648 0
-2716 1537 1649 0
2716 -1649 0
-2717 1537 1650 0
2717 -1650 0
-2718 1537 1651 0
2718 -1651 0
-2719 1537 1652 0
2719 -1652 0
-2720 1537 1653 0
2720 -1653 0
-2721 1537 1654 0
2721 -1654 0
-2722 1537 1655 0
2722 -1655 0
-2723 1537 1656 0
2723 -1656 0
-2724 1537 1657 0
2724 -1657 0
-2725 1537 1658 0
2725 -1658 0
2709 -1537 0
-2710 1538 1642 0
2710 -1537 -1642 0
-2711 1538 1643 0
2711 -1537 -1643 0
-2712 1538 1644 0
2712 -1537 -1644 0
-2713 1538 1645 0
2713 -1537 -1645 0
-2714 1538 1646 0
2714 -1537 -1646 0
-2715 1538 1647 0
2715 -1537 -1647 0
-2716 1538 1648 0
2716 -1537 -1648 0
-2717 1538 1649 0
2717 -1537 -1649 0
-2718 1538 1650 0
2718 -1537 -1650 0
-2719 1538 1651 0
2719 -1537 -1651 0
-2720 1538 1652 0
2720 -1537 -1652 0
-2721 1538 1653 0
2721 -1537 -1653 0
-2722 1538 1654 0
2722 -1537 -1654 0
-2723 1538 1655 0
2723 -1537 -1655 0
-2724 1538 1656 0
2724 -1537 -1656 0
-2725 1538 1657 0
2725 -1537 -1657 0
2710 -1538 0
-2711 1539 1642 0
2711 -1538 -1642 0
-2712 1539 1643 0
2712 -1538 -1643 0
-2713 1539 1644 0
2713 -1538 -1644 0
-2714 1539 1645 0
2714 -1538 -1645 0
-2715 1539 1646 0
2715 -1538 -1646 0
-2716 1539 1647 0
2716 -1538 -1647 0
-2717 1539 1648 0
2717 -1538 -1648 0
-2718 1539 1649 0
2718 -1538 -1649 0
-2719 1539 1650 0
2719 -1538 -1650 0
-2720 1539 1651 0
2720 -1538 -1651 0
-2721 1539 1652 0
2721 -1538 -1652 0
-2722 1539 1653 0
2722 -1538 -1653 0
-2723 1539 1654 0
2723 -1538 -1654 0
-2724 1539 1655 0
2724 -1538 -1655 0
-2725 1539 1656 0
2725 -1538 -1656 0
2711 -1539 0
-2712 1540 1642 0
2712 -1539 -1642 0
-2713 1540 1643 0
2713 -1539 -1643 0
-2714 1540 1644 0
2714 -1539 -1644 0
-2715 1540 1645 0
2715 -1539 -1645 0
-2716 1540 1646 0
2716 -1539 -1646 0
-2717 1540 1647 0
2717 -1539 -1647 0
-2718 1540 1648 0
2718 -1539 -1648 0
-2719 1540 1649 0
2719 -1539 -1649 0
-2720 1540 1650 0
2720 -1539 -1650 0
-2721 1540 1651 0
2721 -1539 -1651 0
-2722 1540 1652 0
2722 -1539 -1652 0
-2723 1540 1653 0
2723 -1539 -1653 0
-2724 1540 1654 0
2724 -1539 -1654 0
-2725 1540 1655 0
2725 -1539 -1655 0
2712 -1540 0
-2713 1541 1642 0
2713 -1540 -1642 0
-2714 1541 1643 0
2714 -1540 -1643 0
-2715 1541 1644 0
2715 -1540 -1644 0
-2716 1541 1645 0
2716 -1540 -1645 0
-2717 1541 1646 0
2717 -1540 -1646 0
-2718 1541 1647 0
2718 -1540 -1647 0
-2719 1541 1648 0
2719 -1540 -1648 0
-2720 1541 1649 0
2720 -1540 -1649 0
-2721 1541 1650 0
2721 -1540 -1650 0
-2722 1541 1651 0
2722 -1540 -1651 0
-2723 1541 1652 0
2723 -1540 -1652 0
-2724 1541 1653 0
2724 -1540 -1653 0
-2725 1541 1654 0
2725 -1540 -1654 0
2713 -1541 0
-2714 1542 1642 0
2714 -1541 -1642 0
-2715 1542 1643 0
2715 -1541 -1643 0
-2716 1542 1644 0
2716 -1541 -1644 0
-2717 1542 1645 0
2717 -1541 -1645 0
-2718 1542 1646 0
2718 -1541 -1646 0
-2719 1542 1647 0
2719 -1541 -1647 0
-2720 1542 1648 0
2720 -1541 -1648 0
-2721 1542 1649 0
2721 -1541 -1649 0
-2722 1542 1650 0
2722 -1541 -1650 0
-2723 1542 1651 0
2723 -1541 -1651 0
-2724 1542 1652 0
2724 -1541 -1652 0
-2725 1542 1653 0
2725 -1541 -1653 0
2714 -1542 0
-2715 1543 1642 0
2715 -1542 -1642 0
-2716 1543 1643 0
2716 -1542 -1643 0
-2717 1543 1644 0
2717 -1542 -1644 0
-2718 1543 1645 0
2718 -1542 -1645 0
-2719 1543 1646 0
2719 -1542 -1646 0
-2720 1543 1647 0
2720 -1542 -1647 0
-2721 1543 1648 0
2721 -1542 -1648 0
-2722 1543 1649 0
2722 -1542 -1649 0
-2723 1543 1650 0
2723 -1542 -1650 0
-2724 1543 1651 0
2724 -1542 -1651 0
-2725 1543 1652 0
2725 -1542 -1652 0
2715 -1543 0
-2716 1544 1642 0
2716 -1543 -1642 0
-2717 1544 1643 0
2717 -1543 -1643 0
-2718 1544 1644 0
2718 -1543 -1644 0
-2719 1544 1645 0
2719 -1543 -1645 0
-2720 1544 1646 0
2720 -1543 -1646 0
-2721 1544 1647 0
2721 -1543 -1647 0
-2722 1544 1648 0
2722 -1543 -1648 0
-2723 1544 1649 0
2723 -1543 -1649 0
-2724 1544 1650 0
2724 -1543 -1650 0
-2725 1544 1651 0
2725 -1543 -1651 0
2716 -1544 0
-2717 1545 1642 0
2717 -1544 -1642 0
-2718 1545 1643 0
2718 -1544 -1643 0
-2719 1545 1644 0
2719 -1544 -1644 0
-2720 1545 1645 0
2720 -1544 -1645 0
-2721 1545 1646 0
2721 -1544 -1646 0
-2722 1545 1647 0
2722 -1544 -1647 0
-2723 1545 1648 0
2723 -1544 -1648 0
-2724 1545 1649 0
2724 -1544 -1649 0
-2725 1545 1650 0
2725 -1544 -1650 0
2717 -1545 0
-2718 1546 1642 0
2718 -1545 -1642 0
-2719 1546 1643 0
2719 -1545 -1643 0
-2720 1546 1644 0
2720 -1545 -1644 0
-2721 1546 1645 0
2721 -1545 -1645 0
-2722 1546 1646 0
2722 -1545 -1646 0
-2723 1546 1647 0
2723 -1545 -1647 0
-2724 1546 1648 0
2724 -1545 -1648 0
-2725 1546 1649 0
2725 -1545 -1649 0
2718 -1546 0
-2719 1547 1642 0
2719 -1546 -1642 0
-2720 1547 1643 0
2720 -1546 -1643 0
-2721 1547 1644 0
2721 -1546 -1644 0
-2722 1547 1645 0
2722 -1546 -1645 0
-2723 1547 1646 0
2723 -1546 -1646 0
-2724 1547 1647 0
2724 -1546 -1647 0
-2725 1547 1648 0
2725 -1546 -1648 0
2719 -1547 0
-2720 1548 1642 0
2720 -1547 -1642 0
-2721 1548 1643 0
2721 -1547 -1643 0
-2722 1548 1644 0
2722 -1547 -1644 0
-2723 1548 1645 0
2723 -1547 -1645 0
-2724 1548 1646 0
2724 -1547 -1646 0
-2725 1548 1647 0
2725 -1547 -1647 0
2720 -1548 0
-2721 1549 1642 0
2721 -1548 -1642 0
-2722 1549 1643 0
2722 -1548 -1643 0
-2723 1549 1644 0
2723 -1548 -1644 0
-2724 1549 1645 0
2724 -1548 -1645 0
-2725 1549 1646 0
2725 -1548 -1646 0
2721 -1549 0
-2722 1550 1642 0
2722 -1549 -1642 0
-2723 1550 1643 0
2723 -1549 -1643 0
-2724 1550 1644 0
2724 -1549 -1644 0
-2725 1550 1645 0
2725 -1549 -1645 0
2722 -1550 0
-2723 1551 1642 0
2723 -1550 -1642 0
-2724 1551 1643 0
2724 -1550 -1643 0
-2725 1551 1644 0
2725 -1550 -1644 0
2723 -1551 0
-2724 1552 1642 0
2724 -1551 -1642 0
-2725 1552 1643 0
2725 -1551 -1643 0
2724 -1552 0
-2725 1553 1642 0
2725 -1552 -1642 0
2725 -1553 0
-2726 1747 1852 0
2726 -1852 0
-2727 1747 1853 0
2727 -1853 0
-2728 1747 1854 0
2728 -1854 0
-2729 1747 1855 0
2729 -1855 0
-2730 1747 1856 0
2730 -1856 0
-2731 1747 1857 0
2731 -1857 0
-2732 1747 1858 0
2732 -1858 0
-2733 1747 1859 0
2733 -1859 0
-2734 1747 1860 0
2734 -1860 0
-2735 1747 1861 0
2735 -1861 0
-2736 1747 1862 0
2736 -1862 0
-2737 1747 1863 0
2737 -1863 0
-2738 1747 1864 0
2738 -1864 0
-2739 1747 1865 0
2739 -1865 0
-2740 1747 1866 0
2740 -1866 0
-2741 1747 1867 0
2741 -1867 0
-2742 1747 1868 0
2742 -1868 0
2726 -1747 0
-2727 1748 1852 0
2727 -1747 -1852 0
-2728 1748 1853 0
2728 -1747 -1853 0
-2729 1748 1854 0
2729 -1747 -1854 0
-2730 1748 1855 0
2730 -1747 -1855 0
-2731 1748 1856 0
2731 -1747 -1856 0
-2732 1748 1857 0
2732 -1747 -1857 0
-2733 1748 1858 0
2733 -1747 -1858 0
-2734 1748 1859 0
2734 -1747 -1859 0
-2735 1748 1860 0
2735 -1747 -1860 0
-2736 1748 1861 0
2736 -1747 -1861 0
-2737 1748 1862 0
2737 -1747 -1862 0
-2738 1748 1863 0
2738 -1747 -1863 0
-2739 1748 1864 0
2739 -1747 -1864 0
-2740 1748 1865 0
2740 -1747 -1865 0
-2741 1748 1866 0
2741 -1747 -1866 0
-2742 1748 1867 0
2742 -1747 -1867 0
2727 -1748 0
-2728 1749 1852 0
2728 -1748 -1852 0
-2729 1749 1853 0
2729 -1748 -1853 0
-2730 1749 1854 0
2730 -1748 -1854 0
-2731 1749 1855 0
2731 -1748 -1855 0
-2732 1749 1856 0
2732 -1748 -1856 0
-2733 1749 1857 0
2733 -1748 -1857 0
-2734 1749 1858 0
2734 -1748 -1858 0
-2735 1749 1859 0
2735 -1748 -1859 0
-2736 1749 1860 0
2736 -1748 -1860 0
-2737 1749 1861 0
2737 -1748 -1861 0
-2738 1749 1862 0
2738 -1748 -1862 0
-2739 1749 1863 0
2739 -1748 -1863 0
-2740 1749 1864 0
2740 -1748 -1864 0
-2741 1749 1865 0
2741 -1748 -1865 0
-2742 1749 1866 0
2742 -1748 -1866 0
2728 -1749 0
-2729 1750 1852 0
2729 -1749 -1852 0
-2730 1750 1853 0
2730 -1749 -1853 0
-2731 1750 1854 0
2731 -1749 -1854 0
-2732 1750 1855 0
2732 -1749 -1855 0
-2733 1750 1856 0
2733 -1749 -1856 0
-2734 1750 1857 0
2734 -1749 -1857 0
-2735 1750 1858 0
2735 -1749 -1858 0
-2736 1750 1859 0
2736 -1749 -1859 0
-2737 1750 1860 0
2737 -1749 -1860 0
-2738 1750 1861 0
2738 -1749 -1861 0
-2739 1750 1862 0
2739 -1749 -1862 0
-2740 1750 1863 0
2740 -1749 -1863 0
-2741 1750 1864 0
2741 -1749 -1864 0
-2742 1750 1865 0
2742 -1749 -1865 0
2729 -1750 0
-2730 1751 1852 0
2730 -1750 -1852 0
-2731 1751 1853 0
2731 -1750 -1853 0
-2732 1751 1854 0
2732 -1750 -1854 0
-2733 1751 1855 0
2733 -1750 -1855 0
-2734 1751 1856 0
2734 -1750 -1856 0
-2735 1751 1857 0
2735 -1750 -1857 0
-2736 1751 1858 0
2736 -1750 -1858 0
-2737 1751 1859 0
2737 -1750 -1859 0
-2738 1751 1860 0
2738 -1750 -1860 0
-2739 1751 1861 0
2739 -1750 -1861 0
-2740 1751 1862 0
2740 -1750 -1862 0
-2741 1751 1863 0
2741 -1750 -1863 0
-2742 1751 1864 0
2742 -1750 -1864 0
2730 -1751 0
-2731 1752 1852 0
2731 -1751 -1852 0
-2732 1752 1853 0
2732 -1751 -1853 0
-2733 1752 1854 0
2733 -1751 -1854 0
-2734 1752 1855 0
2734 -1751 -1855 0
-2735 1752 1856 0
2735 -1751 -1856 0
-2736 1752 1857 0
2736 -1751 -1857 0
-2737 1752 1858 0
2737 -1751 -1858 0
-2738 1752 1859 0
2738 -1751 -1859 0
-2739 1752 1860 0
2739 -1751 -1860 0
-2740 1752 1861 0
2740 -1751 -1861 0
-2741 1752 1862 0
2741 -1751 -1862 0
-2742 1752 1863 0
2742 -1751 -1863 0
2731 -1752 0
-2732 1753 1852 0
2732 -1752 -1852 0
-2733 1753 1853 0
2733 -1752 -1853 0
-2734 1753 1854 0
2734 -1752 -1854 0
-2735 1753 1855 0
2735 -1752 -1855 0
-2736 1753 1856 0
2736 -1752 -1856 0
-2737 1753 1857 0
2737 -1752 -1857 0
-2738 1753 1858 0
2738 -1752 -1858 0
-2739 1753 1859 0
2739 -1752 -1859 0
-2740 1753 1860 0
2740 -1752 -1860 0
-2741 1753 1861 0
2741 -1752 -1861 0
-2742 1753 1862 0
2742 -1752 -1862 0
2732 -1753 0
-2733 1754 1852 0
2733 -1753 -1852 0
-2734 1754 1853 0
2734 -1753 -1853 0
-2735 1754 1854 0
2735 -1753 -1854 0
-2736 1754 1855 0
2736 -1753 -1855 0
-2737 1754 1856 0
2737 -1753 -1856 0
-2738 1754 1857 0
2738 -1753 -1857 0
-2739 1754 1858 0
2739 -1753 -1858 0
-2740 1754 1859 0
2740 -1753 -1859 0
-2741 1754 1860 0
2741 -1753 -1860 0
-2742 1754 1861 0
2742 -1753 -1861 0
2733 -1754 0
-2734 1755 1852 0
2734 -1754 -1852 0
-2735 1755 1853 0
2735 -1754 -1853 0
-2736 1755 1854 0
2736 -1754 -1854 0
-2737 1755 1855 0
2737 -1754 -1855 0
-2738 1755 1856 0
2738 -1754 -1856 0
-2739 1755 1857 0
2739 -1754 -1857 0
-2740 1755 1858 0
2740 -1754 -1858 0
-2741 1755 1859 0
2741 -1754 -1859 0
-2742 1755 1860 0
2742 -1754 -1860 0
2734 -1755 0
-2735 1756 1852 0
2735 -1755 -1852 0
-2736 1756 1853 0
2736 -1755 -1853 0
-2737 1756 1854 0
2737 -1755 -1854 0
-2738 1756 1855 0
2738 -1755 -1855 0
-2739 1756 1856 0
2739 -1755 -1856 0
-2740 1756 1857 0
2740 -1755 -1857 0
-2741 1756 1858 0
2741 -1755 -1858 0
-2742 1756 1859 0
2742 -1755 -1859 0
2735 -1756 0
-2736 1757 1852 0
2736 -1756 -1852 0
-2737 1757 1853 0
2737 -1756 -1853 0
-2738 1757 1854 0
2738 -1756 -1854 0
-2739 1757 1855 0
2739 -1756 -1855 0
-2740 1757 1856 0
2740 -1756 -1856 0
-2741 1757 1857 0
2741 -1756 -1857 0
-2742 1757 1858 0
2742 -1756 -1858 0
2736 -1757 0
-2737 1758 1852 0
2737 -1757 -1852 0
-2738 1758 1853 0
2738 -1757 -1853 0
-2739 1758 1854 0
2739 -1757 -1854 0
-2740 1758 1855 0
2740 -1757 -1855 0
-2741 1758 1856 0
2741 -1757 -1856 0
-2742 1758 1857 0
2742 -1757 -1857 0
2737 -1758 0
-2738 1759 1852 0
2738 -1758 -1852 0
-2739 1759 1853 0
2739 -1758 -1853 0
-2740 1759 1854 0
2740 -1758 -1854 0
-2741 1759 1855 0
2741 -1758 -1855 0
-2742 1759 1856 0
2742 -1758 -1856 0
2738 -1759 0
-2739 1760 1852 0
2739 -1759 -1852 0
-2740 1760 1853 0
2740 -1759 -1853 0
-2741 1760 1854 0
2741 -1759 -1854 0
-2742 1760 1855 0
2742 -1759 -1855 0
2739 -1760 0
-2740 1761 1852 0
2740 -1760 -1852 0
-2741 1761 1853 0
2741 -1760 -1853 0
-2742 1761 1854 0
2742 -1760 -1854 0
2740 -1761 0
-2741 1762 1852 0
2741 -1761 -1852 0
-2742 1762 1853 0
2742 -1761 -1853 0
2741 -1762 0
-2742 1763 1852 0
2742 -1762 -1852 0
2742 -1763 0
-2743 1957 2062 0
2743 -2062 0
-2744 1957 2063 0
2744 -2063 0
-2745 1957 2064 0
2745 -2064 0
-2746 1957 2065 0
2746 -2065 0
-2747 1957 2066 0
2747 -2066 0
-2748 1957 2067 0
2748 -2067 0
-2749 1957 2068 0
2749 -2068 0
-2750 1957 2069 0
2750 -2069 0
-2751 1957 2070 0
2751 -2070 0
-2752 1957 2071 0
2752 -2071 0
-2753 1957 2072 0
2753 -2072 0
-2754 1957 2073 0
2754 -2073 0
-2755 1957 2074 0
2755 -2074 0
-2756 1957 2075 0
2756 -2075 0
-2757 1957 2076 0
2757 -2076 0
-2758 1957 2077 0
2758 -2077 0
-2759 1957 2078 0
2759 -2078 0
2743 -1957 0
-2744 1958 2062 0
2744 -1957 -2062 0
-2745 1958 2063 0
2745 -1957 -2063 0
-2746 1958 2064 0
2746 -1957 -2064 0
-2747 1958 2065 0
2747 -1957 -2065 0
-2748 1958 2066 0
2748 -1957 -2066 0
-2749 1958 2067 0
2749 -1957 -2067 0
-2750 1958 2068 0
2750 -1957 -2068 0
-2751 1958 2069 0
2751 -1957 -2069 0
-2752 1958 2070 0
2752 -1957 -2070 0
-2753 1958 2071 0
2753 -1957 -2071 0
-2754 1958 2072 0
2754 -1957 -2072 0
-2755 1958 2073 0
2755 -1957 -2073 0
-2756 1958 2074 0
2756 -1957 -2074 0
-2757 1958 2075 0
2757 -1957 -2075 0
-2758 1958 2076 0
2758 -1957 -2076 0
-2759 1958 2077 0
2759 -1957 -2077 0
2744 -1958 0
-2745 1959 2062 0
2745 -1958 -2062 0
-2746 1959 2063 0
2746 -1958 -2063 0
-2747 1959 2064 0
2747 -1958 -2064 0
-2748 1959 2065 0
2748 -1958 -2065 0
-2749 1959 2066 0
2749 -1958 -2066 0
-2750 1959 2067 0
2750 -1958 -2067 0
-2751 1959 2068 0
2751 -1958 -2068 0
-2752 1959 2069 0
2752 -1958 -2069 0
-2753 1959 2070 0
2753 -1958 -2070 0
-2754 1959 2071 0
2754 -1958 -2071 0
-2755 1959 2072 0
2755 -1958 -2072 0
-2756 1959 2073 0
2756 -1958 -2073 0
-2757 1959 2074 0
2757 -1958 -2074 0
-2758 1959 2075 0
2758 -1958 -2075 0
-2759 1959 2076 0
2759 -1958 -2076 0
2745 -1959 0
-2746 1960 2062 0
2746 -1959 -2062 0
-2747 1960 2063 0
2747 -1959 -2063 0
-2748 1960 2064 0
2748 -1959 -2064 0
-2749 1960 2065 0
2749 -1959 -2065 0
-2750 1960 2066 0
2750 -1959 -2066 0
-2751 1960 2067 0
2751 -1959 -2067 0
-2752 1960 2068 0
2752 -1959 -2068 0
-2753 1960 2069 0
2753 -1959 -2069 0
-2754 1960 2070 0
2754 -1959 -2070 0
-2755 1960 2071 0
2755 -1959 -2071 0
-2756 1960 2072 0
2756 -1959 -2072 0
-2757 1960 2073 0
2757 -1959 -2073 0
-2758 1960 2074 0
2758 -1959 -2074 0
-2759 1960 2075 0
2759 -1959 -2075 0
2746 -1960 0
-2747 1961 2062 0
2747 -1960 -2062 0
-2748 1961 2063 0
2748 -1960 -2063 0
-2749 1961 2064 0
2749 -1960 -2064 0
-2750 1961 2065 0
2750 -1960 -2065 0
-2751 1961 2066 0
2751 -1960 -2066 0
-2752 1961 2067 0
2752 -1960 -2067 0
-2753 1961 2068 0
2753 -1960 -2068 0
-2754 1961 2069 0
2754 -1960 -2069 0
-2755 1961 2070 0
2755 -1960 -2070 0
-2756 1961 2071 0
2756 -1960 -2071 0
-2757 1961 2072 0
2757 -1960 -2072 0
-2758 1961 2073 0
2758 -1960 -2073 0
-2759 1961 2074 0
2759 -1960 -2074 0
2747 -1961 0
-2748 1962 2062 0
2748 -1961 -2062 0
-2749 1962 2063 0
2749 -1961 -2063 0
-2750 1962 2064 0
2750 -1961 -2064 0
-2751 1962 2065 0
2751 -1961 -2065 0
-2752 1962 2066 0
2752 -1961 -2066 0
-2753 1962 2067 0
2753 -1961 -2067 0
-2754 1962 2068 0
2754 -1961 -2068 0
-2755 1962 2069 0
2755 -1961 -2069 0
-2756 1962 2070 0
2756 -1961 -2070 0
-2757 1962 2071 0
2757 -1961 -2071 0
-2758 1962 2072 0
2758 -1961 -2072 0
-2759 1962 2073 0
2759 -1961 -2073 0
2748 -1962 0
-2749 1963 2062 0
2749 -1962 -2062 0
-2750 1963 2063 0
2750 -1962 -2063 0
-2751 1963 2064 0
2751 -1962 -2064 0
-2752 1963 2065 0
2752 -1962 -2065 0
-2753 1963 2066 0
2753 -1962 -2066 0
-2754 1963 2067 0
2754 -1962 -2067 0
-2755 1963 2068 0
2755 -1962 -2068 0
-2756 1963 2069 0
2756 -1962 -2069 0
-2757 1963 2070 0
2757 -1962 -2070 0
-2758 1963 2071 0
2758 -1962 -2071 0
-2759 1963 2072 0
2759 -1962 -2072 0
2749 -1963 0
-2750 1964 2062 0
2750 -1963 -2062 0
-2751 1964 2063 0
2751 -1963 -2063 0
-2752 1964 2064 0
2752 -1963 -2064 0
-2753 1964 2065 0
2753 -1963 -2065 0
-2754 1964 2066 0
2754 -1963 -2066 0
-2755 1964 2067 0
2755 -1963 -2067 0
-2756 1964 2068 0
2756 -1963 -2068 0
-2757 1964 2069 0
2757 -1963 -2069 0
-2758 1964 2070 0
2758 -1963 -2070 0
-2759 1964 2071 0
2759 -1963 -2071 0
2750 -1964 0
-2751 1965 2062 0
2751 -1964 -2062 0
-2752 1965 2063 0
2752 -1964 -2063 0
-2753 1965 2064 0
2753 -1964 -2064 0
-2754 1965 2065 0
2754 -1964 -2065 0
-2755 1965 2066 0
2755 -1964 -2066 0
-2756 1965 2067 0
2756 -1964 -2067 0
-2757 1965 2068 0
2757 -1964 -2068 0
-2758 1965 2069 0
2758 -1964 -2069 0
-2759 1965 2070 0
2759 -1964 -2070 0
2751 -1965 0
-2752 1966 2062 0
2752 -1965 -2062 0
-2753 1966 2063 0
2753 -1965 -2063 0
-2754 1966 2064 0
2754 -1965 -2064 0
-2755 1966 2065 0
2755 -1965 -2065 0
-2756 1966 2066 0
2756 -1965 -2066 0
-2757 1966 2067 0
2757 -1965 -2067 0
-2758 1966 2068 0
2758 -1965 -2068 0
-2759 1966 2069 0
2759 -1965 -2069 0
2752 -1966 0
-2753 1967 2062 0
2753 -1966 -2062 0
-2754 1967 2063 0
2754 -1966 -2063 0
-2755 1967 2064 0
2755 -1966 -2064 0
-2756 1967 2065 0
2756 -1966 -2065 0
-2757 1967 2066 0
2757 -1966 -2066 0
-2758 1967 2067 0
2758 -1966 -2067 0
-2759 1967 2068 0
2759 -1966 -2068 0
2753 -1967 0
-2754 1968 2062 0
2754 -1967 -2062 0
-2755 1968 2063 0
2755 -1967 -2063 0
-2756 1968 2064 0
2756 -1967 -2064 0
-2757 1968 2065 0
2757 -1967 -2065 0
-2758 1968 2066 0
2758 -1967 -2066 0
-2759 1968 2067 0
2759 -1967 -2067 0
2754 -1968 0
-2755 1969 2062 0
2755 -1968 -2062 0
-2756 1969 2063 0
2756 -1968 -2063 0
-2757 1969 2064 0
2757 -1968 -2064 0
-2758 1969 2065 0
2758 -1968 -2065 0
-2759 1969 2066 0
2759 -1968 -2066 0
2755 -1969 0
-2756 1970 2062 0
2756 -1969 -2062 0
-2757 1970 2063 0
2757 -1969 -2063 0
-2758 1970 2064 0
2758 -1969 -2064 0
-2759 1970 2065 0
2759 -1969 -2065 0
2756 -1970 0
-2757 1971 2062 0
2757 -1970 -2062 0
-2758 1971 2063 0
2758 -1970 -2063 0
-2759 1971 2064 0
2759 -1970 -2064 0
2757 -1971 0
-2758 1972 2062 0
2758 -1971 -2062 0
-2759 1972 2063 0
2759 -1971 -2063 0
2758 -1972 0
-2759 1973 2062 0
2759 -1972 -2062 0
2759 -1973 0
-2760 2167 2272 0
2760 -2272 0
-2761 2167 2273 0
2761 -2273 0
-2762 2167 2274 0
2762 -2274 0
-2763 2167 2275 0
2763 -2275 0
-2764 2167 2276 0
2764 -2276 0
-2765 2167 2277 0
2765 -2277 0
-2766 2167 2278 0
2766 -2278 0
-2767 2167 2279 0
2767 -2279 0
-2768 2167 2280 0
2768 -2280 0
-2769 2167 2281 0
2769 -2281 0
-2770 2167 2282 0
2770 -2282 0
-2771 2167 2283 0
2771 -2283 0
-2772 2167 2284 0
2772 -2284 0
-2773 2167 2285 0
2773 -2285 0
-2774 2167 2286 0
2774 -2286 0
-2775 2167 2287 0
2775 -2287 0
-2776 2167 2288 0
2776 -2288 0
2760 -2167 0
-2761 2168 2272 0
2761 -2167 -2272 0
-2762 2168 2273 0
2762 -2167 -2273 0
-2763 2168 2274 0
2763 -2167 -2274 0
-2764 2168 2275 0
2764 -2167 -2275 0
-2765 2168 2276 0
2765 -2167 -2276 0
-2766 2168 2277 0
2766 -2167 -2277 0
-2767 2168 2278 0
2767 -2167 -2278 0
-2768 2168 2279 0
2768 -2167 -2279 0
-2769 2168 2280 0
2769 -2167 -2280 0
-2770 2168 2281 0
2770 -2167 -2281 0
-2771 2168 2282 0
2771 -2167 -2282 0
-2772 2168 2283 0
2772 -2167 -2283 0
-2773 2168 2284 0
2773 -2167 -2284 0
-2774 2168 2285 0
2774 -2167 -2285 0
-2775 2168 2286 0
2775 -2167 -2286 0
-2776 2168 2287 0
2776 -2167 -2287 0
2761 -2168 0
-2762 2169 2272 0
2762 -2168 -2272 0
-2763 2169 2273 0
2763 -2168 -2273 0
-2764 2169 2274 0
2764 -2168 -2274 0
-2765 2169 2275 0
2765 -2168 -2275 0
-2766 2169 2276 0
2766 -2168 -2276 0
-2767 2169 2277 0
2767 -2168 -2277 0
-2768 2169 2278 0
2768 -2168 -2278 0
-2769 2169 2279 0
2769 -2168 -2279 0
-2770 2169 2280 0
2770 -2168 -2280 0
-2771 2169 2281 0
2771 -2168 -2281 0
-2772 2169 2282 0
2772 -2168 -2282 0
-2773 2169 2283 0
2773 -2168 -2283 0
-2774 2169 2284 0
2774 -2168 -2284 0
-2775 2169 2285 0
2775 -2168 -2285 0
-2776 2169 2286 0
2776 -2168 -2286 0
2762 -2169 0
-2763 2170 2272 0
2763 -2169 -2272 0
-2764 2170 2273 0
2764 -2169 -2273 0
-2765 2170 2274 0
2765 -2169 -2274 0
-2766 2170 2275 0
2766 -2169 -2275 0
-2767 2170 2276 0
2767 -2169 -2276 0
-2768 2170 2277 0
2768 -2169 -2277 0
-2769 2170 2278 0
2769 -2169 -2278 0
-2770 2170 2279 0
2770 -2169 -2279 0
-2771 2170 2280 0
2771 -2169 -2280 0
-2772 2170 2281 0
2772 -2169 -2281 0
-2773 2170 2282 0
2773 -2169 -2282 0
-2774 2170 2283 0
2774 -2169 -2283 0
-2775 2170 2284 0
2775 -2169 -2284 0
-2776 2170 2285 0
2776 -2169 -2285 0
2763 -2170 0
-2764 2171 2272 0
2764 -2170 -2272 0
-2765 2171 2273 0
2765 -2170 -2273 0
-2766 2171 2274 0
2766 -2170 -2274 0
-2767 2171 2275 0
2767 -2170 -2275 0
-2768 2171 2276 0
2768 -2170 -2276 0
-2769 2171 2277 0
2769 -2170 -2277 0
-2770 2171 2278 0
2770 -2170 -2278 0
-2771 2171 2279 0
2771 -2170 -2279 0
-2772 2171 2280 0
2772 -2170 -2280 0
-2773 2171 2281 0
2773 -2170 -2281 0
-2774 2171 2282 0
2774 -2170 -2282 0
-2775 2171 2283 0
2775 -2170 -2283 0
-2776 2171 2284 0
2776 -2170 -2284 0
2764 -2171 0
-2765 2172 2272 0
2765 -2171 -2272 0
-2766 2172 2273 0
2766 -2171 -2273 0
-2767 2172 2274 0
2767 -2171 -2274 0
-2768 2172 2275 0
2768 -2171 -2275 0
-2769 2172 2276 0
2769 -2171 -2276 0
-2770 2172 2277 0
2770 -2171 -2277 0
-2771 2172 2278 0
2771 -2171 -2278 0
-2772 2172 2279 0
2772 -2171 -2279 0
-2773 2172 2280 0
2773 -2171 -2280 0
-2774 2172 2281 0
2774 -2171 -2281 0
-2775 2172 2282 0
2775 -2171 -2282 0
-2776 2172 2283 0
2776 -2171 -2283 0
2765 -2172 0
-2766 2173 2272 0
2766 -2172 -2272 0
-2767 2173 2273 0
2767 -2172 -2273 0
-2768 2173 2274 0
2768 -2172 -2274 0
-2769 2173 2275 0
2769 -2172 -2275 0
-2770 2173 2276 0
2770 -2172 -2276 0
-2771 2173 2277 0
2771 -2172 -2277 0
-2772 2173 2278 0
2772 -2172 -2278 0
-2773 2173 2279 0
2773 -2172 -2279 0
-2774 2173 2280 0
2774 -2172 -2280 0
-2775 2173 2281 0
2775 -2172 -2281 0
-2776 2173 2282 0
2776 -2172 -2282 0
2766 -2173 0
-2767 2174 2272 0
2767 -2173 -2272 0
-2768 2174 2273 0
2768 -2173 -2273 0
-2769 2174 2274 0
2769 -2173 -2274 0
-2770 2174 2275 0
2770 -2173 -2275 0
-2771 2174 2276 0
2771 -2173 -2276 0
-2772 2174 2277 0
2772 -2173 -2277 0
-2773 2174 2278 0
2773 -2173 -2278 0
-2774 2174 2279 0
2774 -2173 -2279 0
-2775 2174 2280 0
2775 -2173 -2280 0
-2776 2174 2281 0
2776 -2173 -2281 0
2767 -2174 0
-2768 2175 2272 0
2768 -2174 -2272 0
-2769 2175 2273 0
2769 -2174 -2273 0
-2770 2175 2274 0
2770 -2174 -2274 0
-2771 2175 2275 0
2771 -2174 -2275 0
-2772 2175 2276 0
2772 -2174 -2276 0
-2773 2175 2277 0
2773 -2174 -2277 0
-2774 2175 2278 0
2774 -2174 -2278 0
-2775 2175 2279 0
2775 -2174 -2279 0
-2776 2175 2280 0
2776 -2174 -2280 0
2768 -2175 0
-2769 2176 2272 0
2769 -2175 -2272 0
-2770 2176 2273 0
2770 -2175 -2273 0
-2771 2176 2274 0
2771 -2175 -2274 0
-2772 2176 2275 0
2772 -2175 -2275 0
-2773 2176 2276 0
2773 -2175 -2276 0
-2774 2176 2277 0
2774 -2175 -2277 0
-2775 2176 2278 0
2775 -2175 -2278 0
-2776 2176 2279 0
2776 -2175 -2279 0
2769 -2176 0
-2770 2177 2272 0
2770 -2176 -2272 0
-2771 2177 2273 0
2771 -2176 -2273 0
-2772 2177 2274 0
2772 -2176 -2274 0
-2773 2177 2275 0
2773 -2176 -2275 0
-2774 2177 2276 0
2774 -2176 -2276 0
-2775 2177 2277 0
2775 -2176 -2277 0
-2776 2177 2278 0
2776 -2176 -2278 0
2770 -2177 0
-2771 2178 2272 0
2771 -2177 -2272 0
-2772 2178 2273 0
2772 -2177 -2273 0
-2773 2178 2274 0
2773 -2177 -2274 0
-2774 2178 2275 0
2774 -2177 -2275 0
-2775 2178 2276 0
2775 -2177 -2276 0
-2776 2178 2277 0
2776 -2177 -2277 0
2771 -2178 0
-2772 2179 2272 0
2772 -2178 -2272 0
-2773 2179 2273 0
2773 -2178 -2273 0
-2774 2179 2274 0
2774 -2178 -2274 0
-2775 2179 2275 0
2775 -2178 -2275 0
-2776 2179 2276 0
2776 -2178 -2276 0
2772 -2179 0
-2773 2180 2272 0
2773 -2179 -2272 0
-2774 2180 2273 0
2774 -2179 -2273 0
-2775 2180 2274 0
2775 -2179 -2274 0
-2776 2180 2275 0
2776 -2179 -2275 0
2773 -2180 0
-2774 2181 2272 0
2774 -2180 -2272 0
-2775 2181 2273 0
2775 -2180 -2273 0
-2776 2181 2274 0
2776 -2180 -2274 0
2774 -2181 0
-2775 2182 2272 0
2775 -2181 -2272 0
-2776 2182 2273 0
2776 -2181 -2273 0
2775 -2182 0
-2776 2183 2272 0
2776 -2182 -2272 0
2776 -2183 0
-2777 2377 2482 0
2777 -2482 0
-2778 2377 2483 0
2778 -2483 0
-2779 2377 2484 0
2779 -2484 0
-2780 2377 2485 0
2780 -2485 0
-2781 2377 2486 0
2781 -2486 0
-2782 2377 2487 0
2782 -2487 0
-2783 2377 2488 0
2783 -2488 0
-2784 2377 2489 0
2784 -2489 0
-2785 2377 2490 0
2785 -2490 0
-2786 2377 2491 0
2786 -2491 0
-2787 2377 2492 0
2787 -2492 0
-2788 2377 2493 0
2788 -2493 0
-2789 2377 2494 0
2789 -2494 0
-2790 2377 2495 0
2790 -2495 0
-2791 2377 2496 0
2791 -2496 0
-2792 2377 2497 0
2792 -2497 0
-2793 2377 2498 0
2793 -2498 0
2777 -2377 0
-2778 2378 2482 0
2778 -2377 -2482 0
-2779 2378 2483 0
2779 -2377 -2483 0
-2780 2378 2484 0
2780 -2377 -2484 0
-2781 2378 2485 0
2781 -2377 -2485 0
-2782 2378 2486 0
2782 -2377 -2486 0
-2783 2378 2487 0
2783 -2377 -2487 0
-2784 2378 2488 0
2784 -2377 -2488 0
-2785 2378 2489 0
2785 -2377 -2489 0
-2786 2378 2490 0
2786 -2377 -2490 0
-2787 2378 2491 0
2787 -2377 -2491 0
-2788 2378 2492 0
2788 -2377 -2492 0
-2789 2378 2493 0
2789 -2377 -2493 0
-2790 2378 2494 0
2790 -2377 -2494 0
-2791 2378 2495 0
2791 -2377 -2495 0
-2792 2378 2496 0
2792 -2377 -2496 0
-2793 2378 2497 0
2793 -2377 -2497 0
2778 -2378 0
-2779 2379 2482 0
2779 -2378 -2482 0
-2780 2379 2483 0
2780 -2378 -2483 0
-2781 2379 2484 0
2781 -2378 -2484 0
-2782 2379 2485 0
2782 -2378 -2485 0
-2783 2379 2486 0
2783 -2378 -2486 0
-2784 2379 2487 0
2784 -2378 -2487 0
-2785 2379 2488 0
2785 -2378 -2488 0
-2786 2379 2489 0
2786 -2378 -2489 0
-2787 2379 2490 0
2787 -2378 -2490 0
-2788 2379 2491 0
2788 -2378 -2491 0
-2789 2379 2492 0
2789 -2378 -2492 0
-2790 2379 2493 0
2790 -2378 -2493 0
-2791 2379 2494 0
2791 -2378 -2494 0
-2792 2379 2495 0
2792 -2378 -2495 0
-2793 2379 2496 0
2793 -2378 -2496 0
2779 -2379 0
-2780 2380 2482 0
2780 -2379 -2482 0
-2781 2380 2483 0
2781 -2379 -2483 0
-2782 2380 2484 0
2782 -2379 -2484 0
-2783 2380 2485 0
2783 -2379 -2485 0
-2784 2380 2486 0
2784 -2379 -2486 0
-2785 2380 2487 0
2785 -2379 -2487 0
-2786 2380 2488 0
2786 -2379 -2488 0
-2787 2380 2489 0
2787 -2379 -2489 0
-2788 2380 2490 0
2788 -2379 -2490 0
-2789 2380 2491 0
2789 -2379 -2491 0
-2790 2380 2492 0
2790 -2379 -2492 0
-2791 2380 2493 0
2791 -2379 -2493 0
-2792 2380 2494 0
2792 -2379 -2494 0
-2793 2380 2495 0
2793 -2379 -2495 0
2780 -2380 0
-2781 2381 2482 0
2781 -2380 -2482 0
-2782 2381 2483 0
2782 -2380 -2483 0
-2783 2381 2484 0
2783 -2380 -2484 0
-2784 2381 2485 0
2784 -2380 -2485 0
-2785 2381 2486 0
2785 -2380 -2486 0
-2786 2381 2487 0
2786 -2380 -2487 0
-2787 2381 2488 0
2787 -2380 -2488 0
-2788 2381 2489 0
2788 -2380 -2489 0
-2789 2381 2490 0
2789 -2380 -2490 0
-2790 2381 2491 0
2790 -2380 -2491 0
-2791 2381 2492 0
2791 -2380 -2492 0
-2792 2381 2493 0
2792 -2380 -2493 0
-2793 2381 2494 0
2793 -2380 -2494 0
2781 -2381 0
-2782 2382 2482 0
2782 -2381 -2482 0
-2783 2382 2483 0
2783 -2381 -2483 0
-2784 2382 2484 0
2784 -2381 -2484 0
-2785 2382 2485 0
2785 -2381 -2485 0
-2786 2382 2486 0
2786 -2381 -2486 0
-2787 2382 2487 0
2787 -2381 -2487 0
-2788 2382 2488 0
2788 -2381 -2488 0
-2789 2382 2489 0
2789 -2381 -2489 0
-2790 2382 2490 0
2790 -2381 -2490 0
-2791 2382 2491 0
2791 -2381 -2491 0
-2792 2382 2492 0
2792 -2381 -2492 0
-2793 2382 2493 0
2793 -2381 -2493 0
2782 -2382 0
-2783 2383 2482 0
2783 -2382 -2482 0
-2784 2383 2483 0
2784 -2382 -2483 0
-2785 2383 2484 0
2785 -2382 -2484 0
-2786 2383 2485 0
2786 -2382 -2485 0
-2787 2383 2486 0
2787 -2382 -2486 0
-2788 2383 2487 0
2788 -2382 -2487 0
-2789 2383 2488 0
2789 -2382 -2488 0
-2790 2383 2489 0
2790 -2382 -2489 0
-2791 2383 2490 0
2791 -2382 -2490 0
-2792 2383 2491 0
2792 -2382 -2491 0
-2793 2383 2492 0
2793 -2382 -2492 0
2783 -2383 0
-2784 2384 2482 0
2784 -2383 -2482 0
-2785 2384 2483 0
2785 -2383 -2483 0
-2786 2384 2484 0
2786 -2383 -2484 0
-2787 2384 2485 0
2787 -2383 -2485 0
-2788 2384 2486 0
2788 -2383 -2486 0
-2789 2384 2487 0
2789 -2383 -2487 0
-2790 2384 2488 0
2790 -2383 -2488 0
-2791 2384 2489 0
2791 -2383 -2489 0
-2792 2384 2490 0
2792 -2383 -2490 0
-2793 2384 2491 0
2793 -2383 -2491 0
2784 -2384 0
-2785 2385 2482 0
2785 -2384 -2482 0
-2786 2385 2483 0
2786 -2384 -2483 0
-2787 2385 2484 0
2787 -2384 -2484 0
-2788 2385 2485 0
2788 -2384 -2485 0
-2789 2385 2486 0
2789 -2384 -2486 0
-2790 2385 2487 0
2790 -2384 -2487 0
-2791 2385 2488 0
2791 -2384 -2488 0
-2792 2385 2489 0
2792 -2384 -2489 0
-2793 2385 2490 0
2793 -2384 -2490 0
2785 -2385 0
-2786 2386 2482 0
2786 -2385 -2482 0
-2787 2386 2483 0
2787 -2385 -2483 0
-2788 2386 2484 0
2788 -2385 -2484 0
-2789 2386 2485 0
2789 -2385 -2485 0
-2790 2386 2486 0
2790 -2385 -2486 0
-2791 2386 2487 0
2791 -2385 -2487 0
-2792 2386 2488 0
2792 -2385 -2488 0
-2793 2386 2489 0
2793 -2385 -2489 0
2786 -2386 0
-2787 2387 2482 0
2787 -2386 -2482 0
-2788 2387 2483 0
2788 -2386 -2483 0
-2789 2387 2484 0
2789 -2386 -2484 0
-2790 2387 2485 0
2790 -2386 -2485 0
-2791 2387 2486 0
2791 -2386 -2486 0
-2792 2387 2487 0
2792 -2386 -2487 0
-2793 2387 2488 0
2793 -2386 -2488 0
2787 -2387 0
-2788 2388 2482 0
2788 -2387 -2482 0
-2789 2388 2483 0
2789 -2387 -2483 0
-2790 2388 2484 0
2790 -2387 -2484 0
-2791 2388 2485 0
2791 -2387 -2485 0
-2792 2388 2486 0
2792 -2387 -2486 0
-2793 2388 2487 0
2793 -2387 -2487 0
2788 -2388 0
-2789 2389 2482 0
2789 -2388 -2482 0
-2790 2389 2483 0
2790 -2388 -2483 0
-2791 2389 2484 0
2791 -2388 -2484 0
-2792 2389 2485 0
2792 -2388 -2485 0
-2793 2389 2486 0
2793 -2388 -2486 0
2789 -2389 0
-2790 2390 2482 0
2790 -2389 -2482 0
-2791 2390 2483 0
2791 -2389 -2483 0
-2792 2390 2484 0
2792 -2389 -2484 0
-2793 2390 2485 0
2793 -2389 -2485 0
2790 -2390 0
-2791 2391 2482 0
2791 -2390 -2482 0
-2792 2391 2483 0
2792 -2390 -2483 0
-2793 2391 2484 0
2793 -2390 -2484 0
2791 -2391 0
-2792 2392 2482 0
2792 -2391 -2482 0
-2793 2392 2483 0
2793 -2391 -2483 0
2792 -2392 0
-2793 2393 2482 0
2793 -2392 -2482 0
2793 -2393 0
-2794 2587 2692 0
2794 -2692 0
-2795 2587 2693 0
2795 -2693 0
-2796 2587 2694 0
2796 -2694 0
-2797 2587 2695 0
2797 -2695 0
-2798 2587 2696 0
2798 -2696 0
-2799 2587 2697 0
2799 -2697 0
-2800 2587 2698 0
2800 -2698 0
-2801 2587 2699 0
2801 -2699 0
-2802 2587 2700 0
2802 -2700 0
-2803 2587 2701 0
2803 -2701 0
-2804 2587 2702 0
2804 -2702 0
-2805 2587 2703 0
2805 -2703 0
-2806 2587 2704 0
2806 -2704 0
-2807 2587 2705 0
2807 -2705 0
-2808 2587 2706 0
2808 -2706 0
-2809 2587 2707 0
2809 -2707 0
-2810 2587 2708 0
2810 -2708 0
2794 -2587 0
-2795 2588 2692 0
2795 -2587 -2692 0
-2796 2588 2693 0
2796 -2587 -2693 0
-2797 2588 2694 0
2797 -2587 -2694 0
-2798 2588 2695 0
2798 -2587 -2695 0
-2799 2588 2696 0
2799 -2587 -2696 0
-2800 2588 2697 0
2800 -2587 -2697 0
-2801 2588 2698 0
2801 -2587 -2698 0
-2802 2588 2699 0
2802 -2587 -2699 0
-2803 2588 2700 0
2803 -2587 -2700 0
-2804 2588 2701 0
2804 -2587 -2701 0
-2805 2588 2702 0
2805 -2587 -2702 0
-2806 2588 2703 0
2806 -2587 -2703 0
-2807 2588 2704 0
2807 -2587 -2704 0
-2808 2588 2705 0
2808 -2587 -2705 0
-2809 2588 2706 0
2809 -2587 -2706 0
-2810 2588 2707 0
2810 -2587 -2707 0
2795 -2588 0
-2796 2589 2692 0
2796 -2588 -2692 0
-2797 2589 2693 0
2797 -2588 -2693 0
-2798 2589 2694 0
2798 -2588 -2694 0
-2799 2589 2695 0
2799 -2588 -2695 0
-2800 2589 2696 0
2800 -2588 -2696 0
-2801 2589 2697 0
2801 -2588 -2697 0
-2802 2589 2698 0
2802 -2588 -2698 0
-2803 2589 2699 0
2803 -2588 -2699 0
-2804 2589 2700 0
2804 -2588 -2700 0
-2805 2589 2701 0
2805 -2588 -2701 0
-2806 2589 2702 0
2806 -2588 -2702 0
-2807 2589 2703 0
2807 -2588 -2703 0
-2808 2589 2704 0
2808 -2588 -2704 0
-2809 2589 2705 0
2809 -2588 -2705 0
-2810 2589 2706 0
2810 -2588 -2706 0
2796 -2589 0
-2797 2590 2692 0
2797 -2589 -2692 0
-2798 2590 2693 0
2798 -2589 -2693 0
-2799 2590 2694 0
2799 -2589 -2694 0
-2800 2590 2695 0
2800 -2589 -2695 0
-2801 2590 2696 0
2801 -2589 -2696 0
-2802 2590 2697 0
2802 -2589 -2697 0
-2803 2590 2698 0
2803 -2589 -2698 0
-2804 2590 2699 0
2804 -2589 -2699 0
-2805 2590 2700 0
2805 -2589 -2700 0
-2806 2590 2701 0
2806 -2589 -2701 0
-2807 2590 2702 0
2807 -2589 -2702 0
-2808 2590 2703 0
2808 -2589 -2703 0
-2809 2590 2704 0
2809 -2589 -2704 0
-2810 2590 2705 0
2810 -2589 -2705 0
2797 -2590 0
-2798 2591 2692 0
2798 -2590 -2692 0
-2799 2591 2693 0
2799 -2590 -2693 0
-2800 2591 2694 0
2800 -2590 -2694 0
-2801 2591 2695 0
2801 -2590 -2695 0
-2802 2591 2696 0
2802 -2590 -2696 0
-2803 2591 2697 0
2803 -2590 -2697 0
-2804 2591 2698 0
2804 -2590 -2698 0
-2805 2591 2699 0
2805 -2590 -2699 0
-2806 2591 2700 0
2806 -2590 -2700 0
-2807 2591 2701 0
2807 -2590 -2701 0
-2808 2591 2702 0
2808 -2590 -2702 0
-2809 2591 2703 0
2809 -2590 -2703 0
-2810 2591 2704 0
2810 -2590 -2704 0
2798 -2591 0
-2799 2592 2692 0
2799 -2591 -2692 0
-2800 2592 2693 0
2800 -2591 -2693 0
-2801 2592 2694 0
2801 -2591 -2694 0
-2802 2592 2695 0
2802 -2591 -2695 0
-2803 2592 2696 0
2803 -2591 -2696 0
-2804 2592 2697 0
2804 -2591 -2697 0
-2805 2592 2698 0
2805 -2591 -2698 0
-2806 2592 2699 0
2806 -2591 -2699 0
-2807 2592 2700 0
2807 -2591 -2700 0
-2808 2592 2701 0
2808 -2591 -2701 0
-2809 2592 2702 0
2809 -2591 -2702 0
-2810 2592 2703 0
2810 -2591 -2703 0
2799 -2592 0
-2800 2593 2692 0
2800 -2592 -2692 0
-2801 2593 2693 0
2801 -2592 -2693 0
-2802 2593 2694 0
2802 -2592 -2694 0
-2803 2593 2695 0
2803 -2592 -2695 0
-2804 2593 2696 0
2804 -2592 -2696 0
-2805 2593 2697 0
2805 -2592 -2697 0
-2806 2593 2698 0
2806 -2592 -2698 0
-2807 2593 2699 0
2807 -2592 -2699 0
-2808 2593 2700 0
2808 -2592 -2700 0
-2809 2593 2701 0
2809 -2592 -2701 0
-2810 2593 2702 0
2810 -2592 -2702 0
2800 -2593 0
-2801 2594 2692 0
2801 -2593 -2692 0
-2802 2594 2693 0
2802 -2593 -2693 0
-2803 2594 2694 0
2803 -2593 -2694 0
-2804 2594 2695 0
2804 -2593 -2695 0
-2805 2594 2696 0
2805 -2593 -2696 0
-2806 2594 2697 0
2806 -2593 -2697 0
-2807 2594 2698 0
2807 -2593 -2698 0
-2808 2594 2699 0
2808 -2593 -2699 0
-2809 2594 2700 0
2809 -2593 -2700 0
-2810 2594 2701 0
2810 -2593 -2701 0
2801 -2594 0
-2802 2595 2692 0
2802 -2594 -2692 0
-2803 2595 2693 0
2803 -2594 -2693 0
-2804 2595 2694 0
2804 -2594 -2694 0
-2805 2595 2695 0
2805 -2594 -2695 0
-2806 2595 2696 0
2806 -2594 -2696 0
-2807 2595 2697 0
2807 -2594 -2697 0
-2808 2595 2698 0
2808 -2594 -2698 0
-2809 2595 2699 0
2809 -2594 -2699 0
-2810 2595 2700 0
2810 -2594 -2700 0
2802 -2595 0
-2803 2596 2692 0
2803 -2595 -2692 0
-2804 2596 2693 0
2804 -2595 -2693 0
-2805 2596 2694 0
2805 -2595 -2694 0
-2806 2596 2695 0
2806 -2595 -2695 0
-2807 2596 2696 0
2807 -2595 -2696 0
-2808 2596 2697 0
2808 -2595 -2697 0
-2809 2596 2698 0
2809 -2595 -2698 0
-2810 2596 2699 0
2810 -2595 -2699 0
2803 -2596 0
-2804 2597 2692 0
2804 -2596 -2692 0
-2805 2597 2693 0
2805 -2596 -2693 0
-2806 2597 2694 0
2806 -2596 -2694 0
-2807 2597 2695 0
2807 -2596 -2695 0
-2808 2597 2696 0
2808 -2596 -2696 0
-2809 2597 2697 0
2809 -2596 -2697 0
-2810 2597 2698 0
2810 -2596 -2698 0
2804 -2597 0
-2805 2598 2692 0
2805 -2597 -2692 0
-2806 2598 2693 0
2806 -2597 -2693 0
-2807 2598 2694 0
2807 -2597 -2694 0
-2808 2598 2695 0
2808 -2597 -2695 0
-2809 2598 2696 0
2809 -2597 -2696 0
-2810 2598 2697 0
2810 -2597 -2697 0
2805 -2598 0
-2806 2599 2692 0
2806 -2598 -2692 0
-2807 2599 2693 0
2807 -2598 -2693 0
-2808 2599 2694 0
2808 -2598 -2694 0
-2809 2599 2695 0
2809 -2598 -2695 0
-2810 2599 2696 0
2810 -2598 -2696 0
2806 -2599 0
-2807 2600 2692 0
2807 -2599 -2692 0
-2808 2600 2693 0
2808 -2599 -2693 0
-2809 2600 2694 0
2809 -2599 -2694 0
-2810 2600 2695 0
2810 -2599 -2695 0
2807 -2600 0
-2808 2601 2692 0
2808 -2600 -2692 0
-2809 2601 2693 0
2809 -2600 -2693 0
-2810 2601 2694 0
2810 -2600 -2694 0
2808 -2601 0
-2809 2602 2692 0
2809 -2601 -2692 0
-2810 2602 2693 0
2810 -2601 -2693 0
2809 -2602 0
-2810 2603 2692 0
2810 -2602 -2692 0
2810 -2603 0
-2811 2709 2726 0
2811 -2726 0
-2812 2709 2727 0
2812 -2727 0
-2813 2709 2728 0
2813 -2728 0
-2814 2709 2729 0
2814 -2729 0
-2815 2709 2730 0
2815 -2730 0
-2816 2709 2731 0
2816 -2731 0
-2817 2709 2732 0
2817 -2732 0
-2818 2709 2733 0
2818 -2733 0
-2819 2709 2734 0
2819 -2734 0
-2820 2709 2735 0
2820 -2735 0
-2821 2709 2736 0
2821 -2736 0
-2822 2709 2737 0
2822 -2737 0
-2823 2709 2738 0
2823 -2738 0
-2824 2709 2739 0
2824 -2739 0
-2825 2709 2740 0
2825 -2740 0
-2826 2709 2741 0
2826 -2741 0
-2827 2709 2742 0
2827 -2742 0
2811 -2709 0
-2812 2710 2726 0
2812 -2709 -2726 0
-2813 2710 2727 0
2813 -2709 -2727 0
-2814 2710 2728 0
2814 -2709 -2728 0
-2815 2710 2729 0
2815 -2709 -2729 0
-2816 2710 2730 0
2816 -2709 -2730 0
-2817 2710 2731 0
2817 -2709 -2731 0
-2818 2710 2732 0
2818 -2709 -2732 0
-2819 2710 2733 0
2819 -2709 -2733 0
-2820 2710 2734 0
2820 -2709 -2734 0
-2821 2710 2735 0
2821 -2709 -2735 0
-2822 2710 2736 0
2822 -2709 -2736 0
-2823 2710 2737 0
2823 -2709 -2737 0
-2824 2710 2738 0
2824 -2709 -2738 0
-2825 2710 2739 0
2825 -2709 -2739 0
-2826 2710 2740 0
2826 -2709 -2740 0
-2827 2710 2741 0
2827 -2709 -2741 0
2812 -2710 0
-2813 2711 2726 0
2813 -2710 -2726 0
-2814 2711 2727 0
2814 -2710 -2727 0
-2815 2711 2728 0
2815 -2710 -2728 0
-2816 2711 2729 0
2816 -2710 -2729 0
-2817 2711 2730 0
2817 -2710 -2730 0
-2818 2711 2731 0
2818 -2710 -2731 0
-2819 2711 2732 0
2819 -2710 -2732 0
-2820 2711 2733 0
2820 -2710 -2733 0
-2821 2711 2734 0
2821 -2710 -2734 0
-2822 2711 2735 0
2822 -2710 -2735 0
-2823 2711 2736 0
2823 -2710 -2736 0
-2824 2711 2737 0
2824 -2710 -2737 0
-2825 2711 2738 0
2825 -2710 -2738 0
-2826 2711 2739 0
2826 -2710 -2739 0
-2827 2711 2740 0
2827 -2710 -2740 0
2813 -2711 0
-2814 2712 2726 0
2814 -2711 -2726 0
-2815 2712 2727 0
2815 -2711 -2727 0
-2816 2712 2728 0
2816 -2711 -2728 0
-2817 2712 2729 0
2817 -2711 -2729 0
-2818 2712 2730 0
2818 -2711 -2730 0
-2819 2712 2731 0
2819 -2711 -2731 0
-2820 2712 2732 0
2820 -2711 -2732 0
-2821 2712 2733 0
2821 -2711 -2733 0
-2822 2712 2734 0
2822 -2711 -2734 0
-2823 2712 2735 0
2823 -2711 -2735 0
-2824 2712 2736 0
2824 -2711 -2736 0
-2825 2712 2737 0
2825 -2711 -2737 0
-2826 2712 2738 0
2826 -2711 -2738 0
-2827 2712 2739 0
2827 -2711 -2739 0
2814 -2712 0
-2815 2713 2726 0
2815 -2712 -2726 0
-2816 2713 2727 0
2816 -2712 -2727 0
-2817 2713 2728 0
2817 -2712 -2728 0
-2818 2713 2729 0
2818 -2712 -2729 0
-2819 2713 2730 0
2819 -2712 -2730 0
-2820 2713 2731 0
2820 -2712 -2731 0
-2821 2713 2732 0
2821 -2712 -2732 0
-2822 2713 2733 0
2822 -2712 -2733 0
-2823 2713 2734 0
2823 -2712 -2734 0
-2824 2713 2735 0
2824 -2712 -2735 0
-2825 2713 2736 0
2825 -2712 -2736 0
-2826 2713 2737 0
2826 -2712 -2737 0
-2827 2713 2738 0
2827 -2712 -2738 0
2815 -2713 0
-2816 2714 2726 0
2816 -2713 -2726 0
-2817 2714 2727 0
2817 -2713 -2727 0
-2818 2714 2728 0
2818 -2713 -2728 0
-2819 2714 2729 0
2819 -2713 -2729 0
-2820 2714 2730 0
2820 -2713 -2730 0
-2821 2714 2731 0
2821 -2713 -2731 0
-2822 2714 2732 0
2822 -2713 -2732 0
-2823 2714 2733 0
2823 -2713 -2733 0
-2824 2714 2734 0
2824 -2713 -2734 0
-2825 2714 2735 0
2825 -2713 -2735 0
-2826 2714 2736 0
2826 -2713 -2736 0
-2827 2714 2737 0
2827 -2713 -2737 0
2816 -2714 0
-2817 2715 2726 0
2817 -2714 -2726 0
-2818 2715 2727 0
2818 -2714 -2727 0
-2819 2715 2728 0
2819 -2714 -2728 0
-2820 2715 2729 0
2820 -2714 -2729 0
-2821 2715 2730 0
2821 -2714 -2730 0
-2822 2715 2731 0
2822 -2714 -2731 0
-2823 2715 2732 0
2823 -2714 -2732 0
-2824 2715 2733 0
2824 -2714 -2733 0
-2825 2715 2734 0
2825 -2714 -2734 0
-2826 2715 2735 0
2826 -2714 -2735 0
-2827 2715 2736 0
2827 -2714 -2736 0
2817 -2715 0
-2818 2716 2726 0
2818 -2715 -2726 0
-2819 2716 2727 0
2819 -2715 -2727 0
-2820 2716 2728 0
2820 -2715 -2728 0
-2821 2716 2729 0
2821 -2715 -2729 0
-2822 2716 2730 0
2822 -2715 -2730 0
-2823 2716 2731 0
2823 -2715 -2731 0
-2824 2716 2732 0
2824 -2715 -2732 0
-2825 2716 2733 0
2825 -2715 -2733 0
-2826 2716 2734 0
2826 -2715 -2734 0
-2827 2716 2735 0
2827 -2715 -2735 0
2818 -2716 0
-2819 2717 2726 0
2819 -2716 -2726 0
-2820 2717 2727 0
2820 -2716 -2727 0
-2821 2717 2728 0
2821 -2716 -2728 0
-2822 2717 2729 0
2822 -2716 -2729 0
-2823 2717 2730 0
2823 -2716 -2730 0
-2824 2717 2731 0
2824 -2716 -2731 0
-2825 2717 2732 0
2825 -2716 -2732 0
-2826 2717 2733 0
2826 -2716 -2733 0
-2827 2717 2734 0
2827 -2716 -2734 0
2819 -2717 0
-2820 2718 2726 0
2820 -2717 -2726 0
-2821 2718 2727 0
2821 -2717 -2727 0
-2822 2718 2728 0
2822 -2717 -2728 0
-2823 2718 2729 0
2823 -2717 -2729 0
-2824 2718 2730 0
2824 -2717 -2730 0
-2825 2718 2731 0
2825 -2717 -2731 0
-2826 2718 2732 0
2826 -2717 -2732 0
-2827 2718 2733 0
2827 -2717 -2733 0
2820 -2718 0
-2821 2719 2726 0
2821 -2718 -2726 0
-2822 2719 2727 0
2822 -2718 -2727 0
-2823 2719 2728 0
2823 -2718 -2728 0
-2824 2719 2729 0
2824 -2718 -2729 0
-2825 2719 2730 0
2825 -2718 -2730 0
-2826 2719 2731 0
2826 -2718 -2731 0
-2827 2719 2732 0
2827 -2718 -2732 0
2821 -2719 0
-2822 2720 2726 0
2822 -2719 -2726 0
-2823 2720 2727 0
2823 -2719 -2727 0
-2824 2720 2728 0
2824 -2719 -2728 0
-2825 2720 2729 0
2825 -2719 -2729 0
-2826 2720 2730 0
2826 -2719 -2730 0
-2827 2720 2731 0
2827 -2719 -2731 0
2822 -2720 0
-2823 2721 2726 0
2823 -2720 -2726 0
-2824 2721 2727 0
2824 -2720 -2727 0
-2825 2721 2728 0
2825 -2720 -2728 0
-2826 2721 2729 0
2826 -2720 -2729 0
-2827 2721 2730 0
2827 -2720 -2730 0
2823 -2721 0
-2824 2722 2726 0
2824 -2721 -2726 0
-2825 2722 2727 0
2825 -2721 -2727 0
-2826 2722 2728 0
2826 -2721 -2728 0
-2827 2722 2729 0
2827 -2721 -2729 0
2824 -2722 0
-2825 2723 2726 0
2825 -2722 -2726 0
-2826 2723 2727 0
2826 -2722 -2727 0
-2827 2723 2728 0
2827 -2722 -2728 0
2825 -2723 0
-2826 2724 2726 0
2826 -2723 -2726 0
-2827 2724 2727 0
2827 -2723 -2727 0
2826 -2724 0
-2827 2725 2726 0
2827 -2724 -2726 0
2827 -2725 0
-2828 2743 2760 0
2828 -2760 0
-2829 2743 2761 0
2829 -2761 0
-2830 2743 2762 0
2830 -2762 0
-2831 2743 2763 0
2831 -2763 0
-2832 2743 2764 0
2832 -2764 0
-2833 2743 2765 0
2833 -2765 0
-2834 2743 2766 0
2834 -2766 0
-2835 2743 2767 0
2835 -2767 0
-2836 2743 2768 0
2836 -2768 0
-2837 2743 2769 0
2837 -2769 0
-2838 2743 2770 0
2838 -2770 0
-2839 2743 2771 0
2839 -2771 0
-2840 2743 2772 0
2840 -2772 0
-2841 2743 2773 0
2841 -2773 0
-2842 2743 2774 0
2842 -2774 0
-2843 2743 2775 0
2843 -2775 0
-2844 2743 2776 0
2844 -2776 0
2828 -2743 0
-2829 2744 2760 0
2829 -2743 -2760 0
-2830 2744 2761 0
2830 -2743 -2761 0
-2831 2744 2762 0
2831 -2743 -2762 0
-2832 2744 2763 0
2832 -2743 -2763 0
-2833 2744 2764 0
2833 -2743 -2764 0
-2834 2744 2765 0
2834 -2743 -2765 0
-2835 2744 2766 0
2835 -2743 -2766 0
-2836 2744 2767 0
2836 -2743 -2767 0
-2837 2744 2768 0
2837 -2743 -2768 0
-2838 2744 2769 0
2838 -2743 -2769 0
-2839 2744 2770 0
2839 -2743 -2770 0
-2840 2744 2771 0
2840 -2743 -2771 0
-2841 2744 2772 0
2841 -2743 -2772 0
-2842 2744 2773 0
2842 -2743 -2773 0
-2843 2744 2774 0
2843 -2743 -2774 0
-2844 2744 2775 0
2844 -2743 -2775 0
2829 -2744 0
-2830 2745 2760 0
2830 -2744 -2760 0
-2831 2745 2761 0
2831 -2744 -2761 0
-2832 2745 2762 0
2832 -2744 -2762 0
-2833 2745 2763 0
2833 -2744 -2763 0
-2834 2745 2764 0
2834 -2744 -2764 0
-2835 2745 2765 0
2835 -2744 -2765 0
-2836 2745 2766 0
2836 -2744 -2766 0
-2837 2745 2767 0
2837 -2744 -2767 0
-2838 2745 2768 0
2838 -2744 -2768 0
-2839 2745 2769 0
2839 -2744 -2769 0
-2840 2745 2770 0
2840 -2744 -2770 0
-2841 2745 2771 0
2841 -2744 -2771 0
-2842 2745 2772 0
2842 -2744 -2772 0
-2843 2745 2773 0
2843 -2744 -2773 0
-2844 2745 2774 0
2844 -2744 -2774 0
2830 -2745 0
-2831 2746 2760 0
2831 -2745 -2760 0
-2832 2746 2761 0
2832 -2745 -2761 0
-2833 2746 2762 0
2833 -2745 -2762 0
-2834 2746 2763 0
2834 -2745 -2763 0
-2835 2746 2764 0
2835 -2745 -2764 0
-2836 2746 2765 0
2836 -2745 -2765 0
-2837 2746 2766 0
2837 -2745 -2766 0
-2838 2746 2767 0
2838 -2745 -2767 0
-2839 2746 2768 0
2839 -2745 -2768 0
-2840 2746 2769 0
2840 -2745 -2769 0
-2841 2746 2770 0
2841 -2745 -2770 0
-2842 2746 2771 0
2842 -2745 -2771 0
-2843 2746 2772 0
2843 -2745 -2772 0
-2844 2746 2773 0
2844 -2745 -2773 0
2831 -2746 0
-2832 2747 2760 0
2832 -2746 -2760 0
-2833 2747 2761 0
2833 -2746 -2761 0
-2834 2747 2762 0
2834 -2746 -2762 0
-2835 2747 2763 0
2835 -2746 -2763 0
-2836 2747 2764 0
2836 -2746 -2764 0
-2837 2747 2765 0
2837 -2746 -2765 0
-2838 2747 2766 0
2838 -2746 -2766 0
-2839 2747 2767 0
2839 -2746 -2767 0
-2840 2747 2768 0
2840 -2746 -2768 0
-2841 2747 2769 0
2841 -2746 -2769 0
-2842 2747 2770 0
2842 -2746 -2770 0
-2843 2747 2771 0
2843 -2746 -2771 0
-2844 2747 2772 0
2844 -2746 -2772 0
2832 -2747 0
-2833 2748 2760 0
2833 -2747 -2760 0
-2834 2748 2761 0
2834 -2747 -2761 0
-2835 2748 2762 0
2835 -2747 -2762 0
-2836 2748 2763 0
2836 -2747 -2763 0
-2837 2748 2764 0
2837 -2747 -2764 0
-2838 2748 2765 0
2838 -2747 -2765 0
-2839 2748 2766 0
2839 -2747 -2766 0
-2840 2748 2767 0
2840 -2747 -2767 0
-2841 2748 2768 0
2841 -2747 -2768 0
-2842 2748 2769 0
2842 -2747 -2769 0
-2843 2748 2770 0
2843 -2747 -2770 0
-2844 2748 2771 0
2844 -2747 -2771 0
2833 -2748 0
-2834 2749 2760 0
2834 -2748 -2760 0
-2835 2749 2761 0
2835 -2748 -2761 0
-2836 2749 2762 0
2836 -2748 -2762 0
-2837 2749 2763 0
2837 -2748 -2763 0
-2838 2749 2764 0
2838 -2748 -2764 0
-2839 2749 2765 0
2839 -2748 -2765 0
-2840 2749 2766 0
2840 -2748 -2766 0
-2841 2749 2767 0
2841 -2748 -2767 0
-2842 2749 2768 0
2842 -2748 -2768 0
-2843 2749 2769 0
2843 -2748 -2769 0
-2844 2749 2770 0
2844 -2748 -2770 0
2834 -2749 0
-2835 2750 2760 0
2835 -2749 -2760 0
-2836 2750 2761 0
2836 -2749 -2761 0
-2837 2750 2762 0
2837 -2749 -2762 0
-2838 2750 2763 0
2838 -2749 -2763 0
-2839 2750 2764 0
2839 -2749 -2764 0
-2840 2750 2765 0
2840 -2749 -2765 0
-2841 2750 2766 0
2841 -2749 -2766 0
-2842 2750 2767 0
2842 -2749 -2767 0
-2843 2750 2768 0
2843 -2749 -2768 0
-2844 2750 2769 0
2844 -2749 -2769 0
2835 -2750 0
-2836 2751 2760 0
2836 -2750 -2760 0
-2837 2751 2761 0
2837 -2750 -2761 0
-2838 2751 2762 0
2838 -2750 -2762 0
-2839 2751 2763 0
2839 -2750 -2763 0
-2840 2751 2764 0
2840 -2750 -2764 0
-2841 2751 2765 0
2841 -2750 -2765 0
-2842 2751 2766 0
2842 -2750 -2766 0
-2843 2751 2767 0
2843 -2750 -2767 0
-2844 2751 2768 0
2844 -2750 -2768 0
2836 -2751 0
-2837 2752 2760 0
2837 -2751 -2760 0
-2838 2752 2761 0
2838 -2751 -2761 0
-2839 2752 2762 0
2839 -2751 -2762 0
-2840 2752 2763 0
2840 -2751 -2763 0
-2841 2752 2764 0
2841 -2751 -2764 0
-2842 2752 2765 0
2842 -2751 -2765 0
-2843 2752 2766 0
2843 -2751 -2766 0
-2844 2752 2767 0
2844 -2751 -2767 0
2837 -2752 0
-2838 2753 2760 0
2838 -2752 -2760 0
-2839 2753 2761 0
2839 -2752 -2761 0
-2840 2753 2762 0
2840 -2752 -2762 0
-2841 2753 2763 0
2841 -2752 -2763 0
-2842 2753 2764 0
2842 -2752 -2764 0
-2843 2753 2765 0
2843 -2752 -2765 0
-2844 2753 2766 0
2844 -2752 -2766 0
2838 -2753 0
-2839 2754 2760 0
2839 -2753 -2760 0
-2840 2754 2761 0
2840 -2753 -2761 0
-2841 2754 2762 0
2841 -2753 -2762 0
-2842 2754 2763 0
2842 -2753 -2763 0
-2843 2754 2764 0
2843 -2753 -2764 0
-2844 2754 2765 0
2844 -2753 -2765 0
2839 -2754 0
-2840 2755 2760 0
2840 -2754 -2760 0
-2841 2755 2761 0
2841 -2754 -2761 0
-2842 2755 2762 0
2842 -2754 -2762 0
-2843 2755 2763 0
2843 -2754 -2763 0
-2844 2755 2764 0
2844 -2754 -2764 0
2840 -2755 0
-2841 2756 2760 0
2841 -2755 -2760 0
-2842 2756 2761 0
2842 -2755 -2761 0
-2843 2756 2762 0
2843 -2755 -2762 0
-2844 2756 2763 0
2844 -2755 -2763 0
2841 -2756 0
-2842 2757 2760 0
2842 -2756 -2760 0
-2843 2757 2761 0
2843 -2756 -2761 0
-2844 2757 2762 0
2844 -2756 -2762 0
2842 -2757 0
-2843 2758 2760 0
2843 -2757 -2760 0
-2844 2758 2761 0
2844 -2757 -2761 0
2843 -2758 0
-2844 2759 2760 0
2844 -2758 -2760 0
2844 -2759 0
-2845 2777 2794 0
2845 -2794 0
-2846 2777 2795 0
2846 -2795 0
-2847 2777 2796 0
2847 -2796 0
-2848 2777 2797 0
2848 -2797 0
-2849 2777 2798 0
2849 -2798 0
-2850 2777 2799 0
2850 -2799 0
-2851 2777 2800 0
2851 -2800 0
-2852 2777 2801 0
2852 -2801 0
-2853 2777 2802 0
2853 -2802 0
-2854 2777 2803 0
2854 -2803 0
-2855 2777 2804 0
2855 -2804 0
-2856 2777 2805 0
2856 -2805 0
-2857 2777 2806 0
2857 -2806 0
-2858 2777 2807 0
2858 -2807 0
-2859 2777 2808 0
2859 -2808 0
-2860 2777 2809 0
2860 -2809 0
-2861 2777 2810 0
2861 -2810 0
2845 -2777 0
-2846 2778 2794 0
2846 -2777 -2794 0
-2847 2778 2795 0
2847 -2777 -2795 0
-2848 2778 2796 0
2848 -2777 -2796 0
-2849 2778 2797 0
2849 -2777 -2797 0
-2850 2778 2798 0
2850 -2777 -2798 0
-2851 2778 2799 0
2851 -2777 -2799 0
-2852 2778 2800 0
2852 -2777 -2800 0
-2853 2778 2801 0
2853 -2777 -2801 0
-2854 2778 2802 0
2854 -2777 -2802 0
-2855 2778 2803 0
2855 -2777 -2803 0
-2856 2778 2804 0
2856 -2777 -2804 0
-2857 2778 2805 0
2857 -2777 -2805 0
-2858 2778 2806 0
2858 -2777 -2806 0
-2859 2778 2807 0
2859 -2777 -2807 0
-2860 2778 2808 0
2860 -2777 -2808 0
-2861 2778 2809 0
2861 -2777 -2809 0
2846 -2778 0
-2847 2779 2794 0
2847 -2778 -2794 0
-2848 2779 2795 0
2848 -2778 -2795 0
-2849 2779 2796 0
2849 -2778 -2796 0
-2850 2779 2797 0
2850 -2778 -2797 0
-2851 2779 2798 0
2851 -2778 -2798 0
-2852 2779 2799 0
2852 -2778 -2799 0
-2853 2779 2800 0
2853 -2778 -2800 0
-2854 2779 2801 0
2854 -2778 -2801 0
-2855 2779 2802 0
2855 -2778 -2802 0
-2856 2779 2803 0
2856 -2778 -2803 0
-2857 2779 2804 0
2857 -2778 -2804 0
-2858 2779 2805 0
2858 -2778 -2805 0
-2859 2779 2806 0
2859 -2778 -2806 0
-2860 2779 2807 0
2860 -2778 -2807 0
-2861 2779 2808 0
2861 -2778 -2808 0
2847 -2779 0
-2848 2780 2794 0
2848 -2779 -2794 0
-2849 2780 2795 0
2849 -2779 -2795 0
-2850 2780 2796 0
2850 -2779 -2796 0
-2851 2780 2797 0
2851 -2779 -2797 0
-2852 2780 2798 0
2852 -2779 -2798 0
-2853 2780 2799 0
2853 -2779 -2799 0
-2854 2780 2800 0
2854 -2779 -2800 0
-2855 2780 2801 0
2855 -2779 -2801 0
-2856 2780 2802 0
2856 -2779 -2802 0
-2857 2780 2803 0
2857 -2779 -2803 0
-2858 2780 2804 0
2858 -2779 -2804 0
-2859 2780 2805 0
2859 -2779 -2805 0
-2860 2780 2806 0
2860 -2779 -2806 0
-2861 2780 2807 0
2861 -2779 -2807 0
2848 -2780 0
-2849 2781 2794 0
2849 -2780 -2794 0
-2850 2781 2795 0
2850 -2780 -2795 0
-2851 2781 2796 0
2851 -2780 -2796 0
-2852 2781 2797 0
2852 -2780 -2797 0
-2853 2781 2798 0
2853 -2780 -2798 0
-2854 2781 2799 0
2854 -2780 -2799 0
-2855 2781 2800 0
2855 -2780 -2800 0
-2856 2781 2801 0
2856 -2780 -2801 0
-2857 2781 2802 0
2857 -2780 -2802 0
-2858 2781 2803 0
2858 -2780 -2803 0
-2859 2781 2804 0
2859 -2780 -2804 0
-2860 2781 2805 0
2860 -2780 -2805 0
-2861 2781 2806 0
2861 -2780 -2806 0
2849 -2781 0
-2850 2782 2794 0
2850 -2781 -2794 0
-2851 2782 2795 0
2851 -2781 -2795 0
-2852 2782 2796 0
2852 -2781 -2796 0
-2853 2782 2797 0
2853 -2781 -2797 0
-2854 2782 2798 0
2854 -2781 -2798 0
-2855 2782 2799 0
2855 -2781 -2799 0
-2856 2782 2800 0
2856 -2781 -2800 0
-2857 2782 2801 0
2857 -2781 -2801 0
-2858 2782 2802 0
2858 -2781 -2802 0
-2859 2782 2803 0
2859 -2781 -2803 0
-2860 2782 2804 0
2860 -2781 -2804 0
-2861 2782 2805 0
2861 -2781 -2805 0
2850 -2782 0
-2851 2783 2794 0
2851 -2782 -2794 0
-2852 2783 2795 0
2852 -2782 -2795 0
-2853 2783 2796 0
2853 -2782 -2796 0
-2854 2783 2797 0
2854 -2782 -2797 0
-2855 2783 2798 0
2855 -2782 -2798 0
-2856 2783 2799 0
2856 -2782 -2799 0
-2857 2783 2800 0
2857 -2782 -2800 0
-2858 2783 2801 0
2858 -2782 -2801 0
-2859 2783 2802 0
2859 -2782 -2802 0
-2860 2783 2803 0
2860 -2782 -2803 0
-2861 2783 2804 0
2861 -2782 -2804 0
2851 -2783 0
-2852 2784 2794 0
2852 -2783 -2794 0
-2853 2784 2795 0
2853 -2783 -2795 0
-2854 2784 2796 0
2854 -2783 -2796 0
-2855 2784 2797 0
2855 -2783 -2797 0
-2856 2784 2798 0
2856 -2783 -2798 0
-2857 2784 2799 0
2857 -2783 -2799 0
-2858 2784 2800 0
2858 -2783 -2800 0
-2859 2784 2801 0
2859 -2783 -2801 0
-2860 2784 2802 0
2860 -2783 -2802 0
-2861 2784 2803 0
2861 -2783 -2803 0
2852 -2784 0
-2853 2785 2794 0
2853 -2784 -2794 0
-2854 2785 2795 0
2854 -2784 -2795 0
-2855 2785 2796 0
2855 -2784 -2796 0
-2856 2785 2797 0
2856 -2784 -2797 0
-2857 2785 2798 0
2857 -2784 -2798 0
-2858 2785 2799 0
2858 -2784 -2799 0
-2859 2785 2800 0
2859 -2784 -2800 0
-2860 2785 2801 0
2860 -2784 -2801 0
-2861 2785 2802 0
2861 -2784 -2802 0
2853 -2785 0
-2854 2786 2794 0
2854 -2785 -2794 0
-2855 2786 2795 0
2855 -2785 -2795 0
-2856 2786 2796 0
2856 -2785 -2796 0
-2857 2786 2797 0
2857 -2785 -2797 0
-2858 2786 2798 0
2858 -2785 -2798 0
-2859 2786 2799 0
2859 -2785 -2799 0
-2860 2786 2800 0
2860 -2785 -2800 0
-2861 2786 2801 0
2861 -2785 -2801 0
2854 -2786 0
-2855 2787 2794 0
2855 -2786 -2794 0
-2856 2787 2795 0
2856 -2786 -2795 0
-2857 2787 2796 0
2857 -2786 -2796 0
-2858 2787 2797 0
2858 -2786 -2797 0
-2859 2787 2798 0
2859 -2786 -2798 0
-2860 2787 2799 0
2860 -2786 -2799 0
-2861 2787 2800 0
2861 -2786 -2800 0
2855 -2787 0
-2856 2788 2794 0
2856 -2787 -2794 0
-2857 2788 2795 0
2857 -2787 -2795 0
-2858 2788 2796 0
2858 -2787 -2796 0
-2859 2788 2797 0
2859 -2787 -2797 0
-2860 2788 2798 0
2860 -2787 -2798 0
-2861 2788 2799 0
2861 -2787 -2799 0
2856 -2788 0
-2857 2789 2794 0
2857 -2788 -2794 0
-2858 2789 2795 0
2858 -2788 -2795 0
-2859 2789 2796 0
2859 -2788 -2796 0
-2860 2789 2797 0
2860 -2788 -2797 0
-2861 2789 2798 0
2861 -2788 -2798 0
2857 -2789 0
-2858 2790 2794 0
2858 -2789 -2794 0
-2859 2790 2795 0
2859 -2789 -2795 0
-2860 2790 2796 0
2860 -2789 -2796 0
-2861 2790 2797 0
2861 -2789 -2797 0
2858 -2790 0
-2859 2791 2794 0
2859 -2790 -2794 0
-2860 2791 2795 0
2860 -2790 -2795 0
-2861 2791 2796 0
2861 -2790 -2796 0
2859 -2791 0
-2860 2792 2794 0
2860 -2791 -2794 0
-2861 2792 2795 0
2861 -2791 -2795 0
2860 -2792 0
-2861 2793 2794 0
2861 -2792 -2794 0
2861 -2793 0
-2862 2811 2828 0
2862 -2828 0
-2863 2811 2829 0
2863 -2829 0
-2864 2811 2830 0
2864 -2830 0
-2865 2811 2831 0
2865 -2831 0
-2866 2811 2832 0
2866 -2832 0
-2867 2811 2833 0
2867 -2833 0
-2868 2811 2834 0
2868 -2834 0
-2869 2811 2835 0
2869 -2835 0
-2870 2811 2836 0
2870 -2836 0
-2871 2811 2837 0
2871 -2837 0
-2872 2811 2838 0
2872 -2838 0
-2873 2811 2839 0
2873 -2839 0
-2874 2811 2840 0
2874 -2840 0
-2875 2811 2841 0
2875 -2841 0
-2876 2811 2842 0
2876 -2842 0
-2877 2811 2843 0
2877 -2843 0
-2878 2811 2844 0
2878 -2844 0
2862 -2811 0
-2863 2812 2828 0
2863 -2811 -2828 0
-2864 2812 2829 0
2864 -2811 -2829 0
-2865 2812 2830 0
2865 -2811 -2830 0
-2866 2812 2831 0
2866 -2811 -2831 0
-2867 2812 2832 0
2867 -2811 -2832 0
-2868 2812 2833 0
2868 -2811 -2833 0
-2869 2812 2834 0
2869 -2811 -2834 0
-2870 2812 2835 0
2870 -2811 -2835 0
-2871 2812 2836 0
2871 -2811 -2836 0
-2872 2812 2837 0
2872 -2811 -2837 0
-2873 2812 2838 0
2873 -2811 -2838 0
-2874 2812 2839 0
2874 -2811 -2839 0
-2875 2812 2840 0
2875 -2811 -2840 0
-2876 2812 2841 0
2876 -2811 -2841 0
-2877 2812 2842 0
2877 -2811 -2842 0
-2878 2812 2843 0
2878 -2811 -2843 0
2863 -2812 0
-2864 2813 2828 0
2864 -2812 -2828 0
-2865 2813 2829 0
2865 -2812 -2829 0
-2866 2813 2830 0
2866 -2812 -2830 0
-2867 2813 2831 0
2867 -2812 -2831 0
-2868 2813 2832 0
2868 -2812 -2832 0
-2869 2813 2833 0
2869 -2812 -2833 0
-2870 2813 2834 0
2870 -2812 -2834 0
-2871 2813 2835 0
2871 -2812 -2835 0
-2872 2813 2836 0
2872 -2812 -2836 0
-2873 2813 2837 0
2873 -2812 -2837 0
-2874 2813 2838 0
2874 -2812 -2838 0
-2875 2813 2839 0
2875 -2812 -2839 0
-2876 2813 2840 0
2876 -2812 -2840 0
-2877 2813 2841 0
2877 -2812 -2841 0
-2878 2813 2842 0
2878 -2812 -2842 0
2864 -2813 0
-2865 2814 2828 0
2865 -2813 -2828 0
-2866 2814 2829 0
2866 -2813 -2829 0
-2867 2814 2830 0
2867 -2813 -2830 0
-2868 2814 2831 0
2868 -2813 -2831 0
-2869 2814 2832 0
2869 -2813 -2832 0
-2870 2814 2833 0
2870 -2813 -2833 0
-2871 2814 2834 0
2871 -2813 -2834 0
-2872 2814 2835 0
2872 -2813 -2835 0
-2873 2814 2836 0
2873 -2813 -2836 0
-2874 2814 2837 0
2874 -2813 -2837 0
-2875 2814 2838 0
2875 -2813 -2838 0
-2876 2814 2839 0
2876 -2813 -2839 0
-2877 2814 2840 0
2877 -2813 -2840 0
-2878 2814 2841 0
2878 -2813 -2841 0
2865 -2814 0
-2866 2815 2828 0
2866 -2814 -2828 0
-2867 2815 2829 0
2867 -2814 -2829 0
-2868 2815 2830 0
2868 -2814 -2830 0
-2869 2815 2831 0
2869 -2814 -2831 0
-2870 2815 2832 0
2870 -2814 -2832 0
-2871 2815 2833 0
2871 -2814 -2833 0
-2872 2815 2834 0
2872 -2814 -2834 0
-2873 2815 2835 0
2873 -2814 -2835 0
-2874 2815 2836 0
2874 -2814 -2836 0
-2875 2815 2837 0
2875 -2814 -2837 0
-2876 2815 2838 0
2876 -2814 -2838 0
-2877 2815 2839 0
2877 -2814 -2839 0
-2878 2815 2840 0
2878 -2814 -2840 0
2866 -2815 0
-2867 2816 2828 0
2867 -2815 -2828 0
-2868 2816 2829 0
2868 -2815 -2829 0
-2869 2816 2830 0
2869 -2815 -2830 0
-2870 2816 2831 0
2870 -2815 -2831 0
-2871 2816 2832 0
2871 -2815 -2832 0
-2872 2816 2833 0
2872 -2815 -2833 0
-2873 2816 2834 0
2873 -2815 -2834 0
-2874 2816 2835 0
2874 -2815 -2835 0
-2875 2816 2836 0
2875 -2815 -2836 0
-2876 2816 2837 0
2876 -2815 -2837 0
-2877 2816 2838 0
2877 -2815 -2838 0
-2878 2816 2839 0
2878 -2815 -2839 0
2867 -2816 0
-2868 2817 2828 0
2868 -2816 -2828 0
-2869 2817 2829 0
2869 -2816 -2829 0
-2870 2817 2830 0
2870 -2816 -2830 0
-2871 2817 2831 0
2871 -2816 -2831 0
-2872 2817 2832 0
2872 -2816 -2832 0
-2873 2817 2833 0
2873 -2816 -2833 0
-2874 2817 2834 0
2874 -2816 -2834 0
-2875 2817 2835 0
2875 -2816 -2835 0
-2876 2817 2836 0
2876 -2816 -2836 0
-2877 2817 2837 0
2877 -2816 -2837 0
-2878 2817 2838 0
2878 -2816 -2838 0
2868 -2817 0
-2869 2818 2828 0
2869 -2817 -2828 0
-2870 2818 2829 0
2870 -2817 -2829 0
-2871 2818 2830 0
2871 -2817 -2830 0
-2872 2818 2831 0
2872 -2817 -2831 0
-2873 2818 2832 0
2873 -2817 -2832 0
-2874 2818 2833 0
2874 -2817 -2833 0
-2875 2818 2834 0
2875 -2817 -2834 0
-2876 2818 2835 0
2876 -2817 -2835 0
-2877 2818 2836 0
2877 -2817 -2836 0
-2878 2818 2837 0
2878 -2817 -2837 0
2869 -2818 0
-2870 2819 2828 0
2870 -2818 -2828 0
-2871 2819 2829 0
2871 -2818 -2829 0
-2872 2819 2830 0
2872 -2818 -2830 0
-2873 2819 2831 0
2873 -2818 -2831 0
-2874 2819 2832 0
2874 -2818 -2832 0
-2875 2819 2833 0
2875 -2818 -2833 0
-2876 2819 2834 0
2876 -2818 -2834 0
-2877 2819 2835 0
2877 -2818 -2835 0
-2878 2819 2836 0
2878 -2818 -2836 0
2870 -2819 0
-2871 2820 2828 0
2871 -2819 -2828 0
-2872 2820 2829 0
2872 -2819 -2829 0
-2873 2820 2830 0
2873 -2819 -2830 0
-2874 2820 2831 0
2874 -2819 -2831 0
-2875 2820 2832 0
2875 -2819 -2832 0
-2876 2820 2833 0
2876 -2819 -2833 0
-2877 2820 2834 0
2877 -2819 -2834 0
-2878 2820 2835 0
2878 -2819 -2835 0
2871 -2820 0
-2872 2821 2828 0
2872 -2820 -2828 0
-2873 2821 2829 0
2873 -2820 -2829 0
-2874 2821 2830 0
2874 -2820 -2830 0
-2875 2821 2831 0
2875 -2820 -2831 0
-2876 2821 2832 0
2876 -2820 -2832 0
-2877 2821 2833 0
2877 -2820 -2833 0
-2878 2821 2834 0
2878 -2820 -2834 0
2872 -2821 0
-2873 2822 2828 0
2873 -2821 -2828 0
-2874 2822 2829 0
2874 -2821 -2829 0
-2875 2822 2830 0
2875 -2821 -2830 0
-2876 2822 2831 0
2876 -2821 -2831 0
-2877 2822 2832 0
2877 -2821 -2832 0
-2878 2822 2833 0
2878 -2821 -2833 0
2873 -2822 0
-2874 2823 2828 0
2874 -2822 -2828 0
-2875 2823 2829 0
2875 -2822 -2829 0
-2876 2823 2830 0
2876 -2822 -2830 0
-2877 2823 2831 0
2877 -2822 -2831 0
-2878 2823 2832 0
2878 -2822 -2832 0
2874 -2823 0
-2875 2824 2828 0
2875 -2823 -2828 0
-2876 2824 2829 0
2876 -2823 -2829 0
-2877 2824 2830 0
2877 -2823 -2830 0
-2878 2824 2831 0
2878 -2823 -2831 0
2875 -2824 0
-2876 2825 2828 0
2876 -2824 -2828 0
-2877 2825 2829 0
2877 -2824 -2829 0
-2878 2825 2830 0
2878 -2824 -2830 0
2876 -2825 0
-2877 2826 2828 0
2877 -2825 -2828 0
-2878 2826 2829 0
2878 -2825 -2829 0
2877 -2826 0
-2878 2827 2828 0
2878 -2826 -2828 0
2878 -2827 0
-2879 2862 2845 0
2879 -2845 0
-2880 2862 2846 0
2880 -2846 0
-2881 2862 2847 0
2881 -2847 0
-2882 2862 2848 0
2882 -2848 0
-2883 2862 2849 0
2883 -2849 0
-2884 2862 2850 0
2884 -2850 0
-2885 2862 2851 0
2885 -2851 0
-2886 2862 2852 0
2886 -2852 0
-2887 2862 2853 0
2887 -2853 0
-2888 2862 2854 0
2888 -2854 0
-2889 2862 2855 0
2889 -2855 0
-2890 2862 2856 0
2890 -2856 0
-2891 2862 2857 0
2891 -2857 0
-2892 2862 2858 0
2892 -2858 0
-2893 2862 2859 0
2893 -2859 0
-2894 2862 2860 0
2894 -2860 0
-2895 2862 2861 0
2895 -2861 0
2879 -2862 0
-2880 2863 2845 0
2880 -2862 -2845 0
-2881 2863 2846 0
2881 -2862 -2846 0
-2882 2863 2847 0
2882 -2862 -2847 0
-2883 2863 2848 0
2883 -2862 -2848 0
-2884 2863 2849 0
2884 -2862 -2849 0
-2885 2863 2850 0
2885 -2862 -2850 0
-2886 2863 2851 0
2886 -2862 -2851 0
-2887 2863 2852 0
2887 -2862 -2852 0
-2888 2863 2853 0
2888 -2862 -2853 0
-2889 2863 2854 0
2889 -2862 -2854 0
-2890 2863 2855 0
2890 -2862 -2855 0
-2891 2863 2856 0
2891 -2862 -2856 0
-2892 2863 2857 0
2892 -2862 -2857 0
-2893 2863 2858 0
2893 -2862 -2858 0
-2894 2863 2859 0
2894 -2862 -2859 0
-2895 2863 2860 0
2895 -2862 -2860 0
2880 -2863 0
-2881 2864 2845 0
2881 -2863 -2845 0
-2882 2864 2846 0
2882 -2863 -2846 0
-2883 2864 2847 0
2883 -2863 -2847 0
-2884 2864 2848 0
2884 -2863 -2848 0
-2885 2864 2849 0
2885 -2863 -2849 0
-2886 2864 2850 0
2886 -2863 -2850 0
-2887 2864 2851 0
2887 -2863 -2851 0
-2888 2864 2852 0
2888 -2863 -2852 0
-2889 2864 2853 0
2889 -2863 -2853 0
-2890 2864 2854 0
2890 -2863 -2854 0
-2891 2864 2855 0
2891 -2863 -2855 0
-2892 2864 2856 0
2892 -2863 -2856 0
-2893 2864 2857 0
2893 -2863 -2857 0
-2894 2864 2858 0
2894 -2863 -2858 0
-2895 2864 2859 0
2895 -2863 -2859 0
2881 -2864 0
-2882 2865 2845 0
2882 -2864 -2845 0
-2883 2865 2846 0
2883 -2864 -2846 0
-2884 2865 2847 0
2884 -2864 -2847 0
-2885 2865 2848 0
2885 -2864 -2848 0
-2886 2865 2849 0
2886 -2864 -2849 0
-2887 2865 2850 0
2887 -2864 -2850 0
-2888 2865 2851 0
2888 -2864 -2851 0
-2889 2865 2852 0
2889 -2864 -2852 0
-2890 2865 2853 0
2890 -2864 -2853 0
-2891 2865 2854 0
2891 -2864 -2854 0
-2892 2865 2855 0
2892 -2864 -2855 0
-2893 2865 2856 0
2893 -2864 -2856 0
-2894 2865 2857 0
2894 -2864 -2857 0
-2895 2865 2858 0
2895 -2864 -2858 0
2882 -2865 0
-2883 2866 2845 0
2883 -2865 -2845 0
-2884 2866 2846 0
2884 -2865 -2846 0
-2885 2866 2847 0
2885 -2865 -2847 0
-2886 2866 2848 0
2886 -2865 -2848 0
-2887 2866 2849 0
2887 -2865 -2849 0
-2888 2866 2850 0
2888 -2865 -2850 0
-2889 2866 2851 0
2889 -2865 -2851 0
-2890 2866 2852 0
2890 -2865 -2852 0
-2891 2866 2853 0
2891 -2865 -2853 0
-2892 2866 2854 0
2892 -2865 -2854 0
-2893 2866 2855 0
2893 -2865 -2855 0
-2894 2866 2856 0
2894 -2865 -2856 0
-2895 2866 2857 0
2895 -2865 -2857 0
2883 -2866 0
-2884 2867 2845 0
2884 -2866 -2845 0
-2885 2867 2846 0
2885 -2866 -2846 0
-2886 2867 2847 0
2886 -2866 -2847 0
-2887 2867 2848 0
2887 -2866 -2848 0
-2888 2867 2849 0
2888 -2866 -2849 0
-2889 2867 2850 0
2889 -2866 -2850 0
-2890 2867 2851 0
2890 -2866 -2851 0
-2891 2867 2852 0
2891 -2866 -2852 0
-2892 2867 2853 0
2892 -2866 -2853 0
-2893 2867 2854 0
2893 -2866 -2854 0
-2894 2867 2855 0
2894 -2866 -2855 0
-2895 2867 2856 0
2895 -2866 -2856 0
2884 -2867 0
-2885 2868 2845 0
2885 -2867 -2845 0
-2886 2868 2846 0
2886 -2867 -2846 0
-2887 2868 2847 0
2887 -2867 -2847 0
-2888 2868 2848 0
2888 -2867 -2848 0
-2889 2868 2849 0
2889 -2867 -2849 0
-2890 2868 2850 0
2890 -2867 -2850 0
-2891 2868 2851 0
2891 -2867 -2851 0
-2892 2868 2852 0
2892 -2867 -2852 0
-2893 2868 2853 0
2893 -2867 -2853 0
-2894 2868 2854 0
2894 -2867 -2854 0
-2895 2868 2855 0
2895 -2867 -2855 0
2885 -2868 0
-2886 2869 2845 0
2886 -2868 -2845 0
-2887 2869 2846 0
2887 -2868 -2846 0
-2888 2869 2847 0
2888 -2868 -2847 0
-2889 2869 2848 0
2889 -2868 -2848 0
-2890 2869 2849 0
2890 -2868 -2849 0
-2891 2869 2850 0
2891 -2868 -2850 0
-2892 2869 2851 0
2892 -2868 -2851 0
-2893 2869 2852 0
2893 -2868 -2852 0
-2894 2869 2853 0
2894 -2868 -2853 0
-2895 2869 2854 0
2895 -2868 -2854 0
2886 -2869 0
-2887 2870 2845 0
2887 -2869 -2845 0
-2888 2870 2846 0
2888 -2869 -2846 0
-2889 2870 2847 0
2889 -2869 -2847 0
-2890 2870 2848 0
2890 -2869 -2848 0
-2891 2870 2849 0
2891 -2869 -2849 0
-2892 2870 2850 0
2892 -2869 -2850 0
-2893 2870 2851 0
2893 -2869 -2851 0
-2894 2870 2852 0
2894 -2869 -2852 0
-2895 2870 2853 0
2895 -2869 -2853 0
2887 -2870 0
-2888 2871 2845 0
2888 -2870 -2845 0
-2889 2871 2846 0
2889 -2870 -2846 0
-2890 2871 2847 0
2890 -2870 -2847 0
-2891 2871 2848 0
2891 -2870 -2848 0
-2892 2871 2849 0
2892 -2870 -2849 0
-2893 2871 2850 0
2893 -2870 -2850 0
-2894 2871 2851 0
2894 -2870 -2851 0
-2895 2871 2852 0
2895 -2870 -2852 0
2888 -2871 0
-2889 2872 2845 0
2889 -2871 -2845 0
-2890 2872 2846 0
2890 -2871 -2846 0
-2891 2872 2847 0
2891 -2871 -2847 0
-2892 2872 2848 0
2892 -2871 -2848 0
-2893 2872 2849 0
2893 -2871 -2849 0
-2894 2872 2850 0
2894 -2871 -2850 0
-2895 2872 2851 0
2895 -2871 -2851 0
2889 -2872 0
-2890 2873 2845 0
2890 -2872 -2845 0
-2891 2873 2846 0
2891 -2872 -2846 0
-2892 2873 2847 0
2892 -2872 -2847 0
-2893 2873 2848 0
2893 -2872 -2848 0
-2894 2873 2849 0
2894 -2872 -2849 0
-2895 2873 2850 0
2895 -2872 -2850 0
2890 -2873 0
-2891 2874 2845 0
2891 -2873 -2845 0
-2892 2874 2846 0
2892 -2873 -2846 0
-2893 2874 2847 0
2893 -2873 -2847 0
-2894 2874 2848 0
2894 -2873 -2848 0
-2895 2874 2849 0
2895 -2873 -2849 0
2891 -2874 0
-2892 2875 2845 0
2892 -2874 -2845 0
-2893 2875 2846 0
2893 -2874 -2846 0
-2894 2875 2847 0
2894 -2874 -2847 0
-2895 2875 2848 0
2895 -2874 -2848 0
2892 -2875 0
-2893 2876 2845 0
2893 -2875 -2845 0
-2894 2876 2846 0
2894 -2875 -2846 0
-2895 2876 2847 0
2895 -2875 -2847 0
2893 -2876 0
-2894 2877 2845 0
2894 -2876 -2845 0
-2895 2877 2846 0
2895 -2876 -2846 0
2894 -2877 0
-2895 2878 2845 0
2895 -2877 -2845 0
2895 -2878 0
2894 0
-2895 0
1537 -1642 0
-2896 -1537 1642 0
-2896 1537 -1642 0
2896 1537 1642 0
2896 -1537 -1642 0
-2896 1538 -1643 0
-2897 2896 0
-2897 -1538 1643 0
-2897 1538 -1643 0
2897 -2896 1538 1643 0
2897 -2896 -1538 -1643 0
-2897 1539 -1644 0
-2898 2897 0
-2898 -1539 1644 0
-2898 1539 -1644 0
2898 -2897 1539 1644 0
2898 -2897 -1539 -1644 0
-2898 1540 -1645 0
-2899 2898 0
-2899 -1540 1645 0
-2899 1540 -1645 0
2899 -2898 1540 1645 0
2899 -2898 -1540 -1645 0
-2899 1541 -1646 0
-2900 2899 0
-2900 -1541 1646 0
-2900 1541 -1646 0
2900 -2899 1541 1646 0
2900 -2899 -1541 -1646 0
-2900 1542 -1647 0
-2901 2900 0
-2901 -1542 1647 0
-2901 1542 -1647 0
2901 -2900 1542 1647 0
2901 -2900 -1542 -1647 0
-2901 1543 -1648 0
-2902 2901 0
-2902 -1543 1648 0
-2902 1543 -1648 0
2902 -2901 1543 1648 0
2902 -2901 -1543 -1648 0
-2902 1544 -1649 0
-2903 2902 0
-2903 -1544 1649 0
-2903 1544 -1649 0
2903 -2902 1544 1649 0
2903 -2902 -1544 -1649 0
-2903 1545 -1650 0
-2904 2903 0
-2904 -1545 1650 0
-2904 1545 -1650 0
2904 -2903 1545 1650 0
2904 -2903 -1545 -1650 0
-2904 1546 -1651 0
-2905 2904 0
-2905 -1546 1651 0
-2905 1546 -1651 0
2905 -2904 1546 1651 0
2905 -2904 -1546 -1651 0
-2905 1547 -1652 0
-2906 2905 0
-2906 -1547 1652 0
-2906 1547 -1652 0
2906 -2905 1547 1652 0
2906 -2905 -1547 -1652 0
-2906 1548 -1653 0
-2907 2906 0
-2907 -1548 1653 0
-2907 1548 -1653 0
2907 -2906 1548 1653 0
2907 -2906 -1548 -1653 0
-2907 1549 -1654 0
-2908 2907 0
-2908 -1549 1654 0
-2908 1549 -1654 0
2908 -2907 1549 1654 0
2908 -2907 -1549 -1654 0
-2908 1550 -1655 0
-2909 2908 0
-2909 -1550 1655 0
-2909 1550 -1655 0
2909 -2908 1550 1655 0
2909 -2908 -1550 -1655 0
-2909 1551 -1656 0
-2910 2909 0
-2910 -1551 1656 0
-2910 1551 -1656 0
2910 -2909 1551 1656 0
2910 -2909 -1551 -1656 0
-2910 1552 -1657 0
-2911 2910 0
-2911 -1552 1657 0
-2911 1552 -1657 0
2911 -2910 1552 1657 0
2911 -2910 -1552 -1657 0
-2911 1642 -1747 0
-2912 2911 0
-2912 -1642 1747 0
-2912 1642 -1747 0
2912 -2911 1642 1747 0
2912 -2911 -1642 -1747 0
-2912 1643 -1748 0
-2913 2912 0
-2913 -1643 1748 0
-2913 1643 -1748 0
2913 -2912 1643 1748 0
2913 -2912 -1643 -1748 0
-2913 1644 -1749 0
-2914 2913 0
-2914 -1644 1749 0
-2914 1644 -1749 0
2914 -2913 1644 1749 0
2914 -2913 -1644 -1749 0
-2914 1645 -1750 0
-2915 2914 0
-2915 -1645 1750 0
-2915 1645 -1750 0
2915 -2914 1645 1750 0
2915 -2914 -1645 -1750 0
-2915 1646 -1751 0
-2916 2915 0
-2916 -1646 1751 0
-2916 1646 -1751 0
2916 -2915 1646 1751 0
2916 -2915 -1646 -1751 0
-2916 1647 -1752 0
-2917 2916 0
-2917 -1647 1752 0
-2917 1647 -1752 0
2917 -2916 1647 1752 0
2917 -2916 -1647 -1752 0
-2917 1648 -1753 0
-2918 2917 0
-2918 -1648 1753 0
-2918 1648 -1753 0
2918 -2917 1648 1753 0
2918 -2917 -1648 -1753 0
-2918 1649 -1754 0
-2919 2918 0
-2919 -1649 1754 0
-2919 1649 -1754 0
2919 -2918 1649 1754 0
2919 -2918 -1649 -1754 0
-2919 1650 -1755 0
-2920 2919 0
-2920 -1650 1755 0
-2920 1650 -1755 0
2920 -2919 1650 1755 0
2920 -2919 -1650 -1755 0
-2920 1651 -1756 0
-2921 2920 0
-2921 -1651 1756 0
-2921 1651 -1756 0
2921 -2920 1651 1756 0
2921 -2920 -1651 -1756 0
-2921 1652 -1757 0
-2922 2921 0
-2922 -1652 1757 0
-2922 1652 -1757 0
2922 -2921 1652 1757 0
2922 -2921 -1652 -1757 0
-2922 1653 -1758 0
-2923 2922 0
-2923 -1653 1758 0
-2923 1653 -1758 0
2923 -2922 1653 1758 0
2923 -2922 -1653 -1758 0
-2923 1654 -1759 0
-2924 2923 0
-2924 -1654 1759 0
-2924 1654 -1759 0
2924 -2923 1654 1759 0
2924 -2923 -1654 -1759 0
-2924 1655 -1760 0
-2925 2924 0
-2925 -1655 1760 0
-2925 1655 -1760 0
2925 -2924 1655 1760 0
2925 -2924 -1655 -1760 0
-2925 1656 -1761 0
-2926 2925 0
-2926 -1656 1761 0
-2926 1656 -1761 0
2926 -2925 1656 1761 0
2926 -2925 -1656 -1761 0
-2926 1657 -1762 0
-2927 2926 0
-2927 -1657 1762 0
-2927 1657 -1762 0
2927 -2926 1657 1762 0
2927 -2926 -1657 -1762 0
-2927 1747 -1852 0
-2928 2927 0
-2928 -1747 1852 0
-2928 1747 -1852 0
2928 -2927 1747 1852 0
2928 -2927 -1747 -1852 0
-2928 1748 -1853 0
-2929 2928 0
-2929 -1748 1853 0
-2929 1748 -1853 0
2929 -2928 1748 1853 0
2929 -2928 -1748 -1853 0
-2929 1749 -1854 0
-2930 2929 0
-2930 -1749 1854 0
-2930 1749 -1854 0
2930 -2929 1749 1854 0
2930 -2929 -1749 -1854 0
-2930 1750 -1855 0
-2931 2930 0
-2931 -1750 1855 0
-2931 1750 -1855 0
2931 -2930 1750 1855 0
2931 -2930 -1750 -1855 0
-2931 1751 -1856 0
-2932 2931 0
-2932 -1751 1856 0
-2932 1751 -1856 0
2932 -2931 1751 1856 0
2932 -2931 -1751 -1856 0
-2932 1752 -1857 0
-2933 2932 0
-2933 -1752 1857 0
-2933 1752 -1857 0
2933 -2932 1752 1857 0
2933 -2932 -1752 -1857 0
-2933 1753 -1858 0
-2934 2933 0
-2934 -1753 1858 0
-2934 1753 -1858 0
2934 -2933 1753 1858 0
2934 -2933 -1753 -1858 0
-2934 1754 -1859 0
-2935 2934 0
-2935 -1754 1859 0
-2935 1754 -1859 0
2935 -2934 1754 1859 0
2935 -2934 -1754 -1859 0
-2935 1755 -1860 0
-2936 2935 0
-2936 -1755 1860 0
-2936 1755 -1860 0
2936 -2935 1755 1860 0
2936 -2935 -1755 -1860 0
-2936 1756 -1861 0
-2937 2936 0
-2937 -1756 1861 0
-2937 1756 -1861 0
2937 -2936 1756 1861 0
2937 -2936 -1756 -1861 0
-2937 1757 -1862 0
-2938 2937 0
-2938 -1757 1862 0
-2938 1757 -1862 0
2938 -2937 1757 1862 0
2938 -2937 -1757 -1862 0
-2938 1758 -1863 0
-2939 2938 0
-2939 -1758 1863 0
-2939 1758 -1863 0
2939 -2938 1758 1863 0
2939 -2938 -1758 -1863 0
-2939 1759 -1864 0
-2940 2939 0
-2940 -1759 1864 0
-2940 1759 -1864 0
2940 -2939 1759 1864 0
2940 -2939 -1759 -1864 0
-2940 1760 -1865 0
-2941 2940 0
-2941 -1760 1865 0
-2941 1760 -1865 0
2941 -2940 1760 1865 0
2941 -2940 -1760 -1865 0
-2941 1761 -1866 0
-2942 2941 0
-2942 -1761 1866 0
-2942 1761 -1866 0
2942 -2941 1761 1866 0
2942 -2941 -1761 -1866 0
-2942 1762 -1867 0
-2943 2942 0
-2943 -1762 1867 0
-2943 1762 -1867 0
2943 -2942 1762 1867 0
2943 -2942 -1762 -1867 0
-2943 1852 -1957 0
-2944 2943 0
-2944 -1852 1957 0
-2944 1852 -1957 0
2944 -2943 1852 1957 0
2944 -2943 -1852 -1957 0
-2944 1853 -1958 0
-2945 2944 0
-2945 -1853 1958 0
-2945 1853 -1958 0
2945 -2944 1853 1958 0
2945 -2944 -1853 -1958 0
-2945 1854 -1959 0
-2946 2945 0
-2946 -1854 1959 0
-2946 1854 -1959 0
2946 -2945 1854 1959 0
2946 -2945 -1854 -1959 0
-2946 1855 -1960 0
-2947 2946 0
-2947 -1855 1960 0
-2947 1855 -1960 0
2947 -2946 1855 1960 0
2947 -2946 -1855 -1960 0
-2947 1856 -1961 0
-2948 2947 0
-2948 -1856 1961 0
-2948 1856 -1961 0
2948 -2947 1856 1961 0
2948 -2947 -1856 -1961 0
-2948 1857 -1962 0
-2949 2948 0
-2949 -1857 1962 0
-2949 1857 -1962 0
2949 -2948 1857 1962 0
2949 -2948 -1857 -1962 0
-2949 1858 -1963 0
-2950 2949 0
-2950 -1858 1963 0
-2950 1858 -1963 0
2950 -2949 1858 1963 0
2950 -2949 -1858 -1963 0
-2950 1859 -1964 0
-2951 2950 0
-2951 -1859 1964 0
-2951 1859 -1964 0
2951 -2950 1859 1964 0
2951 -2950 -1859 -1964 0
-2951 1860 -1965 0
-2952 2951 0
-2952 -1860 1965 0
-2952 1860 -1965 0
2952 -2951 1860 1965 0
2952 -2951 -1860 -1965 0
-2952 1861 -1966 0
-2953 2952 0
-2953 -1861 1966 0
-2953 1861 -1966 0
2953 -2952 1861 1966 0
2953 -2952 -1861 -1966 0
-2953 1862 -1967 0
-2954 2953 0
-2954 -1862 1967 0
-2954 1862 -1967 0
2954 -2953 1862 1967 0
2954 -2953 -1862 -1967 0
-2954 1863 -1968 0
-2955 2954 0
-2955 -1863 1968 0
-2955 1863 -1968 0
2955 -2954 1863 1968 0
2955 -2954 -1863 -1968 0
-2955 1864 -1969 0
-2956 2955 0
-2956 -1864 1969 0
-2956 1864 -1969 0
2956 -2955 1864 1969 0
2956 -2955 -1864 -1969 0
-2956 1865 -1970 0
-2957 2956 0
-2957 -1865 1970 0
-2957 1865 -1970 0
2957 -2956 1865 1970 0
2957 -2956 -1865 -1970 0
-2957 1866 -1971 0
-2958 2957 0
-2958 -1866 1971 0
-2958 1866 -1971 0
2958 -2957 1866 1971 0
2958 -2957 -1866 -1971 0
-2958 1867 -1972 0
-2959 2958 0
-2959 -1867 1972 0
-2959 1867 -1972 0
2959 -2958 1867 1972 0
2959 -2958 -1867 -1972 0
-2959 1957 -2062 0
-2960 2959 0
-2960 -1957 2062 0
-2960 1957 -2062 0
2960 -2959 1957 2062 0
2960 -2959 -1957 -2062 0
-2960 1958 -2063 0
-2961 2960 0
-2961 -1958 2063 0
-2961 1958 -2063 0
2961 -2960 1958 2063 0
2961 -2960 -1958 -2063 0
-2961 1959 -2064 0
-2962 2961 0
-2962 -1959 2064 0
-2962 1959 -2064 0
2962 -2961 1959 2064 0
2962 -2961 -1959 -2064 0
-2962 1960 -2065 0
-2963 2962 0
-2963 -1960 2065 0
-2963 1960 -2065 0
2963 -2962 1960 2065 0
2963 -2962 -1960 -2065 0
-2963 1961 -2066 0
-2964 2963 0
-2964 -1961 2066 0
-2964 1961 -2066 0
2964 -2963 1961 2066 0
2964 -2963 -1961 -2066 0
-2964 1962 -2067 0
-2965 2964 0
-2965 -1962 2067 0
-2965 1962 -2067 0
2965 -2964 1962 2067 0
2965 -2964 -1962 -2067 0
-2965 1963 -2068 0
-2966 2965 0
-2966 -1963 2068 0
-2966 1963 -2068 0
2966 -2965 1963 2068 0
2966 -2965 -1963 -2068 0
-2966 1964 -2069 0
-2967 2966 0
-2967 -1964 2069 0
-2967 1964 -2069 0
2967 -2966 1964 2069 0
2967 -2966 -1964 -2069 0
-2967 1965 -2070 0
-2968 2967 0
-2968 -1965 2070 0
-2968 1965 -2070 0
2968 -2967 1965 2070 0
2968 -2967 -1965 -2070 0
-2968 1966 -2071 0
-2969 2968 0
-2969 -1966 2071 0
-2969 1966 -2071 0
2969 -2968 1966 2071 0
2969 -2968 -1966 -2071 0
-2969 1967 -2072 0
-2970 2969 0
-2970 -1967 2072 0
-2970 1967 -2072 0
2970 -2969 1967 2072 0
2970 -2969 -1967 -2072 0
-2970 1968 -2073 0
-2971 2970 0
-2971 -1968 2073 0
-2971 1968 -2073 0
2971 -2970 1968 2073 0
2971 -2970 -1968 -2073 0
-2971 1969 -2074 0
-2972 2971 0
-2972 -1969 2074 0
-2972 1969 -2074 0
2972 -2971 1969 2074 0
2972 -2971 -1969 -2074 0
-2972 1970 -2075 0
-2973 2972 0
-2973 -1970 2075 0
-2973 1970 -2075 0
2973 -2972 1970 2075 0
2973 -2972 -1970 -2075 0
-2973 1971 -2076 0
-2974 2973 0
-2974 -1971 2076 0
-2974 1971 -2076 0
2974 -2973 1971 2076 0
2974 -2973 -1971 -2076 0
-2974 1972 -2077 0
-2975 2974 0
-2975 -1972 2077 0
-2975 1972 -2077 0
2975 -2974 1972 2077 0
2975 -2974 -1972 -2077 0
-2975 2062 -2167 0
-2976 2975 0
-2976 -2062 2167 0
-2976 2062 -2167 0
2976 -2975 2062 2167 0
2976 -2975 -2062 -2167 0
-2976 2063 -2168 0
-2977 2976 0
-2977 -2063 2168 0
-2977 2063 -2168 0
2977 -2976 2063 2168 0
2977 -2976 -2063 -2168 0
-2977 2064 -2169 0
-2978 2977 0
-2978 -2064 2169 0
-2978 2064 -2169 0
2978 -2977 2064 2169 0
2978 -2977 -2064 -2169 0
-2978 2065 -2170 0
-2979 2978 0
-2979 -2065 2170 0
-2979 2065 -2170 0
2979 -2978 2065 2170 0
2979 -2978 -2065 -2170 0
-2979 2066 -2171 0
-2980 2979 0
-2980 -2066 2171 0
-2980 2066 -2171 0
2980 -2979 2066 2171 0
2980 -2979 -2066 -2171 0
-2980 2067 -2172 0
-2981 2980 0
-2981 -2067 2172 0
-2981 2067 -2172 0
2981 -2980 2067 2172 0
2981 -2980 -2067 -2172 0
-2981 2068 -2173 0
-2982 2981 0
-2982 -2068 2173 0
-2982 2068 -2173 0
2982 -2981 2068 2173 0
2982 -2981 -2068 -2173 0
-2982 2069 -2174 0
-2983 2982 0
-2983 -2069 2174 0
-2983 2069 -2174 0
2983 -2982 2069 2174 0
2983 -2982 -2069 -2174 0
-2983 2070 -2175 0
-2984 2983 0
-2984 -2070 2175 0
-2984 2070 -2175 0
2984 -2983 2070 2175 0
2984 -2983 -2070 -2175 0
-2984 2071 -2176 0
-2985 2984 0
-2985 -2071 2176 0
-2985 2071 -2176 0
2985 -2984 2071 2176 0
2985 -2984 -2071 -2176 0
-2985 2072 -2177 0
-2986 2985 0
-2986 -2072 2177 0
-2986 2072 -2177 0
2986 -2985 2072 2177 0
2986 -2985 -2072 -2177 0
-2986 2073 -2178 0
-2987 2986 0
-2987 -2073 2178 0
-2987 2073 -2178 0
2987 -2986 2073 2178 0
2987 -2986 -2073 -2178 0
-2987 2074 -2179 0
-2988 2987 0
-2988 -2074 2179 0
-2988 2074 -2179 0
2988 -2987 2074 2179 0
2988 -2987 -2074 -2179 0
-2988 2075 -2180 0
-2989 2988 0
-2989 -2075 2180 0
-2989 2075 -2180 0
2989 -2988 2075 2180 0
2989 -2988 -2075 -2180 0
-2989 2076 -2181 0
-2990 2989 0
-2990 -2076 2181 0
-2990 2076 -2181 0
2990 -2989 2076 2181 0
2990 -2989 -2076 -2181 0
-2990 2077 -2182 0
-2991 2990 0
-2991 -2077 2182 0
-2991 2077 -2182 0
2991 -2990 2077 2182 0
2991 -2990 -2077 -2182 0
-2991 2167 -2272 0
-2992 2991 0
-2992 -2167 2272 0
-2992 2167 -2272 0
2992 -2991 2167 2272 0
2992 -2991 -2167 -2272 0
-2992 2168 -2273 0
-2993 2992 0
-2993 -2168 2273 0
-2993 2168 -2273 0
2993 -2992 2168 2273 0
2993 -2992 -2168 -2273 0
-2993 2169 -2274 0
-2994 2993 0
-2994 -2169 2274 0
-2994 2169 -2274 0
2994 -2993 2169 2274 0
2994 -2993 -2169 -2274 0
-2994 2170 -2275 0
-2995 2994 0
-2995 -2170 2275 0
-2995 2170 -2275 0
2995 -2994 2170 2275 0
2995 -2994 -2170 -2275 0
-2995 2171 -2276 0
-2996 2995 0
-2996 -2171 2276 0
-2996 2171 -2276 0
2996 -2995 2171 2276 0
2996 -2995 -2171 -2276 0
-2996 2172 -2277 0
-2997 2996 0
-2997 -2172 2277 0
-2997 2172 -2277 0
2997 -2996 2172 2277 0
2997 -2996 -2172 -2277 0
-2997 2173 -2278 0
-2998 2997 0
-2998 -2173 2278 0
-2998 2173 -2278 0
2998 -2997 2173 2278 0
2998 -2997 -2173 -2278 0
-2998 2174 -2279 0
-2999 2998 0
-2999 -2174 2279 0
-2999 2174 -2279 0
2999 -2998 2174 2279 0
2999 -2998 -2174 -2279 0
-2999 2175 -2280 0
-3000 2999 0
-3000 -2175 2280 0
-3000 2175 -2280 0
3000 -2999 2175 2280 0
3000 -2999 -2175 -2280 0
-3000 2176 -2281 0
-3001 3000 0
-3001 -2176 2281 0
-3001 2176 -2281 0
3001 -3000 2176 2281 0
3001 -3000 -2176 -2281 0
-3001 2177 -2282 0
-3002 3001 0
-3002 -2177 2282 0
-3002 2177 -2282 0
3002 -3001 2177 2282 0
3002 -3001 -2177 -2282 0
-3002 2178 -2283 0
-3003 3002 0
-3003 -2178 2283 0
-3003 2178 -2283 0
3003 -3002 2178 2283 0
3003 -3002 -2178 -2283 0
-3003 2179 -2284 0
-3004 3003 0
-3004 -2179 2284 0
-3004 2179 -2284 0
3004 -3003 2179 2284 0
3004 -3003 -2179 -2284 0
-3004 2180 -2285 0
-3005 3004 0
-3005 -2180 2285 0
-3005 2180 -2285 0
3005 -3004 2180 2285 0
3005 -3004 -2180 -2285 0
-3005 2181 -2286 0
-3006 3005 0
-3006 -2181 2286 0
-3006 2181 -2286 0
3006 -3005 2181 2286 0
3006 -3005 -2181 -2286 0
-3006 2182 -2287 0
-3007 3006 0
-3007 -2182 2287 0
-3007 2182 -2287 0
3007 -3006 2182 2287 0
3007 -3006 -2182 -2287 0
-3007 2272 -2377 0
-3008 3007 0
-3008 -2272 2377 0
-3008 2272 -2377 0
3008 -3007 2272 2377 0
3008 -3007 -2272 -2377 0
-3008 2273 -2378 0
-3009 3008 0
-3009 -2273 2378 0
-3009 2273 -2378 0
3009 -3008 2273 2378 0
3009 -3008 -2273 -2378 0
-3009 2274 -2379 0
-3010 3009 0
-3010 -2274 2379 0
-3010 2274 -2379 0
3010 -3009 2274 2379 0
3010 -3009 -2274 -2379 0
-3010 2275 -2380 0
-3011 3010 0
-3011 -2275 2380 0
-3011 2275 -2380 0
3011 -3010 2275 2380 0
3011 -3010 -2275 -2380 0
-3011 2276 -2381 0
-3012 3011 0
-3012 -2276 2381 0
-3012 2276 -2381 0
3012 -3011 2276 2381 0
3012 -3011 -2276 -2381 0
-3012 2277 -2382 0
-3013 3012 0
-3013 -2277 2382 0
-3013 2277 -2382 0
3013 -3012 2277 2382 0
3013 -3012 -2277 -2382 0
-3013 2278 -2383 0
-3014 3013 0
-3014 -2278 2383 0
-3014 2278 -2383 0
3014 -3013 2278 2383 0
3014 -3013 -2278 -2383 0
-3014 2279 -2384 0
-3015 3014 0
-3015 -2279 2384 0
-3015 2279 -2384 0
3015 -3014 2279 2384 0
3015 -3014 -2279 -2384 0
-3015 2280 -2385 0
-3016 3015 0
-3016 -2280 2385 0
-3016 2280 -2385 0
3016 -3015 2280 2385 0
3016 -3015 -2280 -2385 0
-3016 2281 -2386 0
-3017 3016 0
-3017 -2281 2386 0
-3017 2281 -2386 0
3017 -3016 2281 2386 0
3017 -3016 -2281 -2386 0
-3017 2282 -2387 0
-3018 3017 0
-3018 -2282 2387 0
-3018 2282 -2387 0
3018 -3017 2282 2387 0
3018 -3017 -2282 -2387 0
-3018 2283 -2388 0
-3019 3018 0
-3019 -2283 2388 0
-3019 2283 -2388 0
3019 -3018 2283 2388 0
3019 -3018 -2283 -2388 0
-3019 2284 -2389 0
-3020 3019 0
-3020 -2284 2389 0
-3020 2284 -2389 0
3020 -3019 2284 2389 0
3020 -3019 -2284 -2389 0
-3020 2285 -2390 0
-3021 3020 0
-3021 -2285 2390 0
-3021 2285 -2390 0
3021 -3020 2285 2390 0
3021 -3020 -2285 -2390 0
-3021 2286 -2391 0
-3022 3021 0
-3022 -2286 2391 0
-3022 2286 -2391 0
3022 -3021 2286 2391 0
3022 -3021 -2286 -2391 0
-3022 2287 -2392 0
-3023 3022 0
-3023 -2287 2392 0
-3023 2287 -2392 0
3023 -3022 2287 2392 0
3023 -3022 -2287 -2392 0
-3023 2377 -2482 0
-3024 3023 0
-3024 -2377 2482 0
-3024 2377 -2482 0
3024 -3023 2377 2482 0
3024 -3023 -2377 -2482 0
-3024 2378 -2483 0
-3025 3024 0
-3025 -2378 2483 0
-3025 2378 -2483 0
3025 -3024 2378 2483 0
3025 -3024 -2378 -2483 0
-3025 2379 -2484 0
-3026 3025 0
-3026 -2379 2484 0
-3026 2379 -2484 0
3026 -3025 2379 2484 0
3026 -3025 -2379 -2484 0
-3026 2380 -2485 0
-3027 3026 0
-3027 -2380 2485 0
-3027 2380 -2485 0
3027 -3026 2380 2485 0
3027 -3026 -2380 -2485 0
-3027 2381 -2486 0
-3028 3027 0
-3028 -2381 2486 0
-3028 2381 -2486 0
3028 -3027 2381 2486 0
3028 -3027 -2381 -2486 0
-3028 2382 -2487 0
-3029 3028 0
-3029 -2382 2487 0
-3029 2382 -2487 0
3029 -3028 2382 2487 0
3029 -3028 -2382 -2487 0
-3029 2383 -2488 0
-3030 3029 0
-3030 -2383 2488 0
-3030 2383 -2488 0
3030 -3029 2383 2488 0
3030 -3029 -2383 -2488 0
-3030 2384 -2489 0
-3031 3030 0
-3031 -2384 2489 0
-3031 2384 -2489 0
3031 -3030 2384 2489 0
3031 -3030 -2384 -2489 0
-3031 2385 -2490 0
-3032 3031 0
-3032 -2385 2490 0
-3032 2385 -2490 0
3032 -3031 2385 2490 0
3032 -3031 -2385 -2490 0
-3032 2386 -2491 0
-3033 3032 0
-3033 -2386 2491 0
-3033 2386 -2491 0
3033 -3032 2386 2491 0
3033 -3032 -2386 -2491 0
-3033 2387 -2492 0
-3034 3033 0
-3034 -2387 2492 0
-3034 2387 -2492 0
3034 -3033 2387 2492 0
3034 -3033 -2387 -2492 0
-3034 2388 -2493 0
-3035 3034 0
-3035 -2388 2493 0
-3035 2388 -2493 0
3035 -3034 2388 2493 0
3035 -3034 -2388 -2493 0
-3035 2389 -2494 0
-3036 3035 0
-3036 -2389 2494 0
-3036 2389 -2494 0
3036 -3035 2389 2494 0
3036 -3035 -2389 -2494 0
-3036 2390 -2495 0
-3037 3036 0
-3037 -2390 2495 0
-3037 2390 -2495 0
3037 -3036 2390 2495 0
3037 -3036 -2390 -2495 0
-3037 2391 -2496 0
-3038 3037 0
-3038 -2391 2496 0
-3038 2391 -2496 0
3038 -3037 2391 2496 0
3038 -3037 -2391 -2496 0
-3038 2392 -2497 0
-3039 3038 0
-3039 -2392 2497 0
-3039 2392 -2497 0
3039 -3038 2392 2497 0
3039 -3038 -2392 -2497 0
-3039 2482 -2587 0
-3040 3039 0
-3040 -2482 2587 0
-3040 2482 -2587 0
3040 -3039 2482 2587 0
3040 -3039 -2482 -2587 0
-3040 2483 -2588 0
-3041 3040 0
-3041 -2483 2588 0
-3041 2483 -2588 0
3041 -3040 2483 2588 0
3041 -3040 -2483 -2588 0
-3041 2484 -2589 0
-3042 3041 0
-3042 -2484 2589 0
-3042 2484 -2589 0
3042 -3041 2484 2589 0
3042 -3041 -2484 -2589 0
-3042 2485 -2590 0
-3043 3042 0
-3043 -2485 2590 0
-3043 2485 -2590 0
3043 -3042 2485 2590 0
3043 -3042 -2485 -2590 0
-3043 2486 -2591 0
-3044 3043 0
-3044 -2486 2591 0
-3044 2486 -2591 0
3044 -3043 2486 2591 0
3044 -3043 -2486 -2591 0
-3044 2487 -2592 0
-3045 3044 0
-3045 -2487 2592 0
-3045 2487 -2592 0
3045 -3044 2487 2592 0
3045 -3044 -2487 -2592 0
-3045 2488 -2593 0
-3046 3045 0
-3046 -2488 2593 0
-3046 2488 -2593 0
3046 -3045 2488 2593 0
3046 -3045 -2488 -2593 0
-3046 2489 -2594 0
-3047 3046 0
-3047 -2489 2594 0
-3047 2489 -2594 0
3047 -3046 2489 2594 0
3047 -3046 -2489 -2594 0
-3047 2490 -2595 0
-3048 3047 0
-3048 -2490 2595 0
-3048 2490 -2595 0
3048 -3047 2490 2595 0
3048 -3047 -2490 -2595 0
-3048 2491 -2596 0
-3049 3048 0
-3049 -2491 2596 0
-3049 2491 -2596 0
3049 -3048 2491 2596 0
3049 -3048 -2491 -2596 0
-3049 2492 -2597 0
-3050 3049 0
-3050 -2492 2597 0
-3050 2492 -2597 0
3050 -3049 2492 2597 0
3050 -3049 -2492 -2597 0
-3050 2493 -2598 0
-3051 3050 0
-3051 -2493 2598 0
-3051 2493 -2598 0
3051 -3050 2493 2598 0
3051 -3050 -2493 -2598 0
-3051 2494 -2599 0
-3052 3051 0
-3052 -2494 2599 0
-3052 2494 -2599 0
3052 -3051 2494 2599 0
3052 -3051 -2494 -2599 0
-3052 2495 -2600 0
-3053 3052 0
-3053 -2495 2600 0
-3053 2495 -2600 0
3053 -3052 2495 2600 0
3053 -3052 -2495 -2600 0
-3053 2496 -2601 0
-3054 3053 0
-3054 -2496 2601 0
-3054 2496 -2601 0
3054 -3053 2496 2601 0
3054 -3053 -2496 -2601 0
-3054 2497 -2602 0
-3055 3054 0
-3055 -2497 2602 0
-3055 2497 -2602 0
3055 -3054 2497 2602 0
3055 -3054 -2497 -2602 0
-3055 2587 -2692 0
-3056 3055 0
-3056 -2587 2692 0
-3056 2587 -2692 0
3056 -3055 2587 2692 0
3056 -3055 -2587 -2692 0
-3056 2588 -2693 0
-3057 3056 0
-3057 -2588 2693 0
-3057 2588 -2693 0
3057 -3056 2588 2693 0
3057 -3056 -2588 -2693 0
-3057 2589 -2694 0
-3058 3057 0
-3058 -2589 2694 0
-3058 2589 -2694 0
3058 -3057 2589 2694 0
3058 -3057 -2589 -2694 0
-3058 2590 -2695 0
-3059 3058 0
-3059 -2590 2695 0
-3059 2590 -2695 0
3059 -3058 2590 2695 0
3059 -3058 -2590 -2695 0
-3059 2591 -2696 0
-3060 3059 0
-3060 -2591 2696 0
-3060 2591 -2696 0
3060 -3059 2591 2696 0
3060 -3059 -2591 -2696 0
-3060 2592 -2697 0
-3061 3060 0
-3061 -2592 2697 0
-3061 2592 -2697 0
3061 -3060 2592 2697 0
3061 -3060 -2592 -2697 0
-3061 2593 -2698 0
-3062 3061 0
-3062 -2593 2698 0
-3062 2593 -2698 0
3062 -3061 2593 2698 0
3062 -3061 -2593 -2698 0
-3062 2594 -2699 0
-3063 3062 0
-3063 -2594 2699 0
-3063 2594 -2699 0
3063 -3062 2594 2699 0
3063 -3062 -2594 -2699 0
-3063 2595 -2700 0
-3064 3063 0
-3064 -2595 2700 0
-3064 2595 -2700 0
3064 -3063 2595 2700 0
3064 -3063 -2595 -2700 0
-3064 2596 -2701 0
-3065 3064 0
-3065 -2596 2701 0
-3065 2596 -2701 0
3065 -3064 2596 2701 0
3065 -3064 -2596 -2701 0
-3065 2597 -2702 0
-3066 3065 0
-3066 -2597 2702 0
-3066 2597 -2702 0
3066 -3065 2597 2702 0
3066 -3065 -2597 -2702 0
-3066 2598 -2703 0
-3067 3066 0
-3067 -2598 2703 0
-3067 2598 -2703 0
3067 -3066 2598 2703 0
3067 -3066 -2598 -2703 0
-3067 2599 -2704 0
-3068 3067 0
-3068 -2599 2704 0
-3068 2599 -2704 0
3068 -3067 2599 2704 0
3068 -3067 -2599 -2704 0
-3068 2600 -2705 0
-3069 3068 0
-3069 -2600 2705 0
-3069 2600 -2705 0
3069 -3068 2600 2705 0
3069 -3068 -2600 -2705 0
-3069 2601 -2706 0
-3070 3069 0
-3070 -2601 2706 0
-3070 2601 -2706 0
3070 -3069 2601 2706 0
3070 -3069 -2601 -2706 0
-3070 2602 -2707 0
-3071 3070 0
-3071 -2602 2707 0
-3071 2602 -2707 0
3071 -3070 2602 2707 0
3071 -3070 -2602 -2707 0
-3071 2692 -1537 0
-3072 3071 0
-3072 -2692 1537 0
-3072 2692 -1537 0
3072 -3071 2692 1537 0
3072 -3071 -2692 -1537 0
-3072 2693 -1538 0
-3073 3072 0
-3073 -2693 1538 0
-3073 2693 -1538 0
3073 -3072 2693 1538 0
3073 -3072 -2693 -1538 0
-3073 2694 -1539 0
-3074 3073 0
-3074 -2694 1539 0
-3074 2694 -1539 0
3074 -3073 2694 1539 0
3074 -3073 -2694 -1539 0
-3074 2695 -1540 0
-3075 3074 0
-3075 -2695 1540 0
-3075 2695 -1540 0
3075 -3074 2695 1540 0
3075 -3074 -2695 -1540 0
-3075 2696 -1541 0
-3076 3075 0
-3076 -2696 1541 0
-3076 2696 -1541 0
3076 -3075 2696 1541 0
3076 -3075 -2696 -1541 0
-3076 2697 -1542 0
-3077 3076 0
-3077 -2697 1542 0
-3077 2697 -1542 0
3077 -3076 2697 1542 0
3077 -3076 -2697 -1542 0
-3077 2698 -1543 0
-3078 3077 0
-3078 -2698 1543 0
-3078 2698 -1543 0
3078 -3077 2698 1543 0
3078 -3077 -2698 -1543 0
-3078 2699 -1544 0
-3079 3078 0
-3079 -2699 1544 0
-3079 2699 -1544 0
3079 -3078 2699 1544 0
3079 -3078 -2699 -1544 0
-3079 2700 -1545 0
-3080 3079 0
-3080 -2700 1545 0
-3080 2700 -1545 0
3080 -3079 2700 1545 0
3080 -3079 -2700 -1545 0
-3080 2701 -1546 0
-3081 3080 0
-3081 -2701 1546 0
-3081 2701 -1546 0
3081 -3080 2701 1546 0
3081 -3080 -2701 -1546 0
-3081 2702 -1547 0
-3082 3081 0
-3082 -2702 1547 0
-3082 2702 -1547 0
3082 -3081 2702 1547 0
3082 -3081 -2702 -1547 0
-3082 2703 -1548 0
-3083 3082 0
-3083 -2703 1548 0
-3083 2703 -1548 0
3083 -3082 2703 1548 0
3083 -3082 -2703 -1548 0
-3083 2704 -1549 0
-3084 3083 0
-3084 -2704 1549 0
-3084 2704 -1549 0
3084 -3083 2704 1549 0
3084 -3083 -2704 -1549 0
-3084 2705 -1550 0
-3085 3084 0
-3085 -2705 1550 0
-3085 2705 -1550 0
3085 -3084 2705 1550 0
3085 -3084 -2705 -1550 0
-3085 2706 -1551 0
-3086 3085 0
-3086 -2706 1551 0
-3086 2706 -1551 0
3086 -3085 2706 1551 0
3086 -3085 -2706 -1551 0
-3086 2707 -1552 0
1537 -1747 0
-3087 -1537 1747 0
-3087 1537 -1747 0
3087 1537 1747 0
3087 -1537 -1747 0
-3087 1538 -1748 0
-3088 3087 0
-3088 -1538 1748 0
-3088 1538 -1748 0
3088 -3087 1538 1748 0
3088 -3087 -1538 -1748 0
-3088 1539 -1749 0
-3089 3088 0
-3089 -1539 1749 0
-3089 1539 -1749 0
3089 -3088 1539 1749 0
3089 -3088 -1539 -1749 0
-3089 1540 -1750 0
-3090 3089 0
-3090 -1540 1750 0
-3090 1540 -1750 0
3090 -3089 1540 1750 0
3090 -3089 -1540 -1750 0
-3090 1541 -1751 0
-3091 3090 0
-3091 -1541 1751 0
-3091 1541 -1751 0
3091 -3090 1541 1751 0
3091 -3090 -1541 -1751 0
-3091 1542 -1752 0
-3092 3091 0
-3092 -1542 1752 0
-3092 1542 -1752 0
3092 -3091 1542 1752 0
3092 -3091 -1542 -1752 0
-3092 1543 -1753 0
-3093 3092 0
-3093 -1543 1753 0
-3093 1543 -1753 0
3093 -3092 1543 1753 0
3093 -3092 -1543 -1753 0
-3093 1544 -1754 0
-3094 3093 0
-3094 -1544 1754 0
-3094 1544 -1754 0
3094 -3093 1544 1754 0
3094 -3093 -1544 -1754 0
-3094 1545 -1755 0
-3095 3094 0
-3095 -1545 1755 0
-3095 1545 -1755 0
3095 -3094 1545 1755 0
3095 -3094 -1545 -1755 0
-3095 1546 -1756 0
-3096 3095 0
-3096 -1546 1756 0
-3096 1546 -1756 0
3096 -3095 1546 1756 0
3096 -3095 -1546 -1756 0
-3096 1547 -1757 0
-3097 3096 0
-3097 -1547 1757 0
-3097 1547 -1757 0
3097 -3096 1547 1757 0
3097 -3096 -1547 -1757 0
-3097 1548 -1758 0
-3098 3097 0
-3098 -1548 1758 0
-3098 1548 -1758 0
3098 -3097 1548 1758 0
3098 -3097 -1548 -1758 0
-3098 1549 -1759 0
-3099 3098 0
-3099 -1549 1759 0
-3099 1549 -1759 0
3099 -3098 1549 1759 0
3099 -3098 -1549 -1759 0
-3099 1550 -1760 0
-3100 3099 0
-3100 -1550 1760 0
-3100 1550 -1760 0
3100 -3099 1550 1760 0
3100 -3099 -1550 -1760 0
-3100 1551 -1761 0
-3101 3100 0
-3101 -1551 1761 0
-3101 1551 -1761 0
3101 -3100 1551 1761 0
3101 -3100 -1551 -1761 0
-3101 1552 -1762 0
-3102 3101 0
-3102 -1552 1762 0
-3102 1552 -1762 0
3102 -3101 1552 1762 0
3102 -3101 -1552 -1762 0
-3102 1642 -1852 0
-3103 3102 0
-3103 -1642 1852 0
-3103 1642 -1852 0
3103 -3102 1642 1852 0
3103 -3102 -1642 -1852 0
-3103 1643 -1853 0
-3104 3103 0
-3104 -1643 1853 0
-3104 1643 -1853 0
3104 -3103 1643 1853 0
3104 -3103 -1643 -1853 0
-3104 1644 -1854 0
-3105 3104 0
-3105 -1644 1854 0
-3105 1644 -1854 0
3105 -3104 1644 1854 0
3105 -3104 -1644 -1854 0
-3105 1645 -1855 0
-3106 3105 0
-3106 -1645 1855 0
-3106 1645 -1855 0
3106 -3105 1645 1855 0
3106 -3105 -1645 -1855 0
-3106 1646 -1856 0
-3107 3106 0
-3107 -1646 1856 0
-3107 1646 -1856 0
3107 -3106 1646 1856 0
3107 -3106 -1646 -1856 0
-3107 1647 -1857 0
-3108 3107 0
-3108 -1647 1857 0
-3108 1647 -1857 0
3108 -3107 1647 1857 0
3108 -3107 -1647 -1857 0
-3108 1648 -1858 0
-3109 3108 0
-3109 -1648 1858 0
-3109 1648 -1858 0
3109 -3108 1648 1858 0
3109 -3108 -1648 -1858 0
-3109 1649 -1859 0
-3110 3109 0
-3110 -1649 1859 0
-3110 1649 -1859 0
3110 -3109 1649 1859 0
3110 -3109 -1649 -1859 0
-3110 1650 -1860 0
-3111 3110 0
-3111 -1650 1860 0
-3111 1650 -1860 0
3111 -3110 1650 1860 0
3111 -3110 -1650 -1860 0
-3111 1651 -1861 0
-3112 3111 0
-3112 -1651 1861 0
-3112 1651 -1861 0
3112 -3111 1651 1861 0
3112 -3111 -1651 -1861 0
-3112 1652 -1862 0
-3113 3112 0
-3113 -1652 1862 0
-3113 1652 -1862 0
3113 -3112 1652 1862 0
3113 -3112 -1652 -1862 0
-3113 1653 -1863 0
-3114 3113 0
-3114 -1653 1863 0
-3114 1653 -1863 0
3114 -3113 1653 1863 0
3114 -3113 -1653 -1863 0
-3114 1654 -1864 0
-3115 3114 0
-3115 -1654 1864 0
-3115 1654 -1864 0
3115 -3114 1654 1864 0
3115 -3114 -1654 -1864 0
-3115 1655 -1865 0
-3116 3115 0
-3116 -1655 1865 0
-3116 1655 -1865 0
3116 -3115 1655 1865 0
3116 -3115 -1655 -1865 0
-3116 1656 -1866 0
-3117 3116 0
-3117 -1656 1866 0
-3117 1656 -1866 0
3117 -3116 1656 1866 0
3117 -3116 -1656 -1866 0
-3117 1657 -1867 0
-3118 3117 0
-3118 -1657 1867 0
-3118 1657 -1867 0
3118 -3117 1657 1867 0
3118 -3117 -1657 -1867 0
-3118 1747 -1957 0
-3119 3118 0
-3119 -1747 1957 0
-3119 1747 -1957 0
3119 -3118 1747 1957 0
3119 -3118 -1747 -1957 0
-3119 1748 -1958 0
-3120 3119 0
-3120 -1748 1958 0
-3120 1748 -1958 0
3120 -3119 1748 1958 0
3120 -3119 -1748 -1958 0
-3120 1749 -1959 0
-3121 3120 0
-3121 -1749 1959 0
-3121 1749 -1959 0
3121 -3120 1749 1959 0
3121 -3120 -1749 -1959 0
-3121 1750 -1960 0
-3122 3121 0
-3122 -1750 1960 0
-3122 1750 -1960 0
3122 -3121 1750 1960 0
3122 -3121 -1750 -1960 0
-3122 1751 -1961 0
-3123 3122 0
-3123 -1751 1961 0
-3123 1751 -1961 0
3123 -3122 1751 1961 0
3123 -3122 -1751 -1961 0
-3123 1752 -1962 0
-3124 3123 0
-3124 -1752 1962 0
-3124 1752 -1962 0
3124 -3123 1752 1962 0
3124 -3123 -1752 -1962 0
-3124 1753 -1963 0
-3125 3124 0
-3125 -1753 1963 0
-3125 1753 -1963 0
3125 -3124 1753 1963 0
3125 -3124 -1753 -1963 0
-3125 1754 -1964 0
-3126 3125 0
-3126 -1754 1964 0
-3126 1754 -1964 0
3126 -3125 1754 1964 0
3126 -3125 -1754 -1964 0
-3126 1755 -1965 0
-3127 3126 0
-3127 -1755 1965 0
-3127 1755 -1965 0
3127 -3126 1755 1965 0
3127 -3126 -1755 -1965 0
-3127 1756 -1966 0
-3128 3127 0
-3128 -1756 1966 0
-3128 1756 -1966 0
3128 -3127 1756 1966 0
3128 -3127 -1756 -1966 0
-3128 1757 -1967 0
-3129 3128 0
-3129 -1757 1967 0
-3129 1757 -1967 0
3129 -3128 1757 1967 0
3129 -3128 -1757 -1967 0
-3129 1758 -1968 0
-3130 3129 0
-3130 -1758 1968 0
-3130 1758 -1968 0
3130 -3129 1758 1968 0
3130 -3129 -1758 -1968 0
-3130 1759 -1969 0
-3131 3130 0
-3131 -1759 1969 0
-3131 1759 -1969 0
3131 -3130 1759 1969 0
3131 -3130 -1759 -1969 0
-3131 1760 -1970 0
-3132 3131 0
-3132 -1760 1970 0
-3132 1760 -1970 0
3132 -3131 1760 1970 0
3132 -3131 -1760 -1970 0
-3132 1761 -1971 0
-3133 3132 0
-3133 -1761 1971 0
-3133 1761 -1971 0
3133 -3132 1761 1971 0
3133 -3132 -1761 -1971 0
-3133 1762 -1972 0
-3134 3133 0
-3134 -1762 1972 0
-3134 1762 -1972 0
3134 -3133 1762 1972 0
3134 -3133 -1762 -1972 0
-3134 1852 -2062 0
-3135 3134 0
-3135 -1852 2062 0
-3135 1852 -2062 0
3135 -3134 1852 2062 0
3135 -3134 -1852 -2062 0
-3135 1853 -2063 0
-3136 3135 0
-3136 -1853 2063 0
-3136 1853 -2063 0
3136 -3135 1853 2063 0
3136 -3135 -1853 -2063 0
-3136 1854 -2064 0
-3137 3136 0
-3137 -1854 2064 0
-3137 1854 -2064 0
3137 -3136 1854 2064 0
3137 -3136 -1854 -2064 0
-3137 1855 -2065 0
-3138 3137 0
-3138 -1855 2065 0
-3138 1855 -2065 0
3138 -3137 1855 2065 0
3138 -3137 -1855 -2065 0
-3138 1856 -2066 0
-3139 3138 0
-3139 -1856 2066 0
-3139 1856 -2066 0
3139 -3138 1856 2066 0
3139 -3138 -1856 -2066 0
-3139 1857 -2067 0
-3140 3139 0
-3140 -1857 2067 0
-3140 1857 -2067 0
3140 -3139 1857 2067 0
3140 -3139 -1857 -2067 0
-3140 1858 -2068 0
-3141 3140 0
-3141 -1858 2068 0
-3141 1858 -2068 0
3141 -3140 1858 2068 0
3141 -3140 -1858 -2068 0
-3141 1859 -2069 0
-3142 3141 0
-3142 -1859 2069 0
-3142 1859 -2069 0
3142 -3141 1859 2069 0
3142 -3141 -1859 -2069 0
-3142 1860 -2070 0
-3143 3142 0
-3143 -1860 2070 0
-3143 1860 -2070 0
3143 -3142 1860 2070 0
3143 -3142 -1860 -2070 0
-3143 1861 -2071 0
-3144 3143 0
-3144 -1861 2071 0
-3144 1861 -2071 0
3144 -3143 1861 2071 0
3144 -3143 -1861 -2071 0
-3144 1862 -2072 0
-3145 3144 0
-3145 -1862 2072 0
-3145 1862 -2072 0
3145 -3144 1862 2072 0
3145 -3144 -1862 -2072 0
-3145 1863 -2073 0
-3146 3145 0
-3146 -1863 2073 0
-3146 1863 -2073 0
3146 -3145 1863 2073 0
3146 -3145 -1863 -2073 0
-3146 1864 -2074 0
-3147 3146 0
-3147 -1864 2074 0
-3147 1864 -2074 0
3147 -3146 1864 2074 0
3147 -3146 -1864 -2074 0
-3147 1865 -2075 0
-3148 3147 0
-3148 -1865 2075 0
-3148 1865 -2075 0
3148 -3147 1865 2075 0
3148 -3147 -1865 -2075 0
-3148 1866 -2076 0
-3149 3148 0
-3149 -1866 2076 0
-3149 1866 -2076 0
3149 -3148 1866 2076 0
3149 -3148 -1866 -2076 0
-3149 1867 -2077 0
-3150 3149 0
-3150 -1867 2077 0
-3150 1867 -2077 0
3150 -3149 1867 2077 0
3150 -3149 -1867 -2077 0
-3150 1957 -2167 0
-3151 3150 0
-3151 -1957 2167 0
-3151 1957 -2167 0
3151 -3150 1957 2167 0
3151 -3150 -1957 -2167 0
-3151 1958 -2168 0
-3152 3151 0
-3152 -1958 2168 0
-3152 1958 -2168 0
3152 -3151 1958 2168 0
3152 -3151 -1958 -2168 0
-3152 1959 -2169 0
-3153 3152 0
-3153 -1959 2169 0
-3153 1959 -2169 0
3153 -3152 1959 2169 0
3153 -3152 -1959 -2169 0
-3153 1960 -2170 0
-3154 3153 0
-3154 -1960 2170 0
-3154 1960 -2170 0
3154 -3153 1960 2170 0
3154 -3153 -1960 -2170 0
-3154 1961 -2171 0
-3155 3154 0
-3155 -1961 2171 0
-3155 1961 -2171 0
3155 -3154 1961 2171 0
3155 -3154 -1961 -2171 0
-3155 1962 -2172 0
-3156 3155 0
-3156 -1962 2172 0
-3156 1962 -2172 0
3156 -3155 1962 2172 0
3156 -3155 -1962 -2172 0
-3156 1963 -2173 0
-3157 3156 0
-3157 -1963 2173 0
-3157 1963 -2173 0
3157 -3156 1963 2173 0
3157 -3156 -1963 -2173 0
-3157 1964 -2174 0
-3158 3157 0
-3158 -1964 2174 0
-3158 1964 -2174 0
3158 -3157 1964 2174 0
3158 -3157 -1964 -2174 0
-3158 1965 -2175 0
-3159 3158 0
-3159 -1965 2175 0
-3159 1965 -2175 0
3159 -3158 1965 2175 0
3159 -3158 -1965 -2175 0
-3159 1966 -2176 0
-3160 3159 0
-3160 -1966 2176 0
-3160 1966 -2176 0
3160 -3159 1966 2176 0
3160 -3159 -1966 -2176 0
-3160 1967 -2177 0
-3161 3160 0
-3161 -1967 2177 0
-3161 1967 -2177 0
3161 -3160 1967 2177 0
3161 -3160 -1967 -2177 0
-3161 1968 -2178 0
-3162 3161 0
-3162 -1968 2178 0
-3162 1968 -2178 0
3162 -3161 1968 2178 0
3162 -3161 -1968 -2178 0
-3162 1969 -2179 0
-3163 3162 0
-3163 -1969 2179 0
-3163 1969 -2179 0
3163 -3162 1969 2179 0
3163 -3162 -1969 -2179 0
-3163 1970 -2180 0
-3164 3163 0
-3164 -1970 2180 0
-3164 1970 -2180 0
3164 -3163 1970 2180 0
3164 -3163 -1970 -2180 0
-3164 1971 -2181 0
-3165 3164 0
-3165 -1971 2181 0
-3165 1971 -2181 0
3165 -3164 1971 2181 0
3165 -3164 -1971 -2181 0
-3165 1972 -2182 0
-3166 3165 0
-3166 -1972 2182 0
-3166 1972 -2182 0
3166 -3165 1972 2182 0
3166 -3165 -1972 -2182 0
-3166 2062 -2272 0
-3167 3166 0
-3167 -2062 2272 0
-3167 2062 -2272 0
3167 -3166 2062 2272 0
3167 -3166 -2062 -2272 0
-3167 2063 -2273 0
-3168 3167 0
-3168 -2063 2273 0
-3168 2063 -2273 0
3168 -3167 2063 2273 0
3168 -3167 -2063 -2273 0
-3168 2064 -2274 0
-3169 3168 0
-3169 -2064 2274 0
-3169 2064 -2274 0
3169 -3168 2064 2274 0
3169 -3168 -2064 -2274 0
-3169 2065 -2275 0
-3170 3169 0
-3170 -2065 2275 0
-3170 2065 -2275 0
3170 -3169 2065 2275 0
3170 -3169 -2065 -2275 0
-3170 2066 -2276 0
-3171 3170 0
-3171 -2066 2276 0
-3171 2066 -2276 0
3171 -3170 2066 2276 0
3171 -3170 -2066 -2276 0
-3171 2067 -2277 0
-3172 3171 0
-3172 -2067 2277 0
-3172 2067 -2277 0
3172 -3171 2067 2277 0
3172 -3171 -2067 -2277 0
-3172 2068 -2278 0
-3173 3172 0
-3173 -2068 2278 0
-3173 2068 -2278 0
3173 -3172 2068 2278 0
3173 -3172 -2068 -2278 0
-3173 2069 -2279 0
-3174 3173 0
-3174 -2069 2279 0
-3174 2069 -2279 0
3174 -3173 2069 2279 0
3174 -3173 -2069 -2279 0
-3174 2070 -2280 0
-3175 3174 0
-3175 -2070 2280 0
-3175 2070 -2280 0
3175 -3174 2070 2280 0
3175 -3174 -2070 -2280 0
-3175 2071 -2281 0
-3176 3175 0
-3176 -2071 2281 0
-3176 2071 -2281 0
3176 -3175 2071 2281 0
3176 -3175 -2071 -2281 0
-3176 2072 -2282 0
-3177 3176 0
-3177 -2072 2282 0
-3177 2072 -2282 0
3177 -3176 2072 2282 0
3177 -3176 -2072 -2282 0
-3177 2073 -2283 0
-3178 3177 0
-3178 -2073 2283 0
-3178 2073 -2283 0
3178 -3177 2073 2283 0
3178 -3177 -2073 -2283 0
-3178 2074 -2284 0
-3179 3178 0
-3179 -2074 2284 0
-3179 2074 -2284 0
3179 -3178 2074 2284 0
3179 -3178 -2074 -2284 0
-3179 2075 -2285 0
-3180 3179 0
-3180 -2075 2285 0
-3180 2075 -2285 0
3180 -3179 2075 2285 0
3180 -3179 -2075 -2285 0
-3180 2076 -2286 0
-3181 3180 0
-3181 -2076 2286 0
-3181 2076 -2286 0
3181 -3180 2076 2286 0
3181 -3180 -2076 -2286 0
-3181 2077 -2287 0
-3182 3181 0
-3182 -2077 2287 0
-3182 2077 -2287 0
3182 -3181 2077 2287 0
3182 -3181 -2077 -2287 0
-3182 2167 -2377 0
-3183 3182 0
-3183 -2167 2377 0
-3183 2167 -2377 0
3183 -3182 2167 2377 0
3183 -3182 -2167 -2377 0
-3183 2168 -2378 0
-3184 3183 0
-3184 -2168 2378 0
-3184 2168 -2378 0
3184 -3183 2168 2378 0
3184 -3183 -2168 -2378 0
-3184 2169 -2379 0
-3185 3184 0
-3185 -2169 2379 0
-3185 2169 -2379 0
3185 -3184 2169 2379 0
3185 -3184 -2169 -2379 0
-3185 2170 -2380 0
-3186 3185 0
-3186 -2170 2380 0
-3186 2170 -2380 0
3186 -3185 2170 2380 0
3186 -3185 -2170 -2380 0
-3186 2171 -2381 0
-3187 3186 0
-3187 -2171 2381 0
-3187 2171 -2381 0
3187 -3186 2171 2381 0
3187 -3186 -2171 -2381 0
-3187 2172 -2382 0
-3188 3187 0
-3188 -2172 2382 0
-3188 2172 -2382 0
3188 -3187 2172 2382 0
3188 -3187 -2172 -2382 0
-3188 2173 -2383 0
-3189 3188 0
-3189 -2173 2383 0
-3189 2173 -2383 0
3189 -3188 2173 2383 0
3189 -3188 -2173 -2383 0
-3189 2174 -2384 0
-3190 3189 0
-3190 -2174 2384 0
-3190 2174 -2384 0
3190 -3189 2174 2384 0
3190 -3189 -2174 -2384 0
-3190 2175 -2385 0
-3191 3190 0
-3191 -2175 2385 0
-3191 2175 -2385 0
3191 -3190 2175 2385 0
3191 -3190 -2175 -2385 0
-3191 2176 -2386 0
-3192 3191 0
-3192 -2176 2386 0
-3192 2176 -2386 0
3192 -3191 2176 2386 0
3192 -3191 -2176 -2386 0
-3192 2177 -2387 0
-3193 3192 0
-3193 -2177 2387 0
-3193 2177 -2387 0
3193 -3192 2177 2387 0
3193 -3192 -2177 -2387 0
-3193 2178 -2388 0
-3194 3193 0
-3194 -2178 2388 0
-3194 2178 -2388 0
3194 -3193 2178 2388 0
3194 -3193 -2178 -2388 0
-3194 2179 -2389 0
-3195 3194 0
-3195 -2179 2389 0
-3195 2179 -2389 0
3195 -3194 2179 2389 0
3195 -3194 -2179 -2389 0
-3195 2180 -2390 0
-3196 3195 0
-3196 -2180 2390 0
-3196 2180 -2390 0
3196 -3195 2180 2390 0
3196 -3195 -2180 -2390 0
-3196 2181 -2391 0
-3197 3196 0
-3197 -2181 2391 0
-3197 2181 -2391 0
3197 -3196 2181 2391 0
3197 -3196 -2181 -2391 0
-3197 2182 -2392 0
-3198 3197 0
-3198 -2182 2392 0
-3198 2182 -2392 0
3198 -3197 2182 2392 0
3198 -3197 -2182 -2392 0
-3198 2272 -2482 0
-3199 3198 0
-3199 -2272 2482 0
-3199 2272 -2482 0
3199 -3198 2272 2482 0
3199 -3198 -2272 -2482 0
-3199 2273 -2483 0
-3200 3199 0
-3200 -2273 2483 0
-3200 2273 -2483 0
3200 -3199 2273 2483 0
3200 -3199 -2273 -2483 0
-3200 2274 -2484 0
-3201 3200 0
-3201 -2274 2484 0
-3201 2274 -2484 0
3201 -3200 2274 2484 0
3201 -3200 -2274 -2484 0
-3201 2275 -2485 0
-3202 3201 0
-3202 -2275 2485 0
-3202 2275 -2485 0
3202 -3201 2275 2485 0
3202 -3201 -2275 -2485 0
-3202 2276 -2486 0
-3203 3202 0
-3203 -2276 2486 0
-3203 2276 -2486 0
3203 -3202 2276 2486 0
3203 -3202 -2276 -2486 0
-3203 2277 -2487 0
-3204 3203 0
-3204 -2277 2487 0
-3204 2277 -2487 0
3204 -3203 2277 2487 0
3204 -3203 -2277 -2487 0
-3204 2278 -2488 0
-3205 3204 0
-3205 -2278 2488 0
-3205 2278 -2488 0
3205 -3204 2278 2488 0
3205 -3204 -2278 -2488 0
-3205 2279 -2489 0
-3206 3205 0
-3206 -2279 2489 0
-3206 2279 -2489 0
3206 -3205 2279 2489 0
3206 -3205 -2279 -2489 0
-3206 2280 -2490 0
-3207 3206 0
-3207 -2280 2490 0
-3207 2280 -2490 0
3207 -3206 2280 2490 0
3207 -3206 -2280 -2490 0
-3207 2281 -2491 0
-3208 3207 0
-3208 -2281 2491 0
-3208 2281 -2491 0
3208 -3207 2281 2491 0
3208 -3207 -2281 -2491 0
-3208 2282 -2492 0
-3209 3208 0
-3209 -2282 2492 0
-3209 2282 -2492 0
3209 -3208 2282 2492 0
3209 -3208 -2282 -2492 0
-3209 2283 -2493 0
-3210 3209 0
-3210 -2283 2493 0
-3210 2283 -2493 0
3210 -3209 2283 2493 0
3210 -3209 -2283 -2493 0
-3210 2284 -2494 0
-3211 3210 0
-3211 -2284 2494 0
-3211 2284 -2494 0
3211 -3210 2284 2494 0
3211 -3210 -2284 -2494 0
-3211 2285 -2495 0
-3212 3211 0
-3212 -2285 2495 0
-3212 2285 -2495 0
3212 -3211 2285 2495 0
3212 -3211 -2285 -2495 0
-3212 2286 -2496 0
-3213 3212 0
-3213 -2286 2496 0
-3213 2286 -2496 0
3213 -3212 2286 2496 0
3213 -3212 -2286 -2496 0
-3213 2287 -2497 0
-3214 3213 0
-3214 -2287 2497 0
-3214 2287 -2497 0
3214 -3213 2287 2497 0
3214 -3213 -2287 -2497 0
-3214 2377 -2587 0
-3215 3214 0
-3215 -2377 2587 0
-3215 2377 -2587 0
3215 -3214 2377 2587 0
3215 -3214 -2377 -2587 0
-3215 2378 -2588 0
-3216 3215 0
-3216 -2378 2588 0
-3216 2378 -2588 0
3216 -3215 2378 2588 0
3216 -3215 -2378 -2588 0
-3216 2379 -2589 0
-3217 3216 0
-3217 -2379 2589 0
-3217 2379 -2589 0
3217 -3216 2379 2589 0
3217 -3216 -2379 -2589 0
-3217 2380 -2590 0
-3218 3217 0
-3218 -2380 2590 0
-3218 2380 -2590 0
3218 -3217 2380 2590 0
3218 -3217 -2380 -2590 0
-3218 2381 -2591 0
-3219 3218 0
-3219 -2381 2591 0
-3219 2381 -2591 0
3219 -3218 2381 2591 0
3219 -3218 -2381 -2591 0
-3219 2382 -2592 0
-3220 3219 0
-3220 -2382 2592 0
-3220 2382 -2592 0
3220 -3219 2382 2592 0
3220 -3219 -2382 -2592 0
-3220 2383 -2593 0
-3221 3220 0
-3221 -2383 2593 0
-3221 2383 -2593 0
3221 -3220 2383 2593 0
3221 -3220 -2383 -2593 0
-3221 2384 -2594 0
-3222 3221 0
-3222 -2384 2594 0
-3222 2384 -2594 0
3222 -3221 2384 2594 0
3222 -3221 -2384 -2594 0
-3222 2385 -2595 0
-3223 3222 0
-3223 -2385 2595 0
-3223 2385 -2595 0
3223 -3222 2385 2595 0
3223 -3222 -2385 -2595 0
-3223 2386 -2596 0
-3224 3223 0
-3224 -2386 2596 0
-3224 2386 -2596 0
3224 -3223 2386 2596 0
3224 -3223 -2386 -2596 0
-3224 2387 -2597 0
-3225 3224 0
-3225 -2387 2597 0
-3225 2387 -2597 0
3225 -3224 2387 2597 0
3225 -3224 -2387 -2597 0
-3225 2388 -2598 0
-3226 3225 0
-3226 -2388 2598 0
-3226 2388 -2598 0
3226 -3225 2388 2598 0
3226 -3225 -2388 -2598 0
-3226 2389 -2599 0
-3227 3226 0
-3227 -2389 2599 0
-3227 2389 -2599 0
3227 -3226 2389 2599 0
3227 -3226 -2389 -2599 0
-3227 2390 -2600 0
-3228 3227 0
-3228 -2390 2600 0
-3228 2390 -2600 0
3228 -3227 2390 2600 0
3228 -3227 -2390 -2600 0
-3228 2391 -2601 0
-3229 3228 0
-3229 -2391 2601 0
-3229 2391 -2601 0
3229 -3228 2391 2601 0
3229 -3228 -2391 -2601 0
-3229 2392 -2602 0
-3230 3229 0
-3230 -2392 2602 0
-3230 2392 -2602 0
3230 -3229 2392 2602 0
3230 -3229 -2392 -2602 0
-3230 2482 -2692 0
-3231 3230 0
-3231 -2482 2692 0
-3231 2482 -2692 0
3231 -3230 2482 2692 0
3231 -3230 -2482 -2692 0
-3231 2483 -2693 0
-3232 3231 0
-3232 -2483 2693 0
-3232 2483 -2693 0
3232 -3231 2483 2693 0
3232 -3231 -2483 -2693 0
-3232 2484 -2694 0
-3233 3232 0
-3233 -2484 2694 0
-3233 2484 -2694 0
3233 -3232 2484 2694 0
3233 -3232 -2484 -2694 0
-3233 2485 -2695 0
-3234 3233 0
-3234 -2485 2695 0
-3234 2485 -2695 0
3234 -3233 2485 2695 0
3234 -3233 -2485 -2695 0
-3234 2486 -2696 0
-3235 3234 0
-3235 -2486 2696 0
-3235 2486 -2696 0
3235 -3234 2486 2696 0
3235 -3234 -2486 -2696 0
-3235 2487 -2697 0
-3236 3235 0
-3236 -2487 2697 0
-3236 2487 -2697 0
3236 -3235 2487 2697 0
3236 -3235 -2487 -2697 0
-3236 2488 -2698 0
-3237 3236 0
-3237 -2488 2698 0
-3237 2488 -2698 0
3237 -3236 2488 2698 0
3237 -3236 -2488 -2698 0
-3237 2489 -2699 0
-3238 3237 0
-3238 -2489 2699 0
-3238 2489 -2699 0
3238 -3237 2489 2699 0
3238 -3237 -2489 -2699 0
-3238 2490 -2700 0
-3239 3238 0
-3239 -2490 2700 0
-3239 2490 -2700 0
3239 -3238 2490 2700 0
3239 -3238 -2490 -2700 0
-3239 2491 -2701 0
-3240 3239 0
-3240 -2491 2701 0
-3240 2491 -2701 0
3240 -3239 2491 2701 0
3240 -3239 -2491 -2701 0
-3240 2492 -2702 0
-3241 3240 0
-3241 -2492 2702 0
-3241 2492 -2702 0
3241 -3240 2492 2702 0
3241 -3240 -2492 -2702 0
-3241 2493 -2703 0
-3242 3241 0
-3242 -2493 2703 0
-3242 2493 -2703 0
3242 -3241 2493 2703 0
3242 -3241 -2493 -2703 0
-3242 2494 -2704 0
-3243 3242 0
-3243 -2494 2704 0
-3243 2494 -2704 0
3243 -3242 2494 2704 0
3243 -3242 -2494 -2704 0
-3243 2495 -2705 0
-3244 3243 0
-3244 -2495 2705 0
-3244 2495 -2705 0
3244 -3243 2495 2705 0
3244 -3243 -2495 -2705 0
-3244 2496 -2706 0
-3245 3244 0
-3245 -2496 2706 0
-3245 2496 -2706 0
3245 -3244 2496 2706 0
3245 -3244 -2496 -2706 0
-3245 2497 -2707 0
-3246 3245 0
-3246 -2497 2707 0
-3246 2497 -2707 0
3246 -3245 2497 2707 0
3246 -3245 -2497 -2707 0
-3246 2587 -1537 0
-3247 3246 0
-3247 -2587 1537 0
-3247 2587 -1537 0
3247 -3246 2587 1537 0
3247 -3246 -2587 -1537 0
-3247 2588 -1538 0
-3248 3247 0
-3248 -2588 1538 0
-3248 2588 -1538 0
3248 -3247 2588 1538 0
3248 -3247 -2588 -1538 0
-3248 2589 -1539 0
-3249 3248 0
-3249 -2589 1539 0
-3249 2589 -1539 0
3249 -3248 2589 1539 0
3249 -3248 -2589 -1539 0
-3249 2590 -1540 0
-3250 3249 0
-3250 -2590 1540 0
-3250 2590 -1540 0
3250 -3249 2590 1540 0
3250 -3249 -2590 -1540 0
-3250 2591 -1541 0
-3251 3250 0
-3251 -2591 1541 0
-3251 2591 -1541 0
3251 -3250 2591 1541 0
3251 -3250 -2591 -1541 0
-3251 2592 -1542 0
-3252 3251 0
-3252 -2592 1542 0
-3252 2592 -1542 0
3252 -3251 2592 1542 0
3252 -3251 -2592 -1542 0
-3252 2593 -1543 0
-3253 3252 0
-3253 -2593 1543 0
-3253 2593 -1543 0
3253 -3252 2593 1543 0
3253 -3252 -2593 -1543 0
-3253 2594 -1544 0
-3254 3253 0
-3254 -2594 1544 0
-3254 2594 -1544 0
3254 -3253 2594 1544 0
3254 -3253 -2594 -1544 0
-3254 2595 -1545 0
-3255 3254 0
-3255 -2595 1545 0
-3255 2595 -1545 0
3255 -3254 2595 1545 0
3255 -3254 -2595 -1545 0
-3255 2596 -1546 0
-3256 3255 0
-3256 -2596 1546 0
-3256 2596 -1546 0
3256 -3255 2596 1546 0
3256 -3255 -2596 -1546 0
-3256 2597 -1547 0
-3257 3256 0
-3257 -2597 1547 0
-3257 2597 -1547 0
3257 -3256 2597 1547 0
3257 -3256 -2597 -1547 0
-3257 2598 -1548 0
-3258 3257 0
-3258 -2598 1548 0
-3258 2598 -1548 0
3258 -3257 2598 1548 0
3258 -3257 -2598 -1548 0
-3258 2599 -1549 0
-3259 3258 0
-3259 -2599 1549 0
-3259 2599 -1549 0
3259 -3258 2599 1549 0
3259 -3258 -2599 -1549 0
-3259 2600 -1550 0
-3260 3259 0
-3260 -2600 1550 0
-3260 2600 -1550 0
3260 -3259 2600 1550 0
3260 -3259 -2600 -1550 0
-3260 2601 -1551 0
-3261 3260 0
-3261 -2601 1551 0
-3261 2601 -1551 0
3261 -3260 2601 1551 0
3261 -3260 -2601 -1551 0
-3261 2602 -1552 0
-3262 3261 0
-3262 -2602 1552 0
-3262 2602 -1552 0
3262 -3261 2602 1552 0
3262 -3261 -2602 -1552 0
-3262 2692 -1642 0
-3263 3262 0
-3263 -2692 1642 0
-3263 2692 -1642 0
3263 -3262 2692 1642 0
3263 -3262 -2692 -1642 0
-3263 2693 -1643 0
-3264 3263 0
-3264 -2693 1643 0
-3264 2693 -1643 0
3264 -3263 2693 1643 0
3264 -3263 -2693 -1643 0
-3264 2694 -1644 0
-3265 3264 0
-3265 -2694 1644 0
-3265 2694 -1644 0
3265 -3264 2694 1644 0
3265 -3264 -2694 -1644 0
-3265 2695 -1645 0
-3266 3265 0
-3266 -2695 1645 0
-3266 2695 -1645 0
3266 -3265 2695 1645 0
3266 -3265 -2695 -1645 0
-3266 2696 -1646 0
-3267 3266 0
-3267 -2696 1646 0
-3267 2696 -1646 0
3267 -3266 2696 1646 0
3267 -3266 -2696 -1646 0
-3267 2697 -1647 0
-3268 3267 0
-3268 -2697 1647 0
-3268 2697 -1647 0
3268 -3267 2697 1647 0
3268 -3267 -2697 -1647 0
-3268 2698 -1648 0
-3269 3268 0
-3269 -2698 1648 0
-3269 2698 -1648 0
3269 -3268 2698 1648 0
3269 -3268 -2698 -1648 0
-3269 2699 -1649 0
-3270 3269 0
-3270 -2699 1649 0
-3270 2699 -1649 0
3270 -3269 2699 1649 0
3270 -3269 -2699 -1649 0
-3270 2700 -1650 0
-3271 3270 0
-3271 -2700 1650 0
-3271 2700 -1650 0
3271 -3270 2700 1650 0
3271 -3270 -2700 -1650 0
-3271 2701 -1651 0
-3272 3271 0
-3272 -2701 1651 0
-3272 2701 -1651 0
3272 -3271 2701 1651 0
3272 -3271 -2701 -1651 0
-3272 2702 -1652 0
-3273 3272 0
-3273 -2702 1652 0
-3273 2702 -1652 0
3273 -3272 2702 1652 0
3273 -3272 -2702 -1652 0
-3273 2703 -1653 0
-3274 3273 0
-3274 -2703 1653 0
-3274 2703 -1653 0
3274 -3273 2703 1653 0
3274 -3273 -2703 -1653 0
-3274 2704 -1654 0
-3275 3274 0
-3275 -2704 1654 0
-3275 2704 -1654 0
3275 -3274 2704 1654 0
3275 -3274 -2704 -1654 0
-3275 2705 -1655 0
-3276 3275 0
-3276 -2705 1655 0
-3276 2705 -1655 0
3276 -3275 2705 1655 0
3276 -3275 -2705 -1655 0
-3276 2706 -1656 0
-3277 3276 0
-3277 -2706 1656 0
-3277 2706 -1656 0
3277 -3276 2706 1656 0
3277 -3276 -2706 -1656 0
-3277 2707 -1657 0
1537 -1852 0
-3278 -1537 1852 0
-3278 1537 -1852 0
3278 1537 1852 0
3278 -1537 -1852 0
-3278 1538 -1853 0
-3279 3278 0
-3279 -1538 1853 0
-3279 1538 -1853 0
3279 -3278 1538 1853 0
3279 -3278 -1538 -1853 0
-3279 1539 -1854 0
-3280 3279 0
-3280 -1539 1854 0
-3280 1539 -1854 0
3280 -3279 1539 1854 0
3280 -3279 -1539 -1854 0
-3280 1540 -1855 0
-3281 3280 0
-3281 -1540 1855 0
-3281 1540 -1855 0
3281 -3280 1540 1855 0
3281 -3280 -1540 -1855 0
-3281 1541 -1856 0
-3282 3281 0
-3282 -1541 1856 0
-3282 1541 -1856 0
3282 -3281 1541 1856 0
3282 -3281 -1541 -1856 0
-3282 1542 -1857 0
-3283 3282 0
-3283 -1542 1857 0
-3283 1542 -1857 0
3283 -3282 1542 1857 0
3283 -3282 -1542 -1857 0
-3283 1543 -1858 0
-3284 3283 0
-3284 -1543 1858 0
-3284 1543 -1858 0
3284 -3283 1543 1858 0
3284 -3283 -1543 -1858 0
-3284 1544 -1859 0
-3285 3284 0
-3285 -1544 1859 0
-3285 1544 -1859 0
3285 -3284 1544 1859 0
3285 -3284 -1544 -1859 0
-3285 1545 -1860 0
-3286 3285 0
-3286 -1545 1860 0
-3286 1545 -1860 0
3286 -3285 1545 1860 0
3286 -3285 -1545 -1860 0
-3286 1546 -1861 0
-3287 3286 0
-3287 -1546 1861 0
-3287 1546 -1861 0
3287 -3286 1546 1861 0
3287 -3286 -1546 -1861 0
-3287 1547 -1862 0
-3288 3287 0
-3288 -1547 1862 0
-3288 1547 -1862 0
3288 -3287 1547 1862 0
3288 -3287 -1547 -1862 0
-3288 1548 -1863 0
-3289 3288 0
-3289 -1548 1863 0
-3289 1548 -1863 0
3289 -3288 1548 1863 0
3289 -3288 -1548 -1863 0
-3289 1549 -1864 0
-3290 3289 0
-3290 -1549 1864 0
-3290 1549 -1864 0
3290 -3289 1549 1864 0
3290 -3289 -1549 -1864 0
-3290 1550 -1865 0
-3291 3290 0
-3291 -1550 1865 0
-3291 1550 -1865 0
3291 -3290 1550 1865 0
3291 -3290 -1550 -1865 0
-3291 1551 -1866 0
-3292 3291 0
-3292 -1551 1866 0
-3292 1551 -1866 0
3292 -3291 1551 1866 0
3292 -3291 -1551 -1866 0
-3292 1552 -1867 0
-3293 3292 0
-3293 -1552 1867 0
-3293 1552 -1867 0
3293 -3292 1552 1867 0
3293 -3292 -1552 -1867 0
-3293 1642 -1957 0
-3294 3293 0
-3294 -1642 1957 0
-3294 1642 -1957 0
3294 -3293 1642 1957 0
3294 -3293 -1642 -1957 0
-3294 1643 -1958 0
-3295 3294 0
-3295 -1643 1958 0
-3295 1643 -1958 0
3295 -3294 1643 1958 0
3295 -3294 -1643 -1958 0
-3295 1644 -1959 0
-3296 3295 0
-3296 -1644 1959 0
-3296 1644 -1959 0
3296 -3295 1644 1959 0
3296 -3295 -1644 -1959 0
-3296 1645 -1960 0
-3297 3296 0
-3297 -1645 1960 0
-3297 1645 -1960 0
3297 -3296 1645 1960 0
3297 -3296 -1645 -1960 0
-3297 1646 -1961 0
-3298 3297 0
-3298 -1646 1961 0
-3298 1646 -1961 0
3298 -3297 1646 1961 0
3298 -3297 -1646 -1961 0
-3298 1647 -1962 0
-3299 3298 0
-3299 -1647 1962 0
-3299 1647 -1962 0
3299 -3298 1647 1962 0
3299 -3298 -1647 -1962 0
-3299 1648 -1963 0
-3300 3299 0
-3300 -1648 1963 0
-3300 1648 -1963 0
3300 -3299 1648 1963 0
3300 -3299 -1648 -1963 0
-3300 1649 -1964 0
-3301 3300 0
-3301 -1649 1964 0
-3301 1649 -1964 0
3301 -3300 1649 1964 0
3301 -3300 -1649 -1964 0
-3301 1650 -1965 0
-3302 3301 0
-3302 -1650 1965 0
-3302 1650 -1965 0
3302 -3301 1650 1965 0
3302 -3301 -1650 -1965 0
-3302 1651 -1966 0
-3303 3302 0
-3303 -1651 1966 0
-3303 1651 -1966 0
3303 -3302 1651 1966 0
3303 -3302 -1651 -1966 0
-3303 1652 -1967 0
-3304 3303 0
-3304 -1652 1967 0
-3304 1652 -1967 0
3304 -3303 1652 1967 0
3304 -3303 -1652 -1967 0
-3304 1653 -1968 0
-3305 3304 0
-3305 -1653 1968 0
-3305 1653 -1968 0
3305 -3304 1653 1968 0
3305 -3304 -1653 -1968 0
-3305 1654 -1969 0
-3306 3305 0
-3306 -1654 1969 0
-3306 1654 -1969 0
3306 -3305 1654 1969 0
3306 -3305 -1654 -1969 0
-3306 1655 -1970 0
-3307 3306 0
-3307 -1655 1970 0
-3307 1655 -1970 0
3307 -3306 1655 1970 0
3307 -3306 -1655 -1970 0
-3307 1656 -1971 0
-3308 3307 0
-3308 -1656 1971 0
-3308 1656 -1971 0
3308 -3307 1656 1971 0
3308 -3307 -1656 -1971 0
-3308 1657 -1972 0
-3309 3308 0
-3309 -1657 1972 0
-3309 1657 -1972 0
3309 -3308 1657 1972 0
3309 -3308 -1657 -1972 0
-3309 1747 -2062 0
-3310 3309 0
-3310 -1747 2062 0
-3310 1747 -2062 0
3310 -3309 1747 2062 0
3310 -3309 -1747 -2062 0
-3310 1748 -2063 0
-3311 3310 0
-3311 -1748 2063 0
-3311 1748 -2063 0
3311 -3310 1748 2063 0
3311 -3310 -1748 -2063 0
-3311 1749 -2064 0
-3312 3311 0
-3312 -1749 2064 0
-3312 1749 -2064 0
3312 -3311 1749 2064 0
3312 -3311 -1749 -2064 0
-3312 1750 -2065 0
-3313 3312 0
-3313 -1750 2065 0
-3313 1750 -2065 0
3313 -3312 1750 2065 0
3313 -3312 -1750 -2065 0
-3313 1751 -2066 0
-3314 3313 0
-3314 -1751 2066 0
-3314 1751 -2066 0
3314 -3313 1751 2066 0
3314 -3313 -1751 -2066 0
-3314 1752 -2067 0
-3315 3314 0
-3315 -1752 2067 0
-3315 1752 -2067 0
3315 -3314 1752 2067 0
3315 -3314 -1752 -2067 0
-3315 1753 -2068 0
-3316 3315 0
-3316 -1753 2068 0
-3316 1753 -2068 0
3316 -3315 1753 2068 0
3316 -3315 -1753 -2068 0
-3316 1754 -2069 0
-3317 3316 0
-3317 -1754 2069 0
-3317 1754 -2069 0
3317 -3316 1754 2069 0
3317 -3316 -1754 -2069 0
-3317 1755 -2070 0
-3318 3317 0
-3318 -1755 2070 0
-3318 1755 -2070 0
3318 -3317 1755 2070 0
3318 -3317 -1755 -2070 0
-3318 1756 -2071 0
-3319 3318 0
-3319 -1756 2071 0
-3319 1756 -2071 0
3319 -3318 1756 2071 0
3319 -3318 -1756 -2071 0
-3319 1757 -2072 0
-3320 3319 0
-3320 -1757 2072 0
-3320 1757 -2072 0
3320 -3319 1757 2072 0
3320 -3319 -1757 -2072 0
-3320 1758 -2073 0
-3321 3320 0
-3321 -1758 2073 0
-3321 1758 -2073 0
3321 -3320 1758 2073 0
3321 -3320 -1758 -2073 0
-3321 1759 -2074 0
-3322 3321 0
-3322 -1759 2074 0
-3322 1759 -2074 0
3322 -3321 1759 2074 0
3322 -3321 -1759 -2074 0
-3322 1760 -2075 0
-3323 3322 0
-3323 -1760 2075 0
-3323 1760 -2075 0
3323 -3322 1760 2075 0
3323 -3322 -1760 -2075 0
-3323 1761 -2076 0
-3324 3323 0
-3324 -1761 2076 0
-3324 1761 -2076 0
3324 -3323 1761 2076 0
3324 -3323 -1761 -2076 0
-3324 1762 -2077 0
-3325 3324 0
-3325 -1762 2077 0
-3325 1762 -2077 0
3325 -3324 1762 2077 0
3325 -3324 -1762 -2077 0
-3325 1852 -2167 0
-3326 3325 0
-3326 -1852 2167 0
-3326 1852 -2167 0
3326 -3325 1852 2167 0
3326 -3325 -1852 -2167 0
-3326 1853 -2168 0
-3327 3326 0
-3327 -1853 2168 0
-3327 1853 -2168 0
3327 -3326 1853 2168 0
3327 -3326 -1853 -2168 0
-3327 1854 -2169 0
-3328 3327 0
-3328 -1854 2169 0
-3328 1854 -2169 0
3328 -3327 1854 2169 0
3328 -3327 -1854 -2169 0
-3328 1855 -2170 0
-3329 3328 0
-3329 -1855 2170 0
-3329 1855 -2170 0
3329 -3328 1855 2170 0
3329 -3328 -1855 -2170 0
-3329 1856 -2171 0
-3330 3329 0
-3330 -1856 2171 0
-3330 1856 -2171 0
3330 -3329 1856 2171 0
3330 -3329 -1856 -2171 0
-3330 1857 -2172 0
-3331 3330 0
-3331 -1857 2172 0
-3331 1857 -2172 0
3331 -3330 1857 2172 0
3331 -3330 -1857 -2172 0
-3331 1858 -2173 0
-3332 3331 0
-3332 -1858 2173 0
-3332 1858 -2173 0
3332 -3331 1858 2173 0
3332 -3331 -1858 -2173 0
-3332 1859 -2174 0
-3333 3332 0
-3333 -1859 2174 0
-3333 1859 -2174 0
3333 -3332 1859 2174 0
3333 -3332 -1859 -2174 0
-3333 1860 -2175 0
-3334 3333 0
-3334 -1860 2175 0
-3334 1860 -2175 0
3334 -3333 1860 2175 0
3334 -3333 -1860 -2175 0
-3334 1861 -2176 0
-3335 3334 0
-3335 -1861 2176 0
-3335 1861 -2176 0
3335 -3334 1861 2176 0
3335 -3334 -1861 -2176 0
-3335 1862 -2177 0
-3336 3335 0
-3336 -1862 2177 0
-3336 1862 -2177 0
3336 -3335 1862 2177 0
3336 -3335 -1862 -2177 0
-3336 1863 -2178 0
-3337 3336 0
-3337 -1863 2178 0
-3337 1863 -2178 0
3337 -3336 1863 2178 0
3337 -3336 -1863 -2178 0
-3337 1864 -2179 0
-3338 3337 0
-3338 -1864 2179 0
-3338 1864 -2179 0
3338 -3337 1864 2179 0
3338 -3337 -1864 -2179 0
-3338 1865 -2180 0
-3339 3338 0
-3339 -1865 2180 0
-3339 1865 -2180 0
3339 -3338 1865 2180 0
3339 -3338 -1865 -2180 0
-3339 1866 -2181 0
-3340 3339 0
-3340 -1866 2181 0
-3340 1866 -2181 0
3340 -3339 1866 2181 0
3340 -3339 -1866 -2181 0
-3340 1867 -2182 0
-3341 3340 0
-3341 -1867 2182 0
-3341 1867 -2182 0
3341 -3340 1867 2182 0
3341 -3340 -1867 -2182 0
-3341 1957 -2272 0
-3342 3341 0
-3342 -1957 2272 0
-3342 1957 -2272 0
3342 -3341 1957 2272 0
3342 -3341 -1957 -2272 0
-3342 1958 -2273 0
-3343 3342 0
-3343 -1958 2273 0
-3343 1958 -2273 0
3343 -3342 1958 2273 0
3343 -3342 -1958 -2273 0
-3343 1959 -2274 0
-3344 3343 0
-3344 -1959 2274 0
-3344 1959 -2274 0
3344 -3343 1959 2274 0
3344 -3343 -1959 -2274 0
-3344 1960 -2275 0
-3345 3344 0
-3345 -1960 2275 0
-3345 1960 -2275 0
3345 -3344 1960 2275 0
3345 -3344 -1960 -2275 0
-3345 1961 -2276 0
-3346 3345 0
-3346 -1961 2276 0
-3346 1961 -2276 0
3346 -3345 1961 2276 0
3346 -3345 -1961 -2276 0
-3346 1962 -2277 0
-3347 3346 0
-3347 -1962 2277 0
-3347 1962 -2277 0
3347 -3346 1962 2277 0
3347 -3346 -1962 -2277 0
-3347 1963 -2278 0
-3348 3347 0
-3348 -1963 2278 0
-3348 1963 -2278 0
3348 -3347 1963 2278 0
3348 -3347 -1963 -2278 0
-3348 1964 -2279 0
-3349 3348 0
-3349 -1964 2279 0
-3349 1964 -2279 0
3349 -3348 1964 2279 0
3349 -3348 -1964 -2279 0
-3349 1965 -2280 0
-3350 3349 0
-3350 -1965 2280 0
-3350 1965 -2280 0
3350 -3349 1965 2280 0
3350 -3349 -1965 -2280 0
-3350 1966 -2281 0
-3351 3350 0
-3351 -1966 2281 0
-3351 1966 -2281 0
3351 -3350 1966 2281 0
3351 -3350 -1966 -2281 0
-3351 1967 -2282 0
-3352 3351 0
-3352 -1967 2282 0
-3352 1967 -2282 0
3352 -3351 1967 2282 0
3352 -3351 -1967 -2282 0
-3352 1968 -2283 0
-3353 3352 0
-3353 -1968 2283 0
-3353 1968 -2283 0
3353 -3352 1968 2283 0
3353 -3352 -1968 -2283 0
-3353 1969 -2284 0
-3354 3353 0
-3354 -1969 2284 0
-3354 1969 -2284 0
3354 -3353 1969 2284 0
3354 -3353 -1969 -2284 0
-3354 1970 -2285 0
-3355 3354 0
-3355 -1970 2285 0
-3355 1970 -2285 0
3355 -3354 1970 2285 0
3355 -3354 -1970 -2285 0
-3355 1971 -2286 0
-3356 3355 0
-3356 -1971 2286 0
-3356 1971 -2286 0
3356 -3355 1971 2286 0
3356 -3355 -1971 -2286 0
-3356 1972 -2287 0
-3357 3356 0
-3357 -1972 2287 0
-3357 1972 -2287 0
3357 -3356 1972 2287 0
3357 -3356 -1972 -2287 0
-3357 2062 -2377 0
-3358 3357 0
-3358 -2062 2377 0
-3358 2062 -2377 0
3358 -3357 2062 2377 0
3358 -3357 -2062 -2377 0
-3358 2063 -2378 0
-3359 3358 0
-3359 -2063 2378 0
-3359 2063 -2378 0
3359 -3358 2063 2378 0
3359 -3358 -2063 -2378 0
-3359 2064 -2379 0
-3360 3359 0
-3360 -2064 2379 0
-3360 2064 -2379 0
3360 -3359 2064 2379 0
3360 -3359 -2064 -2379 0
-3360 2065 -2380 0
-3361 3360 0
-3361 -2065 2380 0
-3361 2065 -2380 0
3361 -3360 2065 2380 0
3361 -3360 -2065 -2380 0
-3361 2066 -2381 0
-3362 3361 0
-3362 -2066 2381 0
-3362 2066 -2381 0
3362 -3361 2066 2381 0
3362 -3361 -2066 -2381 0
-3362 2067 -2382 0
-3363 3362 0
-3363 -2067 2382 0
-3363 2067 -2382 0
3363 -3362 2067 2382 0
3363 -3362 -2067 -2382 0
-3363 2068 -2383 0
-3364 3363 0
-3364 -2068 2383 0
-3364 2068 -2383 0
3364 -3363 2068 2383 0
3364 -3363 -2068 -2383 0
-3364 2069 -2384 0
-3365 3364 0
-3365 -2069 2384 0
-3365 2069 -2384 0
3365 -3364 2069 2384 0
3365 -3364 -2069 -2384 0
-3365 2070 -2385 0
-3366 3365 0
-3366 -2070 2385 0
-3366 2070 -2385 0
3366 -3365 2070 2385 0
3366 -3365 -2070 -2385 0
-3366 2071 -2386 0
-3367 3366 0
-3367 -2071 2386 0
-3367 2071 -2386 0
3367 -3366 2071 2386 0
3367 -3366 -2071 -2386 0
-3367 2072 -2387 0
-3368 3367 0
-3368 -2072 2387 0
-3368 2072 -2387 0
3368 -3367 2072 2387 0
3368 -3367 -2072 -2387 0
-3368 2073 -2388 0
-3369 3368 0
-3369 -2073 2388 0
-3369 2073 -2388 0
3369 -3368 2073 2388 0
3369 -3368 -2073 -2388 0
-3369 2074 -2389 0
-3370 3369 0
-3370 -2074 2389 0
-3370 2074 -2389 0
3370 -3369 2074 2389 0
3370 -3369 -2074 -2389 0
-3370 2075 -2390 0
-3371 3370 0
-3371 -2075 2390 0
-3371 2075 -2390 0
3371 -3370 2075 2390 0
3371 -3370 -2075 -2390 0
-3371 2076 -2391 0
-3372 3371 0
-3372 -2076 2391 0
-3372 2076 -2391 0
3372 -3371 2076 2391 0
3372 -3371 -2076 -2391 0
-3372 2077 -2392 0
-3373 3372 0
-3373 -2077 2392 0
-3373 2077 -2392 0
3373 -3372 2077 2392 0
3373 -3372 -2077 -2392 0
-3373 2167 -2482 0
-3374 3373 0
-3374 -2167 2482 0
-3374 2167 -2482 0
3374 -3373 2167 2482 0
3374 -3373 -2167 -2482 0
-3374 2168 -2483 0
-3375 3374 0
-3375 -2168 2483 0
-3375 2168 -2483 0
3375 -3374 2168 2483 0
3375 -3374 -2168 -2483 0
-3375 2169 -2484 0
-3376 3375 0
-3376 -2169 2484 0
-3376 2169 -2484 0
3376 -3375 2169 2484 0
3376 -3375 -2169 -2484 0
-3376 2170 -2485 0
-3377 3376 0
-3377 -2170 2485 0
-3377 2170 -2485 0
3377 -3376 2170 2485 0
3377 -3376 -2170 -2485 0
-3377 2171 -2486 0
-3378 3377 0
-3378 -2171 2486 0
-3378 2171 -2486 0
3378 -3377 2171 2486 0
3378 -3377 -2171 -2486 0
-3378 2172 -2487 0
-3379 3378 0
-3379 -2172 2487 0
-3379 2172 -2487 0
3379 -3378 2172 2487 0
3379 -3378 -2172 -2487 0
-3379 2173 -2488 0
-3380 3379 0
-3380 -2173 2488 0
-3380 2173 -2488 0
3380 -3379 2173 2488 0
3380 -3379 -2173 -2488 0
-3380 2174 -2489 0
-3381 3380 0
-3381 -2174 2489 0
-3381 2174 -2489 0
3381 -3380 2174 2489 0
3381 -3380 -2174 -2489 0
-3381 2175 -2490 0
-3382 3381 0
-3382 -2175 2490 0
-3382 2175 -2490 0
3382 -3381 2175 2490 0
3382 -3381 -2175 -2490 0
-3382 2176 -2491 0
-3383 3382 0
-3383 -2176 2491 0
-3383 2176 -2491 0
3383 -3382 2176 2491 0
3383 -3382 -2176 -2491 0
-3383 2177 -2492 0
-3384 3383 0
-3384 -2177 2492 0
-3384 2177 -2492 0
3384 -3383 2177 2492 0
3384 -3383 -2177 -2492 0
-3384 2178 -2493 0
-3385 3384 0
-3385 -2178 2493 0
-3385 2178 -2493 0
3385 -3384 2178 2493 0
3385 -3384 -2178 -2493 0
-3385 2179 -2494 0
-3386 3385 0
-3386 -2179 2494 0
-3386 2179 -2494 0
3386 -3385 2179 2494 0
3386 -3385 -2179 -2494 0
-3386 2180 -2495 0
-3387 3386 0
-3387 -2180 2495 0
-3387 2180 -2495 0
3387 -3386 2180 2495 0
3387 -3386 -2180 -2495 0
-3387 2181 -2496 0
-3388 3387 0
-3388 -2181 2496 0
-3388 2181 -2496 0
3388 -3387 2181 2496 0
3388 -3387 -2181 -2496 0
-3388 2182 -2497 0
-3389 3388 0
-3389 -2182 2497 0
-3389 2182 -2497 0
3389 -3388 2182 2497 0
3389 -3388 -2182 -2497 0
-3389 2272 -2587 0
-3390 3389 0
-3390 -2272 2587 0
-3390 2272 -2587 0
3390 -3389 2272 2587 0
3390 -3389 -2272 -2587 0
-3390 2273 -2588 0
-3391 3390 0
-3391 -2273 2588 0
-3391 2273 -2588 0
3391 -3390 2273 2588 0
3391 -3390 -2273 -2588 0
-3391 2274 -2589 0
-3392 3391 0
-3392 -2274 2589 0
-3392 2274 -2589 0
3392 -3391 2274 2589 0
3392 -3391 -2274 -2589 0
-3392 2275 -2590 0
-3393 3392 0
-3393 -2275 2590 0
-3393 2275 -2590 0
3393 -3392 2275 2590 0
3393 -3392 -2275 -2590 0
-3393 2276 -2591 0
-3394 3393 0
-3394 -2276 2591 0
-3394 2276 -2591 0
3394 -3393 2276 2591 0
3394 -3393 -2276 -2591 0
-3394 2277 -2592 0
-3395 3394 0
-3395 -2277 2592 0
-3395 2277 -2592 0
3395 -3394 2277 2592 0
3395 -3394 -2277 -2592 0
-3395 2278 -2593 0
-3396 3395 0
-3396 -2278 2593 0
-3396 2278 -2593 0
3396 -3395 2278 2593 0
3396 -3395 -2278 -2593 0
-3396 2279 -2594 0
-3397 3396 0
-3397 -2279 2594 0
-3397 2279 -2594 0
3397 -3396 2279 2594 0
3397 -3396 -2279 -2594 0
-3397 2280 -2595 0
-3398 3397 0
-3398 -2280 2595 0
-3398 2280 -2595 0
3398 -3397 2280 2595 0
3398 -3397 -2280 -2595 0
-3398 2281 -2596 0
-3399 3398 0
-3399 -2281 2596 0
-3399 2281 -2596 0
3399 -3398 2281 2596 0
3399 -3398 -2281 -2596 0
-3399 2282 -2597 0
-3400 3399 0
-3400 -2282 2597 0
-3400 2282 -2597 0
3400 -3399 2282 2597 0
3400 -3399 -2282 -2597 0
-3400 2283 -2598 0
-3401 3400 0
-3401 -2283 2598 0
-3401 2283 -2598 0
3401 -3400 2283 2598 0
3401 -3400 -2283 -2598 0
-3401 2284 -2599 0
-3402 3401 0
-3402 -2284 2599 0
-3402 2284 -2599 0
3402 -3401 2284 2599 0
3402 -3401 -2284 -2599 0
-3402 2285 -2600 0
-3403 3402 0
-3403 -2285 2600 0
-3403 2285 -2600 0
3403 -3402 2285 2600 0
3403 -3402 -2285 -2600 0
-3403 2286 -2601 0
-3404 3403 0
-3404 -2286 2601 0
-3404 2286 -2601 0
3404 -3403 2286 2601 0
3404 -3403 -2286 -2601 0
-3404 2287 -2602 0
-3405 3404 0
-3405 -2287 2602 0
-3405 2287 -2602 0
3405 -3404 2287 2602 0
3405 -3404 -2287 -2602 0
-3405 2377 -2692 0
-3406 3405 0
-3406 -2377 2692 0
-3406 2377 -2692 0
3406 -3405 2377 2692 0
3406 -3405 -2377 -2692 0
-3406 2378 -2693 0
-3407 3406 0
-3407 -2378 2693 0
-3407 2378 -2693 0
3407 -3406 2378 2693 0
3407 -3406 -2378 -2693 0
-3407 2379 -2694 0
-3408 3407 0
-3408 -2379 2694 0
-3408 2379 -2694 0
3408 -3407 2379 2694 0
3408 -3407 -2379 -2694 0
-3408 2380 -2695 0
-3409 3408 0
-3409 -2380 2695 0
-3409 2380 -2695 0
3409 -3408 2380 2695 0
3409 -3408 -2380 -2695 0
-3409 2381 -2696 0
-3410 3409 0
-3410 -2381 2696 0
-3410 2381 -2696 0
3410 -3409 2381 2696 0
3410 -3409 -2381 -2696 0
-3410 2382 -2697 0
-3411 3410 0
-3411 -2382 2697 0
-3411 2382 -2697 0
3411 -3410 2382 2697 0
3411 -3410 -2382 -2697 0
-3411 2383 -2698 0
-3412 3411 0
-3412 -2383 2698 0
-3412 2383 -2698 0
3412 -3411 2383 2698 0
3412 -3411 -2383 -2698 0
-3412 2384 -2699 0
-3413 3412 0
-3413 -2384 2699 0
-3413 2384 -2699 0
3413 -3412 2384 2699 0
3413 -3412 -2384 -2699 0
-3413 2385 -2700 0
-3414 3413 0
-3414 -2385 2700 0
-3414 2385 -2700 0
3414 -3413 2385 2700 0
3414 -3413 -2385 -2700 0
-3414 2386 -2701 0
-3415 3414 0
-3415 -2386 2701 0
-3415 2386 -2701 0
3415 -3414 2386 2701 0
3415 -3414 -2386 -2701 0
-3415 2387 -2702 0
-3416 3415 0
-3416 -2387 2702 0
-3416 2387 -2702 0
3416 -3415 2387 2702 0
3416 -3415 -2387 -2702 0
-3416 2388 -2703 0
-3417 3416 0
-3417 -2388 2703 0
-3417 2388 -2703 0
3417 -3416 2388 2703 0
3417 -3416 -2388 -2703 0
-3417 2389 -2704 0
-3418 3417 0
-3418 -2389 2704 0
-3418 2389 -2704 0
3418 -3417 2389 2704 0
3418 -3417 -2389 -2704 0
-3418 2390 -2705 0
-3419 3418 0
-3419 -2390 2705 0
-3419 2390 -2705 0
3419 -3418 2390 2705 0
3419 -3418 -2390 -2705 0
-3419 2391 -2706 0
-3420 3419 0
-3420 -2391 2706 0
-3420 2391 -2706 0
3420 -3419 2391 2706 0
3420 -3419 -2391 -2706 0
-3420 2392 -2707 0
-3421 3420 0
-3421 -2392 2707 0
-3421 2392 -2707 0
3421 -3420 2392 2707 0
3421 -3420 -2392 -2707 0
-3421 2482 -1537 0
-3422 3421 0
-3422 -2482 1537 0
-3422 2482 -1537 0
3422 -3421 2482 1537 0
3422 -3421 -2482 -1537 0
-3422 2483 -1538 0
-3423 3422 0
-3423 -2483 1538 0
-3423 2483 -1538 0
3423 -3422 2483 1538 0
3423 -3422 -2483 -1538 0
-3423 2484 -1539 0
-3424 3423 0
-3424 -2484 1539 0
-3424 2484 -1539 0
3424 -3423 2484 1539 0
3424 -3423 -2484 -1539 0
-3424 2485 -1540 0
-3425 3424 0
-3425 -2485 1540 0
-3425 2485 -1540 0
3425 -3424 2485 1540 0
3425 -3424 -2485 -1540 0
-3425 2486 -1541 0
-3426 3425 0
-3426 -2486 1541 0
-3426 2486 -1541 0
3426 -3425 2486 1541 0
3426 -3425 -2486 -1541 0
-3426 2487 -1542 0
-3427 3426 0
-3427 -2487 1542 0
-3427 2487 -1542 0
3427 -3426 2487 1542 0
3427 -3426 -2487 -1542 0
-3427 2488 -1543 0
-3428 3427 0
-3428 -2488 1543 0
-3428 2488 -1543 0
3428 -3427 2488 1543 0
3428 -3427 -2488 -1543 0
-3428 2489 -1544 0
-3429 3428 0
-3429 -2489 1544 0
-3429 2489 -1544 0
3429 -3428 2489 1544 0
3429 -3428 -2489 -1544 0
-3429 2490 -1545 0
-3430 3429 0
-3430 -2490 1545 0
-3430 2490 -1545 0
3430 -3429 2490 1545 0
3430 -3429 -2490 -1545 0
-3430 2491 -1546 0
-3431 3430 0
-3431 -2491 1546 0
-3431 2491 -1546 0
3431 -3430 2491 1546 0
3431 -3430 -2491 -1546 0
-3431 2492 -1547 0
-3432 3431 0
-3432 -2492 1547 0
-3432 2492 -1547 0
3432 -3431 2492 1547 0
3432 -3431 -2492 -1547 0
-3432 2493 -1548 0
-3433 3432 0
-3433 -2493 1548 0
-3433 2493 -1548 0
3433 -3432 2493 1548 0
3433 -3432 -2493 -1548 0
-3433 2494 -1549 0
-3434 3433 0
-3434 -2494 1549 0
-3434 2494 -1549 0
3434 -3433 2494 1549 0
3434 -3433 -2494 -1549 0
-3434 2495 -1550 0
-3435 3434 0
-3435 -2495 1550 0
-3435 2495 -1550 0
3435 -3434 2495 1550 0
3435 -3434 -2495 -1550 0
-3435 2496 -1551 0
-3436 3435 0
-3436 -2496 1551 0
-3436 2496 -1551 0
3436 -3435 2496 1551 0
3436 -3435 -2496 -1551 0
-3436 2497 -1552 0
-3437 3436 0
-3437 -2497 1552 0
-3437 2497 -1552 0
3437 -3436 2497 1552 0
3437 -3436 -2497 -1552 0
-3437 2587 -1642 0
-3438 3437 0
-3438 -2587 1642 0
-3438 2587 -1642 0
3438 -3437 2587 1642 0
3438 -3437 -2587 -1642 0
-3438 2588 -1643 0
-3439 3438 0
-3439 -2588 1643 0
-3439 2588 -1643 0
3439 -3438 2588 1643 0
3439 -3438 -2588 -1643 0
-3439 2589 -1644 0
-3440 3439 0
-3440 -2589 1644 0
-3440 2589 -1644 0
3440 -3439 2589 1644 0
3440 -3439 -2589 -1644 0
-3440 2590 -1645 0
-3441 3440 0
-3441 -2590 1645 0
-3441 2590 -1645 0
3441 -3440 2590 1645 0
3441 -3440 -2590 -1645 0
-3441 2591 -1646 0
-3442 3441 0
-3442 -2591 1646 0
-3442 2591 -1646 0
3442 -3441 2591 1646 0
3442 -3441 -2591 -1646 0
-3442 2592 -1647 0
-3443 3442 0
-3443 -2592 1647 0
-3443 2592 -1647 0
3443 -3442 2592 1647 0
3443 -3442 -2592 -1647 0
-3443 2593 -1648 0
-3444 3443 0
-3444 -2593 1648 0
-3444 2593 -1648 0
3444 -3443 2593 1648 0
3444 -3443 -2593 -1648 0
-3444 2594 -1649 0
-3445 3444 0
-3445 -2594 1649 0
-3445 2594 -1649 0
3445 -3444 2594 1649 0
3445 -3444 -2594 -1649 0
-3445 2595 -1650 0
-3446 3445 0
-3446 -2595 1650 0
-3446 2595 -1650 0
3446 -3445 2595 1650 0
3446 -3445 -2595 -1650 0
-3446 2596 -1651 0
-3447 3446 0
-3447 -2596 1651 0
-3447 2596 -1651 0
3447 -3446 2596 1651 0
3447 -3446 -2596 -1651 0
-3447 2597 -1652 0
-3448 3447 0
-3448 -2597 1652 0
-3448 2597 -1652 0
3448 -3447 2597 1652 0
3448 -3447 -2597 -1652 0
-3448 2598 -1653 0
-3449 3448 0
-3449 -2598 1653 0
-3449 2598 -1653 0
3449 -3448 2598 1653 0
3449 -3448 -2598 -1653 0
-3449 2599 -1654 0
-3450 3449 0
-3450 -2599 1654 0
-3450 2599 -1654 0
3450 -3449 2599 1654 0
3450 -3449 -2599 -1654 0
-3450 2600 -1655 0
-3451 3450 0
-3451 -2600 1655 0
-3451 2600 -1655 0
3451 -3450 2600 1655 0
3451 -3450 -2600 -1655 0
-3451 2601 -1656 0
-3452 3451 0
-3452 -2601 1656 0
-3452 2601 -1656 0
3452 -3451 2601 1656 0
3452 -3451 -2601 -1656 0
-3452 2602 -1657 0
-3453 3452 0
-3453 -2602 1657 0
-3453 2602 -1657 0
3453 -3452 2602 1657 0
3453 -3452 -2602 -1657 0
-3453 2692 -1747 0
-3454 3453 0
-3454 -2692 1747 0
-3454 2692 -1747 0
3454 -3453 2692 1747 0
3454 -3453 -2692 -1747 0
-3454 2693 -1748 0
-3455 3454 0
-3455 -2693 1748 0
-3455 2693 -1748 0
3455 -3454 2693 1748 0
3455 -3454 -2693 -1748 0
-3455 2694 -1749 0
-3456 3455 0
-3456 -2694 1749 0
-3456 2694 -1749 0
3456 -3455 2694 1749 0
3456 -3455 -2694 -1749 0
-3456 2695 -1750 0
-3457 3456 0
-3457 -2695 1750 0
-3457 2695 -1750 0
3457 -3456 2695 1750 0
3457 -3456 -2695 -1750 0
-3457 2696 -1751 0
-3458 3457 0
-3458 -2696 1751 0
-3458 2696 -1751 0
3458 -3457 2696 1751 0
3458 -3457 -2696 -1751 0
-3458 2697 -1752 0
-3459 3458 0
-3459 -2697 1752 0
-3459 2697 -1752 0
3459 -3458 2697 1752 0
3459 -3458 -2697 -1752 0
-3459 2698 -1753 0
-3460 3459 0
-3460 -2698 1753 0
-3460 2698 -1753 0
3460 -3459 2698 1753 0
3460 -3459 -2698 -1753 0
-3460 2699 -1754 0
-3461 3460 0
-3461 -2699 1754 0
-3461 2699 -1754 0
3461 -3460 2699 1754 0
3461 -3460 -2699 -1754 0
-3461 2700 -1755 0
-3462 3461 0
-3462 -2700 1755 0
-3462 2700 -1755 0
3462 -3461 2700 1755 0
3462 -3461 -2700 -1755 0
-3462 2701 -1756 0
-3463 3462 0
-3463 -2701 1756 0
-3463 2701 -1756 0
3463 -3462 2701 1756 0
3463 -3462 -2701 -1756 0
-3463 2702 -1757 0
-3464 3463 0
-3464 -2702 1757 0
-3464 2702 -1757 0
3464 -3463 2702 1757 0
3464 -3463 -2702 -1757 0
-3464 2703 -1758 0
-3465 3464 0
-3465 -2703 1758 0
-3465 2703 -1758 0
3465 -3464 2703 1758 0
3465 -3464 -2703 -1758 0
-3465 2704 -1759 0
-3466 3465 0
-3466 -2704 1759 0
-3466 2704 -1759 0
3466 -3465 2704 1759 0
3466 -3465 -2704 -1759 0
-3466 2705 -1760 0
-3467 3466 0
-3467 -2705 1760 0
-3467 2705 -1760 0
3467 -3466 2705 1760 0
3467 -3466 -2705 -1760 0
-3467 2706 -1761 0
-3468 3467 0
-3468 -2706 1761 0
-3468 2706 -1761 0
3468 -3467 2706 1761 0
3468 -3467 -2706 -1761 0
-3468 2707 -1762 0
1537 -1957 0
-3469 -1537 1957 0
-3469 1537 -1957 0
3469 1537 1957 0
3469 -1537 -1957 0
-3469 1538 -1958 0
-3470 3469 0
-3470 -1538 1958 0
-3470 1538 -1958 0
3470 -3469 1538 1958 0
3470 -3469 -1538 -1958 0
-3470 1539 -1959 0
-3471 3470 0
-3471 -1539 1959 0
-3471 1539 -1959 0
3471 -3470 1539 1959 0
3471 -3470 -1539 -1959 0
-3471 1540 -1960 0
-3472 3471 0
-3472 -1540 1960 0
-3472 1540 -1960 0
3472 -3471 1540 1960 0
3472 -3471 -1540 -1960 0
-3472 1541 -1961 0
-3473 3472 0
-3473 -1541 1961 0
-3473 1541 -1961 0
3473 -3472 1541 1961 0
3473 -3472 -1541 -1961 0
-3473 1542 -1962 0
-3474 3473 0
-3474 -1542 1962 0
-3474 1542 -1962 0
3474 -3473 1542 1962 0
3474 -3473 -1542 -1962 0
-3474 1543 -1963 0
-3475 3474 0
-3475 -1543 1963 0
-3475 1543 -1963 0
3475 -3474 1543 1963 0
3475 -3474 -1543 -1963 0
-3475 1544 -1964 0
-3476 3475 0
-3476 -1544 1964 0
-3476 1544 -1964 0
3476 -3475 1544 1964 0
3476 -3475 -1544 -1964 0
-3476 1545 -1965 0
-3477 3476 0
-3477 -1545 1965 0
-3477 1545 -1965 0
3477 -3476 1545 1965 0
3477 -3476 -1545 -1965 0
-3477 1546 -1966 0
-3478 3477 0
-3478 -1546 1966 0
-3478 1546 -1966 0
3478 -3477 1546 1966 0
3478 -3477 -1546 -1966 0
-3478 1547 -1967 0
-3479 3478 0
-3479 -1547 1967 0
-3479 1547 -1967 0
3479 -3478 1547 1967 0
3479 -3478 -1547 -1967 0
-3479 1548 -1968 0
-3480 3479 0
-3480 -1548 1968 0
-3480 1548 -1968 0
3480 -3479 1548 1968 0
3480 -3479 -1548 -1968 0
-3480 1549 -1969 0
-3481 3480 0
-3481 -1549 1969 0
-3481 1549 -1969 0
3481 -3480 1549 1969 0
3481 -3480 -1549 -1969 0
-3481 1550 -1970 0
-3482 3481 0
-3482 -1550 1970 0
-3482 1550 -1970 0
3482 -3481 1550 1970 0
3482 -3481 -1550 -1970 0
-3482 1551 -1971 0
-3483 3482 0
-3483 -1551 1971 0
-3483 1551 -1971 0
3483 -3482 1551 1971 0
3483 -3482 -1551 -1971 0
-3483 1552 -1972 0
-3484 3483 0
-3484 -1552 1972 0
-3484 1552 -1972 0
3484 -3483 1552 1972 0
3484 -3483 -1552 -1972 0
-3484 1642 -2062 0
-3485 3484 0
-3485 -1642 2062 0
-3485 1642 -2062 0
3485 -3484 1642 2062 0
3485 -3484 -1642 -2062 0
-3485 1643 -2063 0
-3486 3485 0
-3486 -1643 2063 0
-3486 1643 -2063 0
3486 -3485 1643 2063 0
3486 -3485 -1643 -2063 0
-3486 1644 -2064 0
-3487 3486 0
-3487 -1644 2064 0
-3487 1644 -2064 0
3487 -3486 1644 2064 0
3487 -3486 -1644 -2064 0
-3487 1645 -2065 0
-3488 3487 0
-3488 -1645 2065 0
-3488 1645 -2065 0
3488 -3487 1645 2065 0
3488 -3487 -1645 -2065 0
-3488 1646 -2066 0
-3489 3488 0
-3489 -1646 2066 0
-3489 1646 -2066 0
3489 -3488 1646 2066 0
3489 -3488 -1646 -2066 0
-3489 1647 -2067 0
-3490 3489 0
-3490 -1647 2067 0
-3490 1647 -2067 0
3490 -3489 1647 2067 0
3490 -3489 -1647 -2067 0
-3490 1648 -2068 0
-3491 3490 0
-3491 -1648 2068 0
-3491 1648 -2068 0
3491 -3490 1648 2068 0
3491 -3490 -1648 -2068 0
-3491 1649 -2069 0
-3492 3491 0
-3492 -1649 2069 0
-3492 1649 -2069 0
3492 -3491 1649 2069 0
3492 -3491 -1649 -2069 0
-3492 1650 -2070 0
-3493 3492 0
-3493 -1650 2070 0
-3493 1650 -2070 0
3493 -3492 1650 2070 0
3493 -3492 -1650 -2070 0
-3493 1651 -2071 0
-3494 3493 0
-3494 -1651 2071 0
-3494 1651 -2071 0
3494 -3493 1651 2071 0
3494 -3493 -1651 -2071 0
-3494 1652 -2072 0
-3495 3494 0
-3495 -1652 2072 0
-3495 1652 -2072 0
3495 -3494 1652 2072 0
3495 -3494 -1652 -2072 0
-3495 1653 -2073 0
-3496 3495 0
-3496 -1653 2073 0
-3496 1653 -2073 0
3496 -3495 1653 2073 0
3496 -3495 -1653 -2073 0
-3496 1654 -2074 0
-3497 3496 0
-3497 -1654 2074 0
-3497 1654 -2074 0
3497 -3496 1654 2074 0
3497 -3496 -1654 -2074 0
-3497 1655 -2075 0
-3498 3497 0
-3498 -1655 2075 0
-3498 1655 -2075 0
3498 -3497 1655 2075 0
3498 -3497 -1655 -2075 0
-3498 1656 -2076 0
-3499 3498 0
-3499 -1656 2076 0
-3499 1656 -2076 0
3499 -3498 1656 2076 0
3499 -3498 -1656 -2076 0
-3499 1657 -2077 0
-3500 3499 0
-3500 -1657 2077 0
-3500 1657 -2077 0
3500 -3499 1657 2077 0
3500 -3499 -1657 -2077 0
-3500 1747 -2167 0
-3501 3500 0
-3501 -1747 2167 0
-3501 1747 -2167 0
3501 -3500 1747 2167 0
3501 -3500 -1747 -2167 0
-3501 1748 -2168 0
-3502 3501 0
-3502 -1748 2168 0
-3502 1748 -2168 0
3502 -3501 1748 2168 0
3502 -3501 -1748 -2168 0
-3502 1749 -2169 0
-3503 3502 0
-3503 -1749 2169 0
-3503 1749 -2169 0
3503 -3502 1749 2169 0
3503 -3502 -1749 -2169 0
-3503 1750 -2170 0
-3504 3503 0
-3504 -1750 2170 0
-3504 1750 -2170 0
3504 -3503 1750 2170 0
3504 -3503 -1750 -2170 0
-3504 1751 -2171 0
-3505 3504 0
-3505 -1751 2171 0
-3505 1751 -2171 0
3505 -3504 1751 2171 0
3505 -3504 -1751 -2171 0
-3505 1752 -2172 0
-3506 3505 0
-3506 -1752 2172 0
-3506 1752 -2172 0
3506 -3505 1752 2172 0
3506 -3505 -1752 -2172 0
-3506 1753 -2173 0
-3507 3506 0
-3507 -1753 2173 0
-3507 1753 -2173 0
3507 -3506 1753 2173 0
3507 -3506 -1753 -2173 0
-3507 1754 -2174 0
-3508 3507 0
-3508 -1754 2174 0
-3508 1754 -2174 0
3508 -3507 1754 2174 0
3508 -3507 -1754 -2174 0
-3508 1755 -2175 0
-3509 3508 0
-3509 -1755 2175 0
-3509 1755 -2175 0
3509 -3508 1755 2175 0
3509 -3508 -1755 -2175 0
-3509 1756 -2176 0
-3510 3509 0
-3510 -1756 2176 0
-3510 1756 -2176 0
3510 -3509 1756 2176 0
3510 -3509 -1756 -2176 0
-3510 1757 -2177 0
-3511 3510 0
-3511 -1757 2177 0
-3511 1757 -2177 0
3511 -3510 1757 2177 0
3511 -3510 -1757 -2177 0
-3511 1758 -2178 0
-3512 3511 0
-3512 -1758 2178 0
-3512 1758 -2178 0
3512 -3511 1758 2178 0
3512 -3511 -1758 -2178 0
-3512 1759 -2179 0
-3513 3512 0
-3513 -1759 2179 0
-3513 1759 -2179 0
3513 -3512 1759 2179 0
3513 -3512 -1759 -2179 0
-3513 1760 -2180 0
-3514 3513 0
-3514 -1760 2180 0
-3514 1760 -2180 0
3514 -3513 1760 2180 0
3514 -3513 -1760 -2180 0
-3514 1761 -2181 0
-3515 3514 0
-3515 -1761 2181 0
-3515 1761 -2181 0
3515 -3514 1761 2181 0
3515 -3514 -1761 -2181 0
-3515 1762 -2182 0
-3516 3515 0
-3516 -1762 2182 0
-3516 1762 -2182 0
3516 -3515 1762 2182 0
3516 -3515 -1762 -2182 0
-3516 1852 -2272 0
-3517 3516 0
-3517 -1852 2272 0
-3517 1852 -2272 0
3517 -3516 1852 2272 0
3517 -3516 -1852 -2272 0
-3517 1853 -2273 0
-3518 3517 0
-3518 -1853 2273 0
-3518 1853 -2273 0
3518 -3517 1853 2273 0
3518 -3517 -1853 -2273 0
-3518 1854 -2274 0
-3519 3518 0
-3519 -1854 2274 0
-3519 1854 -2274 0
3519 -3518 1854 2274 0
3519 -3518 -1854 -2274 0
-3519 1855 -2275 0
-3520 3519 0
-3520 -1855 2275 0
-3520 1855 -2275 0
3520 -3519 1855 2275 0
3520 -3519 -1855 -2275 0
-3520 1856 -2276 0
-3521 3520 0
-3521 -1856 2276 0
-3521 1856 -2276 0
3521 -3520 1856 2276 0
3521 -3520 -1856 -2276 0
-3521 1857 -2277 0
-3522 3521 0
-3522 -1857 2277 0
-3522 1857 -2277 0
3522 -3521 1857 2277 0
3522 -3521 -1857 -2277 0
-3522 1858 -2278 0
-3523 3522 0
-3523 -1858 2278 0
-3523 1858 -2278 0
3523 -3522 1858 2278 0
3523 -3522 -1858 -2278 0
-3523 1859 -2279 0
-3524 3523 0
-3524 -1859 2279 0
-3524 1859 -2279 0
3524 -3523 1859 2279 0
3524 -3523 -1859 -2279 0
-3524 1860 -2280 0
-3525 3524 0
-3525 -1860 2280 0
-3525 1860 -2280 0
3525 -3524 1860 2280 0
3525 -3524 -1860 -2280 0
-3525 1861 -2281 0
-3526 3525 0
-3526 -1861 2281 0
-3526 1861 -2281 0
3526 -3525 1861 2281 0
3526 -3525 -1861 -2281 0
-3526 1862 -2282 0
-3527 3526 0
-3527 -1862 2282 0
-3527 1862 -2282 0
3527 -3526 1862 2282 0
3527 -3526 -1862 -2282 0
-3527 1863 -2283 0
-3528 3527 0
-3528 -1863 2283 0
-3528 1863 -2283 0
3528 -3527 1863 2283 0
3528 -3527 -1863 -2283 0
-3528 1864 -2284 0
-3529 3528 0
-3529 -1864 2284 0
-3529 1864 -2284 0
3529 -3528 1864 2284 0
3529 -3528 -1864 -2284 0
-3529 1865 -2285 0
-3530 3529 0
-3530 -1865 2285 0
-3530 1865 -2285 0
3530 -3529 1865 2285 0
3530 -3529 -1865 -2285 0
-3530 1866 -2286 0
-3531 3530 0
-3531 -1866 2286 0
-3531 1866 -2286 0
3531 -3530 1866 2286 0
3531 -3530 -1866 -2286 0
-3531 1867 -2287 0
-3532 3531 0
-3532 -1867 2287 0
-3532 1867 -2287 0
3532 -3531 1867 2287 0
3532 -3531 -1867 -2287 0
-3532 1957 -2377 0
-3533 3532 0
-3533 -1957 2377 0
-3533 1957 -2377 0
3533 -3532 1957 2377 0
3533 -3532 -1957 -2377 0
-3533 1958 -2378 0
-3534 3533 0
-3534 -1958 2378 0
-3534 1958 -2378 0
3534 -3533 1958 2378 0
3534 -3533 -1958 -2378 0
-3534 1959 -2379 0
-3535 3534 0
-3535 -1959 2379 0
-3535 1959 -2379 0
3535 -3534 1959 2379 0
3535 -3534 -1959 -2379 0
-3535 1960 -2380 0
-3536 3535 0
-3536 -1960 2380 0
-3536 1960 -2380 0
3536 -3535 1960 2380 0
3536 -3535 -1960 -2380 0
-3536 1961 -2381 0
-3537 3536 0
-3537 -1961 2381 0
-3537 1961 -2381 0
3537 -3536 1961 2381 0
3537 -3536 -1961 -2381 0
-3537 1962 -2382 0
-3538 3537 0
-3538 -1962 2382 0
-3538 1962 -2382 0
3538 -3537 1962 2382 0
3538 -3537 -1962 -2382 0
-3538 1963 -2383 0
-3539 3538 0
-3539 -1963 2383 0
-3539 1963 -2383 0
3539 -3538 1963 2383 0
3539 -3538 -1963 -2383 0
-3539 1964 -2384 0
-3540 3539 0
-3540 -1964 2384 0
-3540 1964 -2384 0
3540 -3539 1964 2384 0
3540 -3539 -1964 -2384 0
-3540 1965 -2385 0
-3541 3540 0
-3541 -1965 2385 0
-3541 1965 -2385 0
3541 -3540 1965 2385 0
3541 -3540 -1965 -2385 0
-3541 1966 -2386 0
-3542 3541 0
-3542 -1966 2386 0
-3542 1966 -2386 0
3542 -3541 1966 2386 0
3542 -3541 -1966 -2386 0
-3542 1967 -2387 0
-3543 3542 0
-3543 -1967 2387 0
-3543 1967 -2387 0
3543 -3542 1967 2387 0
3543 -3542 -1967 -2387 0
-3543 1968 -2388 0
-3544 3543 0
-3544 -1968 2388 0
-3544 1968 -2388 0
3544 -3543 1968 2388 0
3544 -3543 -1968 -2388 0
-3544 1969 -2389 0
-3545 3544 0
-3545 -1969 2389 0
-3545 1969 -2389 0
3545 -3544 1969 2389 0
3545 -3544 -1969 -2389 0
-3545 1970 -2390 0
-3546 3545 0
-3546 -1970 2390 0
-3546 1970 -2390 0
3546 -3545 1970 2390 0
3546 -3545 -1970 -2390 0
-3546 1971 -2391 0
-3547 3546 0
-3547 -1971 2391 0
-3547 1971 -2391 0
3547 -3546 1971 2391 0
3547 -3546 -1971 -2391 0
-3547 1972 -2392 0
-3548 3547 0
-3548 -1972 2392 0
-3548 1972 -2392 0
3548 -3547 1972 2392 0
3548 -3547 -1972 -2392 0
-3548 2062 -2482 0
-3549 3548 0
-3549 -2062 2482 0
-3549 2062 -2482 0
3549 -3548 2062 2482 0
3549 -3548 -2062 -2482 0
-3549 2063 -2483 0
-3550 3549 0
-3550 -2063 2483 0
-3550 2063 -2483 0
3550 -3549 2063 2483 0
3550 -3549 -2063 -2483 0
-3550 2064 -2484 0
-3551 3550 0
-3551 -2064 2484 0
-3551 2064 -2484 0
3551 -3550 2064 2484 0
3551 -3550 -2064 -2484 0
-3551 2065 -2485 0
-3552 3551 0
-3552 -2065 2485 0
-3552 2065 -2485 0
3552 -3551 2065 2485 0
3552 -3551 -2065 -2485 0
-3552 2066 -2486 0
-3553 3552 0
-3553 -2066 2486 0
-3553 2066 -2486 0
3553 -3552 2066 2486 0
3553 -3552 -2066 -2486 0
-3553 2067 -2487 0
-3554 3553 0
-3554 -2067 2487 0
-3554 2067 -2487 0
3554 -3553 2067 2487 0
3554 -3553 -2067 -2487 0
-3554 2068 -2488 0
-3555 3554 0
-3555 -2068 2488 0
-3555 2068 -2488 0
3555 -3554 2068 2488 0
3555 -3554 -2068 -2488 0
-3555 2069 -2489 0
-3556 3555 0
-3556 -2069 2489 0
-3556 2069 -2489 0
3556 -3555 2069 2489 0
3556 -3555 -2069 -2489 0
-3556 2070 -2490 0
-3557 3556 0
-3557 -2070 2490 0
-3557 2070 -2490 0
3557 -3556 2070 2490 0
3557 -3556 -2070 -2490 0
-3557 2071 -2491 0
-3558 3557 0
-3558 -2071 2491 0
-3558 2071 -2491 0
3558 -3557 2071 2491 0
3558 -3557 -2071 -2491 0
-3558 2072 -2492 0
-3559 3558 0
-3559 -2072 2492 0
-3559 2072 -2492 0
3559 -3558 2072 2492 0
3559 -3558 -2072 -2492 0
-3559 2073 -2493 0
-3560 3559 0
-3560 -2073 2493 0
-3560 2073 -2493 0
3560 -3559 2073 2493 0
3560 -3559 -2073 -2493 0
-3560 2074 -2494 0
-3561 3560 0
-3561 -2074 2494 0
-3561 2074 -2494 0
3561 -3560 2074 2494 0
3561 -3560 -2074 -2494 0
-3561 2075 -2495 0
-3562 3561 0
-3562 -2075 2495 0
-3562 2075 -2495 0
3562 -3561 2075 2495 0
3562 -3561 -2075 -2495 0
-3562 2076 -2496 0
-3563 3562 0
-3563 -2076 2496 0
-3563 2076 -2496 0
3563 -3562 2076 2496 0
3563 -3562 -2076 -2496 0
-3563 2077 -2497 0
-3564 3563 0
-3564 -2077 2497 0
-3564 2077 -2497 0
3564 -3563 2077 2497 0
3564 -3563 -2077 -2497 0
-3564 2167 -2587 0
-3565 3564 0
-3565 -2167 2587 0
-3565 2167 -2587 0
3565 -3564 2167 2587 0
3565 -3564 -2167 -2587 0
-3565 2168 -2588 0
-3566 3565 0
-3566 -2168 2588 0
-3566 2168 -2588 0
3566 -3565 2168 2588 0
3566 -3565 -2168 -2588 0
-3566 2169 -2589 0
-3567 3566 0
-3567 -2169 2589 0
-3567 2169 -2589 0
3567 -3566 2169 2589 0
3567 -3566 -2169 -2589 0
-3567 2170 -2590 0
-3568 3567 0
-3568 -2170 2590 0
-3568 2170 -2590 0
3568 -3567 2170 2590 0
3568 -3567 -2170 -2590 0
-3568 2171 -2591 0
-3569 3568 0
-3569 -2171 2591 0
-3569 2171 -2591 0
3569 -3568 2171 2591 0
3569 -3568 -2171 -2591 0
-3569 2172 -2592 0
-3570 3569 0
-3570 -2172 2592 0
-3570 2172 -2592 0
3570 -3569 2172 2592 0
3570 -3569 -2172 -2592 0
-3570 2173 -2593 0
-3571 3570 0
-3571 -2173 2593 0
-3571 2173 -2593 0
3571 -3570 2173 2593 0
3571 -3570 -2173 -2593 0
-3571 2174 -2594 0
-3572 3571 0
-3572 -2174 2594 0
-3572 2174 -2594 0
3572 -3571 2174 2594 0
3572 -3571 -2174 -2594 0
-3572 2175 -2595 0
-3573 3572 0
-3573 -2175 2595 0
-3573 2175 -2595 0
3573 -3572 2175 2595 0
3573 -3572 -2175 -2595 0
-3573 2176 -2596 0
-3574 3573 0
-3574 -2176 2596 0
-3574 2176 -2596 0
3574 -3573 2176 2596 0
3574 -3573 -2176 -2596 0
-3574 2177 -2597 0
-3575 3574 0
-3575 -2177 2597 0
-3575 2177 -2597 0
3575 -3574 2177 2597 0
3575 -3574 -2177 -2597 0
-3575 2178 -2598 0
-3576 3575 0
-3576 -2178 2598 0
-3576 2178 -2598 0
3576 -3575 2178 2598 0
3576 -3575 -2178 -2598 0
-3576 2179 -2599 0
-3577 3576 0
-3577 -2179 2599 0
-3577 2179 -2599 0
3577 -3576 2179 2599 0
3577 -3576 -2179 -2599 0
-3577 2180 -2600 0
-3578 3577 0
-3578 -2180 2600 0
-3578 2180 -2600 0
3578 -3577 2180 2600 0
3578 -3577 -2180 -2600 0
-3578 2181 -2601 0
-3579 3578 0
-3579 -2181 2601 0
-3579 2181 -2601 0
3579 -3578 2181 2601 0
3579 -3578 -2181 -2601 0
-3579 2182 -2602 0
-3580 3579 0
-3580 -2182 2602 0
-3580 2182 -2602 0
3580 -3579 2182 2602 0
3580 -3579 -2182 -2602 0
-3580 2272 -2692 0
-3581 3580 0
-3581 -2272 2692 0
-3581 2272 -2692 0
3581 -3580 2272 2692 0
3581 -3580 -2272 -2692 0
-3581 2273 -2693 0
-3582 3581 0
-3582 -2273 2693 0
-3582 2273 -2693 0
3582 -3581 2273 2693 0
3582 -3581 -2273 -2693 0
-3582 2274 -2694 0
-3583 3582 0
-3583 -2274 2694 0
-3583 2274 -2694 0
3583 -3582 2274 2694 0
3583 -3582 -2274 -2694 0
-3583 2275 -2695 0
-3584 3583 0
-3584 -2275 2695 0
-3584 2275 -2695 0
3584 -3583 2275 2695 0
3584 -3583 -2275 -2695 0
-3584 2276 -2696 0
-3585 3584 0
-3585 -2276 2696 0
-3585 2276 -2696 0
3585 -3584 2276 2696 0
3585 -3584 -2276 -2696 0
-3585 2277 -2697 0
-3586 3585 0
-3586 -2277 2697 0
-3586 2277 -2697 0
3586 -3585 2277 2697 0
3586 -3585 -2277 -2697 0
-3586 2278 -2698 0
-3587 3586 0
-3587 -2278 2698 0
-3587 2278 -2698 0
3587 -3586 2278 2698 0
3587 -3586 -2278 -2698 0
-3587 2279 -2699 0
-3588 3587 0
-3588 -2279 2699 0
-3588 2279 -2699 0
3588 -3587 2279 2699 0
3588 -3587 -2279 -2699 0
-3588 2280 -2700 0
-3589 3588 0
-3589 -2280 2700 0
-3589 2280 -2700 0
3589 -3588 2280 2700 0
3589 -3588 -2280 -2700 0
-3589 2281 -2701 0
-3590 3589 0
-3590 -2281 2701 0
-3590 2281 -2701 0
3590 -3589 2281 2701 0
3590 -3589 -2281 -2701 0
-3590 2282 -2702 0
-3591 3590 0
-3591 -2282 2702 0
-3591 2282 -2702 0
3591 -3590 2282 2702 0
3591 -3590 -2282 -2702 0
-3591 2283 -2703 0
-3592 3591 0
-3592 -2283 2703 0
-3592 2283 -2703 0
3592 -3591 2283 2703 0
3592 -3591 -2283 -2703 0
-3592 2284 -2704 0
-3593 3592 0
-3593 -2284 2704 0
-3593 2284 -2704 0
3593 -3592 2284 2704 0
3593 -3592 -2284 -2704 0
-3593 2285 -2705 0
-3594 3593 0
-3594 -2285 2705 0
-3594 2285 -2705 0
3594 -3593 2285 2705 0
3594 -3593 -2285 -2705 0
-3594 2286 -2706 0
-3595 3594 0
-3595 -2286 2706 0
-3595 2286 -2706 0
3595 -3594 2286 2706 0
3595 -3594 -2286 -2706 0
-3595 2287 -2707 0
-3596 3595 0
-3596 -2287 2707 0
-3596 2287 -2707 0
3596 -3595 2287 2707 0
3596 -3595 -2287 -2707 0
-3596 2377 -1537 0
-3597 3596 0
-3597 -2377 1537 0
-3597 2377 -1537 0
3597 -3596 2377 1537 0
3597 -3596 -2377 -1537 0
-3597 2378 -1538 0
-3598 3597 0
-3598 -2378 1538 0
-3598 2378 -1538 0
3598 -3597 2378 1538 0
3598 -3597 -2378 -1538 0
-3598 2379 -1539 0
-3599 3598 0
-3599 -2379 1539 0
-3599 2379 -1539 0
3599 -3598 2379 1539 0
3599 -3598 -2379 -1539 0
-3599 2380 -1540 0
-3600 3599 0
-3600 -2380 1540 0
-3600 2380 -1540 0
3600 -3599 2380 1540 0
3600 -3599 -2380 -1540 0
-3600 2381 -1541 0
-3601 3600 0
-3601 -2381 1541 0
-3601 2381 -1541 0
3601 -3600 2381 1541 0
3601 -3600 -2381 -1541 0
-3601 2382 -1542 0
-3602 3601 0
-3602 -2382 1542 0
-3602 2382 -1542 0
3602 -3601 2382 1542 0
3602 -3601 -2382 -1542 0
-3602 2383 -1543 0
-3603 3602 0
-3603 -2383 1543 0
-3603 2383 -1543 0
3603 -3602 2383 1543 0
3603 -3602 -2383 -1543 0
-3603 2384 -1544 0
-3604 3603 0
-3604 -2384 1544 0
-3604 2384 -1544 0
3604 -3603 2384 1544 0
3604 -3603 -2384 -1544 0
-3604 2385 -1545 0
-3605 3604 0
-3605 -2385 1545 0
-3605 2385 -1545 0
3605 -3604 2385 1545 0
3605 -3604 -2385 -1545 0
-3605 2386 -1546 0
-3606 3605 0
-3606 -2386 1546 0
-3606 2386 -1546 0
3606 -3605 2386 1546 0
3606 -3605 -2386 -1546 0
-3606 2387 -1547 0
-3607 3606 0
-3607 -2387 1547 0
-3607 2387 -1547 0
3607 -3606 2387 1547 0
3607 -3606 -2387 -1547 0
-3607 2388 -1548 0
-3608 3607 0
-3608 -2388 1548 0
-3608 2388 -1548 0
3608 -3607 2388 1548 0
3608 -3607 -2388 -1548 0
-3608 2389 -1549 0
-3609 3608 0
-3609 -2389 1549 0
-3609 2389 -1549 0
3609 -3608 2389 1549 0
3609 -3608 -2389 -1549 0
-3609 2390 -1550 0
-3610 3609 0
-3610 -2390 1550 0
-3610 2390 -1550 0
3610 -3609 2390 1550 0
3610 -3609 -2390 -1550 0
-3610 2391 -1551 0
-3611 3610 0
-3611 -2391 1551 0
-3611 2391 -1551 0
3611 -3610 2391 1551 0
3611 -3610 -2391 -1551 0
-3611 2392 -1552 0
-3612 3611 0
-3612 -2392 1552 0
-3612 2392 -1552 0
3612 -3611 2392 1552 0
3612 -3611 -2392 -1552 0
-3612 2482 -1642 0
-3613 3612 0
-3613 -2482 1642 0
-3613 2482 -1642 0
3613 -3612 2482 1642 0
3613 -3612 -2482 -1642 0
-3613 2483 -1643 0
-3614 3613 0
-3614 -2483 1643 0
-3614 2483 -1643 0
3614 -3613 2483 1643 0
3614 -3613 -2483 -1643 0
-3614 2484 -1644 0
-3615 3614 0
-3615 -2484 1644 0
-3615 2484 -1644 0
3615 -3614 2484 1644 0
3615 -3614 -2484 -1644 0
-3615 2485 -1645 0
-3616 3615 0
-3616 -2485 1645 0
-3616 2485 -1645 0
3616 -3615 2485 1645 0
3616 -3615 -2485 -1645 0
-3616 2486 -1646 0
-3617 3616 0
-3617 -2486 1646 0
-3617 2486 -1646 0
3617 -3616 2486 1646 0
3617 -3616 -2486 -1646 0
-3617 2487 -1647 0
-3618 3617 0
-3618 -2487 1647 0
-3618 2487 -1647 0
3618 -3617 2487 1647 0
3618 -3617 -2487 -1647 0
-3618 2488 -1648 0
-3619 3618 0
-3619 -2488 1648 0
-3619 2488 -1648 0
3619 -3618 2488 1648 0
3619 -3618 -2488 -1648 0
-3619 2489 -1649 0
-3620 3619 0
-3620 -2489 1649 0
-3620 2489 -1649 0
3620 -3619 2489 1649 0
3620 -3619 -2489 -1649 0
-3620 2490 -1650 0
-3621 3620 0
-3621 -2490 1650 0
-3621 2490 -1650 0
3621 -3620 2490 1650 0
3621 -3620 -2490 -1650 0
-3621 2491 -1651 0
-3622 3621 0
-3622 -2491 1651 0
-3622 2491 -1651 0
3622 -3621 2491 1651 0
3622 -3621 -2491 -1651 0
-3622 2492 -1652 0
-3623 3622 0
-3623 -2492 1652 0
-3623 2492 -1652 0
3623 -3622 2492 1652 0
3623 -3622 -2492 -1652 0
-3623 2493 -1653 0
-3624 3623 0
-3624 -2493 1653 0
-3624 2493 -1653 0
3624 -3623 2493 1653 0
3624 -3623 -2493 -1653 0
-3624 2494 -1654 0
-3625 3624 0
-3625 -2494 1654 0
-3625 2494 -1654 0
3625 -3624 2494 1654 0
3625 -3624 -2494 -1654 0
-3625 2495 -1655 0
-3626 3625 0
-3626 -2495 1655 0
-3626 2495 -1655 0
3626 -3625 2495 1655 0
3626 -3625 -2495 -1655 0
-3626 2496 -1656 0
-3627 3626 0
-3627 -2496 1656 0
-3627 2496 -1656 0
3627 -3626 2496 1656 0
3627 -3626 -2496 -1656 0
-3627 2497 -1657 0
-3628 3627 0
-3628 -2497 1657 0
-3628 2497 -1657 0
3628 -3627 2497 1657 0
3628 -3627 -2497 -1657 0
-3628 2587 -1747 0
-3629 3628 0
-3629 -2587 1747 0
-3629 2587 -1747 0
3629 -3628 2587 1747 0
3629 -3628 -2587 -1747 0
-3629 2588 -1748 0
-3630 3629 0
-3630 -2588 1748 0
-3630 2588 -1748 0
3630 -3629 2588 1748 0
3630 -3629 -2588 -1748 0
-3630 2589 -1749 0
-3631 3630 0
-3631 -2589 1749 0
-3631 2589 -1749 0
3631 -3630 2589 1749 0
3631 -3630 -2589 -1749 0
-3631 2590 -1750 0
-3632 3631 0
-3632 -2590 1750 0
-3632 2590 -1750 0
3632 -3631 2590 1750 0
3632 -3631 -2590 -1750 0
-3632 2591 -1751 0
-3633 3632 0
-3633 -2591 1751 0
-3633 2591 -1751 0
3633 -3632 2591 1751 0
3633 -3632 -2591 -1751 0
-3633 2592 -1752 0
-3634 3633 0
-3634 -2592 1752 0
-3634 2592 -1752 0
3634 -3633 2592 1752 0
3634 -3633 -2592 -1752 0
-3634 2593 -1753 0
-3635 3634 0
-3635 -2593 1753 0
-3635 2593 -1753 0
3635 -3634 2593 1753 0
3635 -3634 -2593 -1753 0
-3635 2594 -1754 0
-3636 3635 0
-3636 -2594 1754 0
-3636 2594 -1754 0
3636 -3635 2594 1754 0
3636 -3635 -2594 -1754 0
-3636 2595 -1755 0
-3637 3636 0
-3637 -2595 1755 0
-3637 2595 -1755 0
3637 -3636 2595 1755 0
3637 -3636 -2595 -1755 0
-3637 2596 -1756 0
-3638 3637 0
-3638 -2596 1756 0
-3638 2596 -1756 0
3638 -3637 2596 1756 0
3638 -3637 -2596 -1756 0
-3638 2597 -1757 0
-3639 3638 0
-3639 -2597 1757 0
-3639 2597 -1757 0
3639 -3638 2597 1757 0
3639 -3638 -2597 -1757 0
-3639 2598 -1758 0
-3640 3639 0
-3640 -2598 1758 0
-3640 2598 -1758 0
3640 -3639 2598 1758 0
3640 -3639 -2598 -1758 0
-3640 2599 -1759 0
-3641 3640 0
-3641 -2599 1759 0
-3641 2599 -1759 0
3641 -3640 2599 1759 0
3641 -3640 -2599 -1759 0
-3641 2600 -1760 0
-3642 3641 0
-3642 -2600 1760 0
-3642 2600 -1760 0
3642 -3641 2600 1760 0
3642 -3641 -2600 -1760 0
-3642 2601 -1761 0
-3643 3642 0
-3643 -2601 1761 0
-3643 2601 -1761 0
3643 -3642 2601 1761 0
3643 -3642 -2601 -1761 0
-3643 2602 -1762 0
-3644 3643 0
-3644 -2602 1762 0
-3644 2602 -1762 0
3644 -3643 2602 1762 0
3644 -3643 -2602 -1762 0
-3644 2692 -1852 0
-3645 3644 0
-3645 -2692 1852 0
-3645 2692 -1852 0
3645 -3644 2692 1852 0
3645 -3644 -2692 -1852 0
-3645 2693 -1853 0
-3646 3645 0
-3646 -2693 1853 0
-3646 2693 -1853 0
3646 -3645 2693 1853 0
3646 -3645 -2693 -1853 0
-3646 2694 -1854 0
-3647 3646 0
-3647 -2694 1854 0
-3647 2694 -1854 0
3647 -3646 2694 1854 0
3647 -3646 -2694 -1854 0
-3647 2695 -1855 0
-3648 3647 0
-3648 -2695 1855 0
-3648 2695 -1855 0
3648 -3647 2695 1855 0
3648 -3647 -2695 -1855 0
-3648 2696 -1856 0
-3649 3648 0
-3649 -2696 1856 0
-3649 2696 -1856 0
3649 -3648 2696 1856 0
3649 -3648 -2696 -1856 0
-3649 2697 -1857 0
-3650 3649 0
-3650 -2697 1857 0
-3650 2697 -1857 0
3650 -3649 2697 1857 0
3650 -3649 -2697 -1857 0
-3650 2698 -1858 0
-3651 3650 0
-3651 -2698 1858 0
-3651 2698 -1858 0
3651 -3650 2698 1858 0
3651 -3650 -2698 -1858 0
-3651 2699 -1859 0
-3652 3651 0
-3652 -2699 1859 0
-3652 2699 -1859 0
3652 -3651 2699 1859 0
3652 -3651 -2699 -1859 0
-3652 2700 -1860 0
-3653 3652 0
-3653 -2700 1860 0
-3653 2700 -1860 0
3653 -3652 2700 1860 0
3653 -3652 -2700 -1860 0
-3653 2701 -1861 0
-3654 3653 0
-3654 -2701 1861 0
-3654 2701 -1861 0
3654 -3653 2701 1861 0
3654 -3653 -2701 -1861 0
-3654 2702 -1862 0
-3655 3654 0
-3655 -2702 1862 0
-3655 2702 -1862 0
3655 -3654 2702 1862 0
3655 -3654 -2702 -1862 0
-3655 2703 -1863 0
-3656 3655 0
-3656 -2703 1863 0
-3656 2703 -1863 0
3656 -3655 2703 1863 0
3656 -3655 -2703 -1863 0
-3656 2704 -1864 0
-3657 3656 0
-3657 -2704 1864 0
-3657 2704 -1864 0
3657 -3656 2704 1864 0
3657 -3656 -2704 -1864 0
-3657 2705 -1865 0
-3658 3657 0
-3658 -2705 1865 0
-3658 2705 -1865 0
3658 -3657 2705 1865 0
3658 -3657 -2705 -1865 0
-3658 2706 -1866 0
-3659 3658 0
-3659 -2706 1866 0
-3659 2706 -1866 0
3659 -3658 2706 1866 0
3659 -3658 -2706 -1866 0
-3659 2707 -1867 0
1537 -2062 0
-3660 -1537 2062 0
-3660 1537 -2062 0
3660 1537 2062 0
3660 -1537 -2062 0
-3660 1538 -2063 0
-3661 3660 0
-3661 -1538 2063 0
-3661 1538 -2063 0
3661 -3660 1538 2063 0
3661 -3660 -1538 -2063 0
-3661 1539 -2064 0
-3662 3661 0
-3662 -1539 2064 0
-3662 1539 -2064 0
3662 -3661 1539 2064 0
3662 -3661 -1539 -2064 0
-3662 1540 -2065 0
-3663 3662 0
-3663 -1540 2065 0
-3663 1540 -2065 0
3663 -3662 1540 2065 0
3663 -3662 -1540 -2065 0
-3663 1541 -2066 0
-3664 3663 0
-3664 -1541 2066 0
-3664 1541 -2066 0
3664 -3663 1541 2066 0
3664 -3663 -1541 -2066 0
-3664 1542 -2067 0
-3665 3664 0
-3665 -1542 2067 0
-3665 1542 -2067 0
3665 -3664 1542 2067 0
3665 -3664 -1542 -2067 0
-3665 1543 -2068 0
-3666 3665 0
-3666 -1543 2068 0
-3666 1543 -2068 0
3666 -3665 1543 2068 0
3666 -3665 -1543 -2068 0
-3666 1544 -2069 0
-3667 3666 0
-3667 -1544 2069 0
-3667 1544 -2069 0
3667 -3666 1544 2069 0
3667 -3666 -1544 -2069 0
-3667 1545 -2070 0
-3668 3667 0
-3668 -1545 2070 0
-3668 1545 -2070 0
3668 -3667 1545 2070 0
3668 -3667 -1545 -2070 0
-3668 1546 -2071 0
-3669 3668 0
-3669 -1546 2071 0
-3669 1546 -2071 0
3669 -3668 1546 2071 0
3669 -3668 -1546 -2071 0
-3669 1547 -2072 0
-3670 3669 0
-3670 -1547 2072 0
-3670 1547 -2072 0
3670 -3669 1547 2072 0
3670 -3669 -1547 -2072 0
-3670 1548 -2073 0
-3671 3670 0
-3671 -1548 2073 0
-3671 1548 -2073 0
3671 -3670 1548 2073 0
3671 -3670 -1548 -2073 0
-3671 1549 -2074 0
-3672 3671 0
-3672 -1549 2074 0
-3672 1549 -2074 0
3672 -3671 1549 2074 0
3672 -3671 -1549 -2074 0
-3672 1550 -2075 0
-3673 3672 0
-3673 -1550 2075 0
-3673 1550 -2075 0
3673 -3672 1550 2075 0
3673 -3672 -1550 -2075 0
-3673 1551 -2076 0
-3674 3673 0
-3674 -1551 2076 0
-3674 1551 -2076 0
3674 -3673 1551 2076 0
3674 -3673 -1551 -2076 0
-3674 1552 -2077 0
-3675 3674 0
-3675 -1552 2077 0
-3675 1552 -2077 0
3675 -3674 1552 2077 0
3675 -3674 -1552 -2077 0
-3675 1642 -2167 0
-3676 3675 0
-3676 -1642 2167 0
-3676 1642 -2167 0
3676 -3675 1642 2167 0
3676 -3675 -1642 -2167 0
-3676 1643 -2168 0
-3677 3676 0
-3677 -1643 2168 0
-3677 1643 -2168 0
3677 -3676 1643 2168 0
3677 -3676 -1643 -2168 0
-3677 1644 -2169 0
-3678 3677 0
-3678 -1644 2169 0
-3678 1644 -2169 0
3678 -3677 1644 2169 0
3678 -3677 -1644 -2169 0
-3678 1645 -2170 0
-3679 3678 0
-3679 -1645 2170 0
-3679 1645 -2170 0
3679 -3678 1645 2170 0
3679 -3678 -1645 -2170 0
-3679 1646 -2171 0
-3680 3679 0
-3680 -1646 2171 0
-3680 1646 -2171 0
3680 -3679 1646 2171 0
3680 -3679 -1646 -2171 0
-3680 1647 -2172 0
-3681 3680 0
-3681 -1647 2172 0
-3681 1647 -2172 0
3681 -3680 1647 2172 0
3681 -3680 -1647 -2172 0
-3681 1648 -2173 0
-3682 3681 0
-3682 -1648 2173 0
-3682 1648 -2173 0
3682 -3681 1648 2173 0
3682 -3681 -1648 -2173 0
-3682 1649 -2174 0
-3683 3682 0
-3683 -1649 2174 0
-3683 1649 -2174 0
3683 -3682 1649 2174 0
3683 -3682 -1649 -2174 0
-3683 1650 -2175 0
-3684 3683 0
-3684 -1650 2175 0
-3684 1650 -2175 0
3684 -3683 1650 2175 0
3684 -3683 -1650 -2175 0
-3684 1651 -2176 0
-3685 3684 0
-3685 -1651 2176 0
-3685 1651 -2176 0
3685 -3684 1651 2176 0
3685 -3684 -1651 -2176 0
-3685 1652 -2177 0
-3686 3685 0
-3686 -1652 2177 0
-3686 1652 -2177 0
3686 -3685 1652 2177 0
3686 -3685 -1652 -2177 0
-3686 1653 -2178 0
-3687 3686 0
-3687 -1653 2178 0
-3687 1653 -2178 0
3687 -3686 1653 2178 0
3687 -3686 -1653 -2178 0
-3687 1654 -2179 0
-3688 3687 0
-3688 -1654 2179 0
-3688 1654 -2179 0
3688 -3687 1654 2179 0
3688 -3687 -1654 -2179 0
-3688 1655 -2180 0
-3689 3688 0
-3689 -1655 2180 0
-3689 1655 -2180 0
3689 -3688 1655 2180 0
3689 -3688 -1655 -2180 0
-3689 1656 -2181 0
-3690 3689 0
-3690 -1656 2181 0
-3690 1656 -2181 0
3690 -3689 1656 2181 0
3690 -3689 -1656 -2181 0
-3690 1657 -2182 0
-3691 3690 0
-3691 -1657 2182 0
-3691 1657 -2182 0
3691 -3690 1657 2182 0
3691 -3690 -1657 -2182 0
-3691 1747 -2272 0
-3692 3691 0
-3692 -1747 2272 0
-3692 1747 -2272 0
3692 -3691 1747 2272 0
3692 -3691 -1747 -2272 0
-3692 1748 -2273 0
-3693 3692 0
-3693 -1748 2273 0
-3693 1748 -2273 0
3693 -3692 1748 2273 0
3693 -3692 -1748 -2273 0
-3693 1749 -2274 0
-3694 3693 0
-3694 -1749 2274 0
-3694 1749 -2274 0
3694 -3693 1749 2274 0
3694 -3693 -1749 -2274 0
-3694 1750 -2275 0
-3695 3694 0
-3695 -1750 2275 0
-3695 1750 -2275 0
3695 -3694 1750 2275 0
3695 -3694 -1750 -2275 0
-3695 1751 -2276 0
-3696 3695 0
-3696 -1751 2276 0
-3696 1751 -2276 0
3696 -3695 1751 2276 0
3696 -3695 -1751 -2276 0
-3696 1752 -2277 0
-3697 3696 0
-3697 -1752 2277 0
-3697 1752 -2277 0
3697 -3696 1752 2277 0
3697 -3696 -1752 -2277 0
-3697 1753 -2278 0
-3698 3697 0
-3698 -1753 2278 0
-3698 1753 -2278 0
3698 -3697 1753 2278 0
3698 -3697 -1753 -2278 0
-3698 1754 -2279 0
-3699 3698 0
-3699 -1754 2279 0
-3699 1754 -2279 0
3699 -3698 1754 2279 0
3699 -3698 -1754 -2279 0
-3699 1755 -2280 0
-3700 3699 0
-3700 -1755 2280 0
-3700 1755 -2280 0
3700 -3699 1755 2280 0
3700 -3699 -1755 -2280 0
-3700 1756 -2281 0
-3701 3700 0
-3701 -1756 2281 0
-3701 1756 -2281 0
3701 -3700 1756 2281 0
3701 -3700 -1756 -2281 0
-3701 1757 -2282 0
-3702 3701 0
-3702 -1757 2282 0
-3702 1757 -2282 0
3702 -3701 1757 2282 0
3702 -3701 -1757 -2282 0
-3702 1758 -2283 0
-3703 3702 0
-3703 -1758 2283 0
-3703 1758 -2283 0
3703 -3702 1758 2283 0
3703 -3702 -1758 -2283 0
-3703 1759 -2284 0
-3704 3703 0
-3704 -1759 2284 0
-3704 1759 -2284 0
3704 -3703 1759 2284 0
3704 -3703 -1759 -2284 0
-3704 1760 -2285 0
-3705 3704 0
-3705 -1760 2285 0
-3705 1760 -2285 0
3705 -3704 1760 2285 0
3705 -3704 -1760 -2285 0
-3705 1761 -2286 0
-3706 3705 0
-3706 -1761 2286 0
-3706 1761 -2286 0
3706 -3705 1761 2286 0
3706 -3705 -1761 -2286 0
-3706 1762 -2287 0
-3707 3706 0
-3707 -1762 2287 0
-3707 1762 -2287 0
3707 -3706 1762 2287 0
3707 -3706 -1762 -2287 0
-3707 1852 -2377 0
-3708 3707 0
-3708 -1852 2377 0
-3708 1852 -2377 0
3708 -3707 1852 2377 0
3708 -3707 -1852 -2377 0
-3708 1853 -2378 0
-3709 3708 0
-3709 -1853 2378 0
-3709 1853 -2378 0
3709 -3708 1853 2378 0
3709 -3708 -1853 -2378 0
-3709 1854 -2379 0
-3710 3709 0
-3710 -1854 2379 0
-3710 1854 -2379 0
3710 -3709 1854 2379 0
3710 -3709 -1854 -2379 0
-3710 1855 -2380 0
-3711 3710 0
-3711 -1855 2380 0
-3711 1855 -2380 0
3711 -3710 1855 2380 0
3711 -3710 -1855 -2380 0
-3711 1856 -2381 0
-3712 3711 0
-3712 -1856 2381 0
-3712 1856 -2381 0
3712 -3711 1856 2381 0
3712 -3711 -1856 -2381 0
-3712 1857 -2382 0
-3713 3712 0
-3713 -1857 2382 0
-3713 1857 -2382 0
3713 -3712 1857 2382 0
3713 -3712 -1857 -2382 0
-3713 1858 -2383 0
-3714 3713 0
-3714 -1858 2383 0
-3714 1858 -2383 0
3714 -3713 1858 2383 0
3714 -3713 -1858 -2383 0
-3714 1859 -2384 0
-3715 3714 0
-3715 -1859 2384 0
-3715 1859 -2384 0
3715 -3714 1859 2384 0
3715 -3714 -1859 -2384 0
-3715 1860 -2385 0
-3716 3715 0
-3716 -1860 2385 0
-3716 1860 -2385 0
3716 -3715 1860 2385 0
3716 -3715 -1860 -2385 0
-3716 1861 -2386 0
-3717 3716 0
-3717 -1861 2386 0
-3717 1861 -2386 0
3717 -3716 1861 2386 0
3717 -3716 -1861 -2386 0
-3717 1862 -2387 0
-3718 3717 0
-3718 -1862 2387 0
-3718 1862 -2387 0
3718 -3717 1862 2387 0
3718 -3717 -1862 -2387 0
-3718 1863 -2388 0
-3719 3718 0
-3719 -1863 2388 0
-3719 1863 -2388 0
3719 -3718 1863 2388 0
3719 -3718 -1863 -2388 0
-3719 1864 -2389 0
-3720 3719 0
-3720 -1864 2389 0
-3720 1864 -2389 0
3720 -3719 1864 2389 0
3720 -3719 -1864 -2389 0
-3720 1865 -2390 0
-3721 3720 0
-3721 -1865 2390 0
-3721 1865 -2390 0
3721 -3720 1865 2390 0
3721 -3720 -1865 -2390 0
-3721 1866 -2391 0
-3722 3721 0
-3722 -1866 2391 0
-3722 1866 -2391 0
3722 -3721 1866 2391 0
3722 -3721 -1866 -2391 0
-3722 1867 -2392 0
-3723 3722 0
-3723 -1867 2392 0
-3723 1867 -2392 0
3723 -3722 1867 2392 0
3723 -3722 -1867 -2392 0
-3723 1957 -2482 0
-3724 3723 0
-3724 -1957 2482 0
-3724 1957 -2482 0
3724 -3723 1957 2482 0
3724 -3723 -1957 -2482 0
-3724 1958 -2483 0
-3725 3724 0
-3725 -1958 2483 0
-3725 1958 -2483 0
3725 -3724 1958 2483 0
3725 -3724 -1958 -2483 0
-3725 1959 -2484 0
-3726 3725 0
-3726 -1959 2484 0
-3726 1959 -2484 0
3726 -3725 1959 2484 0
3726 -3725 -1959 -2484 0
-3726 1960 -2485 0
-3727 3726 0
-3727 -1960 2485 0
-3727 1960 -2485 0
3727 -3726 1960 2485 0
3727 -3726 -1960 -2485 0
-3727 1961 -2486 0
-3728 3727 0
-3728 -1961 2486 0
-3728 1961 -2486 0
3728 -3727 1961 2486 0
3728 -3727 -1961 -2486 0
-3728 1962 -2487 0
-3729 3728 0
-3729 -1962 2487 0
-3729 1962 -2487 0
3729 -3728 1962 2487 0
3729 -3728 -1962 -2487 0
-3729 1963 -2488 0
-3730 3729 0
-3730 -1963 2488 0
-3730 1963 -2488 0
3730 -3729 1963 2488 0
3730 -3729 -1963 -2488 0
-3730 1964 -2489 0
-3731 3730 0
-3731 -1964 2489 0
-3731 1964 -2489 0
3731 -3730 1964 2489 0
3731 -3730 -1964 -2489 0
-3731 1965 -2490 0
-3732 3731 0
-3732 -1965 2490 0
-3732 1965 -2490 0
3732 -3731 1965 2490 0
3732 -3731 -1965 -2490 0
-3732 1966 -2491 0
-3733 3732 0
-3733 -1966 2491 0
-3733 1966 -2491 0
3733 -3732 1966 2491 0
3733 -3732 -1966 -2491 0
-3733 1967 -2492 0
-3734 3733 0
-3734 -1967 2492 0
-3734 1967 -2492 0
3734 -3733 1967 2492 0
3734 -3733 -1967 -2492 0
-3734 1968 -2493 0
-3735 3734 0
-3735 -1968 2493 0
-3735 1968 -2493 0
3735 -3734 1968 2493 0
3735 -3734 -1968 -2493 0
-3735 1969 -2494 0
-3736 3735 0
-3736 -1969 2494 0
-3736 1969 -2494 0
3736 -3735 1969 2494 0
3736 -3735 -1969 -2494 0
-3736 1970 -2495 0
-3737 3736 0
-3737 -1970 2495 0
-3737 1970 -2495 0
3737 -3736 1970 2495 0
3737 -3736 -1970 -2495 0
-3737 1971 -2496 0
-3738 3737 0
-3738 -1971 2496 0
-3738 1971 -2496 0
3738 -3737 1971 2496 0
3738 -3737 -1971 -2496 0
-3738 1972 -2497 0
-3739 3738 0
-3739 -1972 2497 0
-3739 1972 -2497 0
3739 -3738 1972 2497 0
3739 -3738 -1972 -2497 0
-3739 2062 -2587 0
-3740 3739 0
-3740 -2062 2587 0
-3740 2062 -2587 0
3740 -3739 2062 2587 0
3740 -3739 -2062 -2587 0
-3740 2063 -2588 0
-3741 3740 0
-3741 -2063 2588 0
-3741 2063 -2588 0
3741 -3740 2063 2588 0
3741 -3740 -2063 -2588 0
-3741 2064 -2589 0
-3742 3741 0
-3742 -2064 2589 0
-3742 2064 -2589 0
3742 -3741 2064 2589 0
3742 -3741 -2064 -2589 0
-3742 2065 -2590 0
-3743 3742 0
-3743 -2065 2590 0
-3743 2065 -2590 0
3743 -3742 2065 2590 0
3743 -3742 -2065 -2590 0
-3743 2066 -2591 0
-3744 3743 0
-3744 -2066 2591 0
-3744 2066 -2591 0
3744 -3743 2066 2591 0
3744 -3743 -2066 -2591 0
-3744 2067 -2592 0
-3745 3744 0
-3745 -2067 2592 0
-3745 2067 -2592 0
3745 -3744 2067 2592 0
3745 -3744 -2067 -2592 0
-3745 2068 -2593 0
-3746 3745 0
-3746 -2068 2593 0
-3746 2068 -2593 0
3746 -3745 2068 2593 0
3746 -3745 -2068 -2593 0
-3746 2069 -2594 0
-3747 3746 0
-3747 -2069 2594 0
-3747 2069 -2594 0
3747 -3746 2069 2594 0
3747 -3746 -2069 -2594 0
-3747 2070 -2595 0
-3748 3747 0
-3748 -2070 2595 0
-3748 2070 -2595 0
3748 -3747 2070 2595 0
3748 -3747 -2070 -2595 0
-3748 2071 -2596 0
-3749 3748 0
-3749 -2071 2596 0
-3749 2071 -2596 0
3749 -3748 2071 2596 0
3749 -3748 -2071 -2596 0
-3749 2072 -2597 0
-3750 3749 0
-3750 -2072 2597 0
-3750 2072 -2597 0
3750 -3749 2072 2597 0
3750 -3749 -2072 -2597 0
-3750 2073 -2598 0
-3751 3750 0
-3751 -2073 2598 0
-3751 2073 -2598 0
3751 -3750 2073 2598 0
3751 -3750 -2073 -2598 0
-3751 2074 -2599 0
-3752 3751 0
-3752 -2074 2599 0
-3752 2074 -2599 0
3752 -3751 2074 2599 0
3752 -3751 -2074 -2599 0
-3752 2075 -2600 0
-3753 3752 0
-3753 -2075 2600 0
-3753 2075 -2600 0
3753 -3752 2075 2600 0
3753 -3752 -2075 -2600 0
-3753 2076 -2601 0
-3754 3753 0
-3754 -2076 2601 0
-3754 2076 -2601 0
3754 -3753 2076 2601 0
3754 -3753 -2076 -2601 0
-3754 2077 -2602 0
-3755 3754 0
-3755 -2077 2602 0
-3755 2077 -2602 0
3755 -3754 2077 2602 0
3755 -3754 -2077 -2602 0
-3755 2167 -2692 0
-3756 3755 0
-3756 -2167 2692 0
-3756 2167 -2692 0
3756 -3755 2167 2692 0
3756 -3755 -2167 -2692 0
-3756 2168 -2693 0
-3757 3756 0
-3757 -2168 2693 0
-3757 2168 -2693 0
3757 -3756 2168 2693 0
3757 -3756 -2168 -2693 0
-3757 2169 -2694 0
-3758 3757 0
-3758 -2169 2694 0
-3758 2169 -2694 0
3758 -3757 2169 2694 0
3758 -3757 -2169 -2694 0
-3758 2170 -2695 0
-3759 3758 0
-3759 -2170 2695 0
-3759 2170 -2695 0
3759 -3758 2170 2695 0
3759 -3758 -2170 -2695 0
-3759 2171 -2696 0
-3760 3759 0
-3760 -2171 2696 0
-3760 2171 -2696 0
3760 -3759 2171 2696 0
3760 -3759 -2171 -2696 0
-3760 2172 -2697 0
-3761 3760 0
-3761 -2172 2697 0
-3761 2172 -2697 0
3761 -3760 2172 2697 0
3761 -3760 -2172 -2697 0
-3761 2173 -2698 0
-3762 3761 0
-3762 -2173 2698 0
-3762 2173 -2698 0
3762 -3761 2173 2698 0
3762 -3761 -2173 -2698 0
-3762 2174 -2699 0
-3763 3762 0
-3763 -2174 2699 0
-3763 2174 -2699 0
3763 -3762 2174 2699 0
3763 -3762 -2174 -2699 0
-3763 2175 -2700 0
-3764 3763 0
-3764 -2175 2700 0
-3764 2175 -2700 0
3764 -3763 2175 2700 0
3764 -3763 -2175 -2700 0
-3764 2176 -2701 0
-3765 3764 0
-3765 -2176 2701 0
-3765 2176 -2701 0
3765 -3764 2176 2701 0
3765 -3764 -2176 -2701 0
-3765 2177 -2702 0
-3766 3765 0
-3766 -2177 2702 0
-3766 2177 -2702 0
3766 -3765 2177 2702 0
3766 -3765 -2177 -2702 0
-3766 2178 -2703 0
-3767 3766 0
-3767 -2178 2703 0
-3767 2178 -2703 0
3767 -3766 2178 2703 0
3767 -3766 -2178 -2703 0
-3767 2179 -2704 0
-3768 3767 0
-3768 -2179 2704 0
-3768 2179 -2704 0
3768 -3767 2179 2704 0
3768 -3767 -2179 -2704 0
-3768 2180 -2705 0
-3769 3768 0
-3769 -2180 2705 0
-3769 2180 -2705 0
3769 -3768 2180 2705 0
3769 -3768 -2180 -2705 0
-3769 2181 -2706 0
-3770 3769 0
-3770 -2181 2706 0
-3770 2181 -2706 0
3770 -3769 2181 2706 0
3770 -3769 -2181 -2706 0
-3770 2182 -2707 0
-3771 3770 0
-3771 -2182 2707 0
-3771 2182 -2707 0
3771 -3770 2182 2707 0
3771 -3770 -2182 -2707 0
-3771 2272 -1537 0
-3772 3771 0
-3772 -2272 1537 0
-3772 2272 -1537 0
3772 -3771 2272 1537 0
3772 -3771 -2272 -1537 0
-3772 2273 -1538 0
-3773 3772 0
-3773 -2273 1538 0
-3773 2273 -1538 0
3773 -3772 2273 1538 0
3773 -3772 -2273 -1538 0
-3773 2274 -1539 0
-3774 3773 0
-3774 -2274 1539 0
-3774 2274 -1539 0
3774 -3773 2274 1539 0
3774 -3773 -2274 -1539 0
-3774 2275 -1540 0
-3775 3774 0
-3775 -2275 1540 0
-3775 2275 -1540 0
3775 -3774 2275 1540 0
3775 -3774 -2275 -1540 0
-3775 2276 -1541 0
-3776 3775 0
-3776 -2276 1541 0
-3776 2276 -1541 0
3776 -3775 2276 1541 0
3776 -3775 -2276 -1541 0
-3776 2277 -1542 0
-3777 3776 0
-3777 -2277 1542 0
-3777 2277 -1542 0
3777 -3776 2277 1542 0
3777 -3776 -2277 -1542 0
-3777 2278 -1543 0
-3778 3777 0
-3778 -2278 1543 0
-3778 2278 -1543 0
3778 -3777 2278 1543 0
3778 -3777 -2278 -1543 0
-3778 2279 -1544 0
-3779 3778 0
-3779 -2279 1544 0
-3779 2279 -1544 0
3779 -3778 2279 1544 0
3779 -3778 -2279 -1544 0
-3779 2280 -1545 0
-3780 3779 0
-3780 -2280 1545 0
-3780 2280 -1545 0
3780 -3779 2280 1545 0
3780 -3779 -2280 -1545 0
-3780 2281 -1546 0
-3781 3780 0
-3781 -2281 1546 0
-3781 2281 -1546 0
3781 -3780 2281 1546 0
3781 -3780 -2281 -1546 0
-3781 2282 -1547 0
-3782 3781 0
-3782 -2282 1547 0
-3782 2282 -1547 0
3782 -3781 2282 1547 0
3782 -3781 -2282 -1547 0
-3782 2283 -1548 0
-3783 3782 0
-3783 -2283 1548 0
-3783 2283 -1548 0
3783 -3782 2283 1548 0
3783 -3782 -2283 -1548 0
-3783 2284 -1549 0
-3784 3783 0
-3784 -2284 1549 0
-3784 2284 -1549 0
3784 -3783 2284 1549 0
3784 -3783 -2284 -1549 0
-3784 2285 -1550 0
-3785 3784 0
-3785 -2285 1550 0
-3785 2285 -1550 0
3785 -3784 2285 1550 0
3785 -3784 -2285 -1550 0
-3785 2286 -1551 0
-3786 3785 0
-3786 -2286 1551 0
-3786 2286 -1551 0
3786 -3785 2286 1551 0
3786 -3785 -2286 -1551 0
-3786 2287 -1552 0
-3787 3786 0
-3787 -2287 1552 0
-3787 2287 -1552 0
3787 -3786 2287 1552 0
3787 -3786 -2287 -1552 0
-3787 2377 -1642 0
-3788 3787 0
-3788 -2377 1642 0
-3788 2377 -1642 0
3788 -3787 2377 1642 0
3788 -3787 -2377 -1642 0
-3788 2378 -1643 0
-3789 3788 0
-3789 -2378 1643 0
-3789 2378 -1643 0
3789 -3788 2378 1643 0
3789 -3788 -2378 -1643 0
-3789 2379 -1644 0
-3790 3789 0
-3790 -2379 1644 0
-3790 2379 -1644 0
3790 -3789 2379 1644 0
3790 -3789 -2379 -1644 0
-3790 2380 -1645 0
-3791 3790 0
-3791 -2380 1645 0
-3791 2380 -1645 0
3791 -3790 2380 1645 0
3791 -3790 -2380 -1645 0
-3791 2381 -1646 0
-3792 3791 0
-3792 -2381 1646 0
-3792 2381 -1646 0
3792 -3791 2381 1646 0
3792 -3791 -2381 -1646 0
-3792 2382 -1647 0
-3793 3792 0
-3793 -2382 1647 0
-3793 2382 -1647 0
3793 -3792 2382 1647 0
3793 -3792 -2382 -1647 0
-3793 2383 -1648 0
-3794 3793 0
-3794 -2383 1648 0
-3794 2383 -1648 0
3794 -3793 2383 1648 0
3794 -3793 -2383 -1648 0
-3794 2384 -1649 0
-3795 3794 0
-3795 -2384 1649 0
-3795 2384 -1649 0
3795 -3794 2384 1649 0
3795 -3794 -2384 -1649 0
-3795 2385 -1650 0
-3796 3795 0
-3796 -2385 1650 0
-3796 2385 -1650 0
3796 -3795 2385 1650 0
3796 -3795 -2385 -1650 0
-3796 2386 -1651 0
-3797 3796 0
-3797 -2386 1651 0
-3797 2386 -1651 0
3797 -3796 2386 1651 0
3797 -3796 -2386 -1651 0
-3797 2387 -1652 0
-3798 3797 0
-3798 -2387 1652 0
-3798 2387 -1652 0
3798 -3797 2387 1652 0
3798 -3797 -2387 -1652 0
-3798 2388 -1653 0
-3799 3798 0
-3799 -2388 1653 0
-3799 2388 -1653 0
3799 -3798 2388 1653 0
3799 -3798 -2388 -1653 0
-3799 2389 -1654 0
-3800 3799 0
-3800 -2389 1654 0
-3800 2389 -1654 0
3800 -3799 2389 1654 0
3800 -3799 -2389 -1654 0
-3800 2390 -1655 0
-3801 3800 0
-3801 -2390 1655 0
-3801 2390 -1655 0
3801 -3800 2390 1655 0
3801 -3800 -2390 -1655 0
-3801 2391 -1656 0
-3802 3801 0
-3802 -2391 1656 0
-3802 2391 -1656 0
3802 -3801 2391 1656 0
3802 -3801 -2391 -1656 0
-3802 2392 -1657 0
-3803 3802 0
-3803 -2392 1657 0
-3803 2392 -1657 0
3803 -3802 2392 1657 0
3803 -3802 -2392 -1657 0
-3803 2482 -1747 0
-3804 3803 0
-3804 -2482 1747 0
-3804 2482 -1747 0
3804 -3803 2482 1747 0
3804 -3803 -2482 -1747 0
-3804 2483 -1748 0
-3805 3804 0
-3805 -2483 1748 0
-3805 2483 -1748 0
3805 -3804 2483 1748 0
3805 -3804 -2483 -1748 0
-3805 2484 -1749 0
-3806 3805 0
-3806 -2484 1749 0
-3806 2484 -1749 0
3806 -3805 2484 1749 0
3806 -3805 -2484 -1749 0
-3806 2485 -1750 0
-3807 3806 0
-3807 -2485 1750 0
-3807 2485 -1750 0
3807 -3806 2485 1750 0
3807 -3806 -2485 -1750 0
-3807 2486 -1751 0
-3808 3807 0
-3808 -2486 1751 0
-3808 2486 -1751 0
3808 -3807 2486 1751 0
3808 -3807 -2486 -1751 0
-3808 2487 -1752 0
-3809 3808 0
-3809 -2487 1752 0
-3809 2487 -1752 0
3809 -3808 2487 1752 0
3809 -3808 -2487 -1752 0
-3809 2488 -1753 0
-3810 3809 0
-3810 -2488 1753 0
-3810 2488 -1753 0
3810 -3809 2488 1753 0
3810 -3809 -2488 -1753 0
-3810 2489 -1754 0
-3811 3810 0
-3811 -2489 1754 0
-3811 2489 -1754 0
3811 -3810 2489 1754 0
3811 -3810 -2489 -1754 0
-3811 2490 -1755 0
-3812 3811 0
-3812 -2490 1755 0
-3812 2490 -1755 0
3812 -3811 2490 1755 0
3812 -3811 -2490 -1755 0
-3812 2491 -1756 0
-3813 3812 0
-3813 -2491 1756 0
-3813 2491 -1756 0
3813 -3812 2491 1756 0
3813 -3812 -2491 -1756 0
-3813 2492 -1757 0
-3814 3813 0
-3814 -2492 1757 0
-3814 2492 -1757 0
3814 -3813 2492 1757 0
3814 -3813 -2492 -1757 0
-3814 2493 -1758 0
-3815 3814 0
-3815 -2493 1758 0
-3815 2493 -1758 0
3815 -3814 2493 1758 0
3815 -3814 -2493 -1758 0
-3815 2494 -1759 0
-3816 3815 0
-3816 -2494 1759 0
-3816 2494 -1759 0
3816 -3815 2494 1759 0
3816 -3815 -2494 -1759 0
-3816 2495 -1760 0
-3817 3816 0
-3817 -2495 1760 0
-3817 2495 -1760 0
3817 -3816 2495 1760 0
3817 -3816 -2495 -1760 0
-3817 2496 -1761 0
-3818 3817 0
-3818 -2496 1761 0
-3818 2496 -1761 0
3818 -3817 2496 1761 0
3818 -3817 -2496 -1761 0
-3818 2497 -1762 0
-3819 3818 0
-3819 -2497 1762 0
-3819 2497 -1762 0
3819 -3818 2497 1762 0
3819 -3818 -2497 -1762 0
-3819 2587 -1852 0
-3820 3819 0
-3820 -2587 1852 0
-3820 2587 -1852 0
3820 -3819 2587 1852 0
3820 -3819 -2587 -1852 0
-3820 2588 -1853 0
-3821 3820 0
-3821 -2588 1853 0
-3821 2588 -1853 0
3821 -3820 2588 1853 0
3821 -3820 -2588 -1853 0
-3821 2589 -1854 0
-3822 3821 0
-3822 -2589 1854 0
-3822 2589 -1854 0
3822 -3821 2589 1854 0
3822 -3821 -2589 -1854 0
-3822 2590 -1855 0
-3823 3822 0
-3823 -2590 1855 0
-3823 2590 -1855 0
3823 -3822 2590 1855 0
3823 -3822 -2590 -1855 0
-3823 2591 -1856 0
-3824 3823 0
-3824 -2591 1856 0
-3824 2591 -1856 0
3824 -3823 2591 1856 0
3824 -3823 -2591 -1856 0
-3824 2592 -1857 0
-3825 3824 0
-3825 -2592 1857 0
-3825 2592 -1857 0
3825 -3824 2592 1857 0
3825 -3824 -2592 -1857 0
-3825 2593 -1858 0
-3826 3825 0
-3826 -2593 1858 0
-3826 2593 -1858 0
3826 -3825 2593 1858 0
3826 -3825 -2593 -1858 0
-3826 2594 -1859 0
-3827 3826 0
-3827 -2594 1859 0
-3827 2594 -1859 0
3827 -3826 2594 1859 0
3827 -3826 -2594 -1859 0
-3827 2595 -1860 0
-3828 3827 0
-3828 -2595 1860 0
-3828 2595 -1860 0
3828 -3827 2595 1860 0
3828 -3827 -2595 -1860 0
-3828 2596 -1861 0
-3829 3828 0
-3829 -2596 1861 0
-3829 2596 -1861 0
3829 -3828 2596 1861 0
3829 -3828 -2596 -1861 0
-3829 2597 -1862 0
-3830 3829 0
-3830 -2597 1862 0
-3830 2597 -1862 0
3830 -3829 2597 1862 0
3830 -3829 -2597 -1862 0
-3830 2598 -1863 0
-3831 3830 0
-3831 -2598 1863 0
-3831 2598 -1863 0
3831 -3830 2598 1863 0
3831 -3830 -2598 -1863 0
-3831 2599 -1864 0
-3832 3831 0
-3832 -2599 1864 0
-3832 2599 -1864 0
3832 -3831 2599 1864 0
3832 -3831 -2599 -1864 0
-3832 2600 -1865 0
-3833 3832 0
-3833 -2600 1865 0
-3833 2600 -1865 0
3833 -3832 2600 1865 0
3833 -3832 -2600 -1865 0
-3833 2601 -1866 0
-3834 3833 0
-3834 -2601 1866 0
-3834 2601 -1866 0
3834 -3833 2601 1866 0
3834 -3833 -2601 -1866 0
-3834 2602 -1867 0
-3835 3834 0
-3835 -2602 1867 0
-3835 2602 -1867 0
3835 -3834 2602 1867 0
3835 -3834 -2602 -1867 0
-3835 2692 -1957 0
-3836 3835 0
-3836 -2692 1957 0
-3836 2692 -1957 0
3836 -3835 2692 1957 0
3836 -3835 -2692 -1957 0
-3836 2693 -1958 0
-3837 3836 0
-3837 -2693 1958 0
-3837 2693 -1958 0
3837 -3836 2693 1958 0
3837 -3836 -2693 -1958 0
-3837 2694 -1959 0
-3838 3837 0
-3838 -2694 1959 0
-3838 2694 -1959 0
3838 -3837 2694 1959 0
3838 -3837 -2694 -1959 0
-3838 2695 -1960 0
-3839 3838 0
-3839 -2695 1960 0
-3839 2695 -1960 0
3839 -3838 2695 1960 0
3839 -3838 -2695 -1960 0
-3839 2696 -1961 0
-3840 3839 0
-3840 -2696 1961 0
-3840 2696 -1961 0
3840 -3839 2696 1961 0
3840 -3839 -2696 -1961 0
-3840 2697 -1962 0
-3841 3840 0
-3841 -2697 1962 0
-3841 2697 -1962 0
3841 -3840 2697 1962 0
3841 -3840 -2697 -1962 0
-3841 2698 -1963 0
-3842 3841 0
-3842 -2698 1963 0
-3842 2698 -1963 0
3842 -3841 2698 1963 0
3842 -3841 -2698 -1963 0
-3842 2699 -1964 0
-3843 3842 0
-3843 -2699 1964 0
-3843 2699 -1964 0
3843 -3842 2699 1964 0
3843 -3842 -2699 -1964 0
-3843 2700 -1965 0
-3844 3843 0
-3844 -2700 1965 0
-3844 2700 -1965 0
3844 -3843 2700 1965 0
3844 -3843 -2700 -1965 0
-3844 2701 -1966 0
-3845 3844 0
-3845 -2701 1966 0
-3845 2701 -1966 0
3845 -3844 2701 1966 0
3845 -3844 -2701 -1966 0
-3845 2702 -1967 0
-3846 3845 0
-3846 -2702 1967 0
-3846 2702 -1967 0
3846 -3845 2702 1967 0
3846 -3845 -2702 -1967 0
-3846 2703 -1968 0
-3847 3846 0
-3847 -2703 1968 0
-3847 2703 -1968 0
3847 -3846 2703 1968 0
3847 -3846 -2703 -1968 0
-3847 2704 -1969 0
-3848 3847 0
-3848 -2704 1969 0
-3848 2704 -1969 0
3848 -3847 2704 1969 0
3848 -3847 -2704 -1969 0
-3848 2705 -1970 0
-3849 3848 0
-3849 -2705 1970 0
-3849 2705 -1970 0
3849 -3848 2705 1970 0
3849 -3848 -2705 -1970 0
-3849 2706 -1971 0
-3850 3849 0
-3850 -2706 1971 0
-3850 2706 -1971 0
3850 -3849 2706 1971 0
3850 -3849 -2706 -1971 0
-3850 2707 -1972 0
1537 -2167 0
-3851 -1537 2167 0
-3851 1537 -2167 0
3851 1537 2167 0
3851 -1537 -2167 0
-3851 1538 -2168 0
-3852 3851 0
-3852 -1538 2168 0
-3852 1538 -2168 0
3852 -3851 1538 2168 0
3852 -3851 -1538 -2168 0
-3852 1539 -2169 0
-3853 3852 0
-3853 -1539 2169 0
-3853 1539 -2169 0
3853 -3852 1539 2169 0
3853 -3852 -1539 -2169 0
-3853 1540 -2170 0
-3854 3853 0
-3854 -1540 2170 0
-3854 1540 -2170 0
3854 -3853 1540 2170 0
3854 -3853 -1540 -2170 0
-3854 1541 -2171 0
-3855 3854 0
-3855 -1541 2171 0
-3855 1541 -2171 0
3855 -3854 1541 2171 0
3855 -3854 -1541 -2171 0
-3855 1542 -2172 0
-3856 3855 0
-3856 -1542 2172 0
-3856 1542 -2172 0
3856 -3855 1542 2172 0
3856 -3855 -1542 -2172 0
-3856 1543 -2173 0
-3857 3856 0
-3857 -1543 2173 0
-3857 1543 -2173 0
3857 -3856 1543 2173 0
3857 -3856 -1543 -2173 0
-3857 1544 -2174 0
-3858 3857 0
-3858 -1544 2174 0
-3858 1544 -2174 0
3858 -3857 1544 2174 0
3858 -3857 -1544 -2174 0
-3858 1545 -2175 0
-3859 3858 0
-3859 -1545 2175 0
-3859 1545 -2175 0
3859 -3858 1545 2175 0
3859 -3858 -1545 -2175 0
-3859 1546 -2176 0
-3860 3859 0
-3860 -1546 2176 0
-3860 1546 -2176 0
3860 -3859 1546 2176 0
3860 -3859 -1546 -2176 0
-3860 1547 -2177 0
-3861 3860 0
-3861 -1547 2177 0
-3861 1547 -2177 0
3861 -3860 1547 2177 0
3861 -3860 -1547 -2177 0
-3861 1548 -2178 0
-3862 3861 0
-3862 -1548 2178 0
-3862 1548 -2178 0
3862 -3861 1548 2178 0
3862 -3861 -1548 -2178 0
-3862 1549 -2179 0
-3863 3862 0
-3863 -1549 2179 0
-3863 1549 -2179 0
3863 -3862 1549 2179 0
3863 -3862 -1549 -2179 0
-3863 1550 -2180 0
-3864 3863 0
-3864 -1550 2180 0
-3864 1550 -2180 0
3864 -3863 1550 2180 0
3864 -3863 -1550 -2180 0
-3864 1551 -2181 0
-3865 3864 0
-3865 -1551 2181 0
-3865 1551 -2181 0
3865 -3864 1551 2181 0
3865 -3864 -1551 -2181 0
-3865 1552 -2182 0
-3866 3865 0
-3866 -1552 2182 0
-3866 1552 -2182 0
3866 -3865 1552 2182 0
3866 -3865 -1552 -2182 0
-3866 1642 -2272 0
-3867 3866 0
-3867 -1642 2272 0
-3867 1642 -2272 0
3867 -3866 1642 2272 0
3867 -3866 -1642 -2272 0
-3867 1643 -2273 0
-3868 3867 0
-3868 -1643 2273 0
-3868 1643 -2273 0
3868 -3867 1643 2273 0
3868 -3867 -1643 -2273 0
-3868 1644 -2274 0
-3869 3868 0
-3869 -1644 2274 0
-3869 1644 -2274 0
3869 -3868 1644 2274 0
3869 -3868 -1644 -2274 0
-3869 1645 -2275 0
-3870 3869 0
-3870 -1645 2275 0
-3870 1645 -2275 0
3870 -3869 1645 2275 0
3870 -3869 -1645 -2275 0
-3870 1646 -2276 0
-3871 3870 0
-3871 -1646 2276 0
-3871 1646 -2276 0
3871 -3870 1646 2276 0
3871 -3870 -1646 -2276 0
-3871 1647 -2277 0
-3872 3871 0
-3872 -1647 2277 0
-3872 1647 -2277 0
3872 -3871 1647 2277 0
3872 -3871 -1647 -2277 0
-3872 1648 -2278 0
-3873 3872 0
-3873 -1648 2278 0
-3873 1648 -2278 0
3873 -3872 1648 2278 0
3873 -3872 -1648 -2278 0
-3873 1649 -2279 0
-3874 3873 0
-3874 -1649 2279 0
-3874 1649 -2279 0
3874 -3873 1649 2279 0
3874 -3873 -1649 -2279 0
-3874 1650 -2280 0
-3875 3874 0
-3875 -1650 2280 0
-3875 1650 -2280 0
3875 -3874 1650 2280 0
3875 -3874 -1650 -2280 0
-3875 1651 -2281 0
-3876 3875 0
-3876 -1651 2281 0
-3876 1651 -2281 0
3876 -3875 1651 2281 0
3876 -3875 -1651 -2281 0
-3876 1652 -2282 0
-3877 3876 0
-3877 -1652 2282 0
-3877 1652 -2282 0
3877 -3876 1652 2282 0
3877 -3876 -1652 -2282 0
-3877 1653 -2283 0
-3878 3877 0
-3878 -1653 2283 0
-3878 1653 -2283 0
3878 -3877 1653 2283 0
3878 -3877 -1653 -2283 0
-3878 1654 -2284 0
-3879 3878 0
-3879 -1654 2284 0
-3879 1654 -2284 0
3879 -3878 1654 2284 0
3879 -3878 -1654 -2284 0
-3879 1655 -2285 0
-3880 3879 0
-3880 -1655 2285 0
-3880 1655 -2285 0
3880 -3879 1655 2285 0
3880 -3879 -1655 -2285 0
-3880 1656 -2286 0
-3881 3880 0
-3881 -1656 2286 0
-3881 1656 -2286 0
3881 -3880 1656 2286 0
3881 -3880 -1656 -2286 0
-3881 1657 -2287 0
-3882 3881 0
-3882 -1657 2287 0
-3882 1657 -2287 0
3882 -3881 1657 2287 0
3882 -3881 -1657 -2287 0
-3882 1747 -2377 0
-3883 3882 0
-3883 -1747 2377 0
-3883 1747 -2377 0
3883 -3882 1747 2377 0
3883 -3882 -1747 -2377 0
-3883 1748 -2378 0
-3884 3883 0
-3884 -1748 2378 0
-3884 1748 -2378 0
3884 -3883 1748 2378 0
3884 -3883 -1748 -2378 0
-3884 1749 -2379 0
-3885 3884 0
-3885 -1749 2379 0
-3885 1749 -2379 0
3885 -3884 1749 2379 0
3885 -3884 -1749 -2379 0
-3885 1750 -2380 0
-3886 3885 0
-3886 -1750 2380 0
-3886 1750 -2380 0
3886 -3885 1750 2380 0
3886 -3885 -1750 -2380 0
-3886 1751 -2381 0
-3887 3886 0
-3887 -1751 2381 0
-3887 1751 -2381 0
3887 -3886 1751 2381 0
3887 -3886 -1751 -2381 0
-3887 1752 -2382 0
-3888 3887 0
-3888 -1752 2382 0
-3888 1752 -2382 0
3888 -3887 1752 2382 0
3888 -3887 -1752 -2382 0
-3888 1753 -2383 0
-3889 3888 0
-3889 -1753 2383 0
-3889 1753 -2383 0
3889 -3888 1753 2383 0
3889 -3888 -1753 -2383 0
-3889 1754 -2384 0
-3890 3889 0
-3890 -1754 2384 0
-3890 1754 -2384 0
3890 -3889 1754 2384 0
3890 -3889 -1754 -2384 0
-3890 1755 -2385 0
-3891 3890 0
-3891 -1755 2385 0
-3891 1755 -2385 0
3891 -3890 1755 2385 0
3891 -3890 -1755 -2385 0
-3891 1756 -2386 0
-3892 3891 0
-3892 -1756 2386 0
-3892 1756 -2386 0
3892 -3891 1756 2386 0
3892 -3891 -1756 -2386 0
-3892 1757 -2387 0
-3893 3892 0
-3893 -1757 2387 0
-3893 1757 -2387 0
3893 -3892 1757 2387 0
3893 -3892 -1757 -2387 0
-3893 1758 -2388 0
-3894 3893 0
-3894 -1758 2388 0
-3894 1758 -2388 0
3894 -3893 1758 2388 0
3894 -3893 -1758 -2388 0
-3894 1759 -2389 0
-3895 3894 0
-3895 -1759 2389 0
-3895 1759 -2389 0
3895 -3894 1759 2389 0
3895 -3894 -1759 -2389 0
-3895 1760 -2390 0
-3896 3895 0
-3896 -1760 2390 0
-3896 1760 -2390 0
3896 -3895 1760 2390 0
3896 -3895 -1760 -2390 0
-3896 1761 -2391 0
-3897 3896 0
-3897 -1761 2391 0
-3897 1761 -2391 0
3897 -3896 1761 2391 0
3897 -3896 -1761 -2391 0
-3897 1762 -2392 0
-3898 3897 0
-3898 -1762 2392 0
-3898 1762 -2392 0
3898 -3897 1762 2392 0
3898 -3897 -1762 -2392 0
-3898 1852 -2482 0
-3899 3898 0
-3899 -1852 2482 0
-3899 1852 -2482 0
3899 -3898 1852 2482 0
3899 -3898 -1852 -2482 0
-3899 1853 -2483 0
-3900 3899 0
-3900 -1853 2483 0
-3900 1853 -2483 0
3900 -3899 1853 2483 0
3900 -3899 -1853 -2483 0
-3900 1854 -2484 0
-3901 3900 0
-3901 -1854 2484 0
-3901 1854 -2484 0
3901 -3900 1854 2484 0
3901 -3900 -1854 -2484 0
-3901 1855 -2485 0
-3902 3901 0
-3902 -1855 2485 0
-3902 1855 -2485 0
3902 -3901 1855 2485 0
3902 -3901 -1855 -2485 0
-3902 1856 -2486 0
-3903 3902 0
-3903 -1856 2486 0
-3903 1856 -2486 0
3903 -3902 1856 2486 0
3903 -3902 -1856 -2486 0
-3903 1857 -2487 0
-3904 3903 0
-3904 -1857 2487 0
-3904 1857 -2487 0
3904 -3903 1857 2487 0
3904 -3903 -1857 -2487 0
-3904 1858 -2488 0
-3905 3904 0
-3905 -1858 2488 0
-3905 1858 -2488 0
3905 -3904 1858 2488 0
3905 -3904 -1858 -2488 0
-3905 1859 -2489 0
-3906 3905 0
-3906 -1859 2489 0
-3906 1859 -2489 0
3906 -3905 1859 2489 0
3906 -3905 -1859 -2489 0
-3906 1860 -2490 0
-3907 3906 0
-3907 -1860 2490 0
-3907 1860 -2490 0
3907 -3906 1860 2490 0
3907 -3906 -1860 -2490 0
-3907 1861 -2491 0
-3908 3907 0
-3908 -1861 2491 0
-3908 1861 -2491 0
3908 -3907 1861 2491 0
3908 -3907 -1861 -2491 0
-3908 1862 -2492 0
-3909 3908 0
-3909 -1862 2492 0
-3909 1862 -2492 0
3909 -3908 1862 2492 0
3909 -3908 -1862 -2492 0
-3909 1863 -2493 0
-3910 3909 0
-3910 -1863 2493 0
-3910 1863 -2493 0
3910 -3909 1863 2493 0
3910 -3909 -1863 -2493 0
-3910 1864 -2494 0
-3911 3910 0
-3911 -1864 2494 0
-3911 1864 -2494 0
3911 -3910 1864 2494 0
3911 -3910 -1864 -2494 0
-3911 1865 -2495 0
-3912 3911 0
-3912 -1865 2495 0
-3912 1865 -2495 0
3912 -3911 1865 2495 0
3912 -3911 -1865 -2495 0
-3912 1866 -2496 0
-3913 3912 0
-3913 -1866 2496 0
-3913 1866 -2496 0
3913 -3912 1866 2496 0
3913 -3912 -1866 -2496 0
-3913 1867 -2497 0
-3914 3913 0
-3914 -1867 2497 0
-3914 1867 -2497 0
3914 -3913 1867 2497 0
3914 -3913 -1867 -2497 0
-3914 1957 -2587 0
-3915 3914 0
-3915 -1957 2587 0
-3915 1957 -2587 0
3915 -3914 1957 2587 0
3915 -3914 -1957 -2587 0
-3915 1958 -2588 0
-3916 3915 0
-3916 -1958 2588 0
-3916 1958 -2588 0
3916 -3915 1958 2588 0
3916 -3915 -1958 -2588 0
-3916 1959 -2589 0
-3917 3916 0
-3917 -1959 2589 0
-3917 1959 -2589 0
3917 -3916 1959 2589 0
3917 -3916 -1959 -2589 0
-3917 1960 -2590 0
-3918 3917 0
-3918 -1960 2590 0
-3918 1960 -2590 0
3918 -3917 1960 2590 0
3918 -3917 -1960 -2590 0
-3918 1961 -2591 0
-3919 3918 0
-3919 -1961 2591 0
-3919 1961 -2591 0
3919 -3918 1961 2591 0
3919 -3918 -1961 -2591 0
-3919 1962 -2592 0
-3920 3919 0
-3920 -1962 2592 0
-3920 1962 -2592 0
3920 -3919 1962 2592 0
3920 -3919 -1962 -2592 0
-3920 1963 -2593 0
-3921 3920 0
-3921 -1963 2593 0
-3921 1963 -2593 0
3921 -3920 1963 2593 0
3921 -3920 -1963 -2593 0
-3921 1964 -2594 0
-3922 3921 0
-3922 -1964 2594 0
-3922 1964 -2594 0
3922 -3921 1964 2594 0
3922 -3921 -1964 -2594 0
-3922 1965 -2595 0
-3923 3922 0
-3923 -1965 2595 0
-3923 1965 -2595 0
3923 -3922 1965 2595 0
3923 -3922 -1965 -2595 0
-3923 1966 -2596 0
-3924 3923 0
-3924 -1966 2596 0
-3924 1966 -2596 0
3924 -3923 1966 2596 0
3924 -3923 -1966 -2596 0
-3924 1967 -2597 0
-3925 3924 0
-3925 -1967 2597 0
-3925 1967 -2597 0
3925 -3924 1967 2597 0
3925 -3924 -1967 -2597 0
-3925 1968 -2598 0
-3926 3925 0
-3926 -1968 2598 0
-3926 1968 -2598 0
3926 -3925 1968 2598 0
3926 -3925 -1968 -2598 0
-3926 1969 -2599 0
-3927 3926 0
-3927 -1969 2599 0
-3927 1969 -2599 0
3927 -3926 1969 2599 0
3927 -3926 -1969 -2599 0
-3927 1970 -2600 0
-3928 3927 0
-3928 -1970 2600 0
-3928 1970 -2600 0
3928 -3927 1970 2600 0
3928 -3927 -1970 -2600 0
-3928 1971 -2601 0
-3929 3928 0
-3929 -1971 2601 0
-3929 1971 -2601 0
3929 -3928 1971 2601 0
3929 -3928 -1971 -2601 0
-3929 1972 -2602 0
-3930 3929 0
-3930 -1972 2602 0
-3930 1972 -2602 0
3930 -3929 1972 2602 0
3930 -3929 -1972 -2602 0
-3930 2062 -2692 0
-3931 3930 0
-3931 -2062 2692 0
-3931 2062 -2692 0
3931 -3930 2062 2692 0
3931 -3930 -2062 -2692 0
-3931 2063 -2693 0
-3932 3931 0
-3932 -2063 2693 0
-3932 2063 -2693 0
3932 -3931 2063 2693 0
3932 -3931 -2063 -2693 0
-3932 2064 -2694 0
-3933 3932 0
-3933 -2064 2694 0
-3933 2064 -2694 0
3933 -3932 2064 2694 0
3933 -3932 -2064 -2694 0
-3933 2065 -2695 0
-3934 3933 0
-3934 -2065 2695 0
-3934 2065 -2695 0
3934 -3933 2065 2695 0
3934 -3933 -2065 -2695 0
-3934 2066 -2696 0
-3935 3934 0
-3935 -2066 2696 0
-3935 2066 -2696 0
3935 -3934 2066 2696 0
3935 -3934 -2066 -2696 0
-3935 2067 -2697 0
-3936 3935 0
-3936 -2067 2697 0
-3936 2067 -2697 0
3936 -3935 2067 2697 0
3936 -3935 -2067 -2697 0
-3936 2068 -2698 0
-3937 3936 0
-3937 -2068 2698 0
-3937 2068 -2698 0
3937 -3936 2068 2698 0
3937 -3936 -2068 -2698 0
-3937 2069 -2699 0
-3938 3937 0
-3938 -2069 2699 0
-3938 2069 -2699 0
3938 -3937 2069 2699 0
3938 -3937 -2069 -2699 0
-3938 2070 -2700 0
-3939 3938 0
-3939 -2070 2700 0
-3939 2070 -2700 0
3939 -3938 2070 2700 0
3939 -3938 -2070 -2700 0
-3939 2071 -2701 0
-3940 3939 0
-3940 -2071 2701 0
-3940 2071 -2701 0
3940 -3939 2071 2701 0
3940 -3939 -2071 -2701 0
-3940 2072 -2702 0
-3941 3940 0
-3941 -2072 2702 0
-3941 2072 -2702 0
3941 -3940 2072 2702 0
3941 -3940 -2072 -2702 0
-3941 2073 -2703 0
-3942 3941 0
-3942 -2073 2703 0
-3942 2073 -2703 0
3942 -3941 2073 2703 0
3942 -3941 -2073 -2703 0
-3942 2074 -2704 0
-3943 3942 0
-3943 -2074 2704 0
-3943 2074 -2704 0
3943 -3942 2074 2704 0
3943 -3942 -2074 -2704 0
-3943 2075 -2705 0
-3944 3943 0
-3944 -2075 2705 0
-3944 2075 -2705 0
3944 -3943 2075 2705 0
3944 -3943 -2075 -2705 0
-3944 2076 -2706 0
-3945 3944 0
-3945 -2076 2706 0
-3945 2076 -2706 0
3945 -3944 2076 2706 0
3945 -3944 -2076 -2706 0
-3945 2077 -2707 0
-3946 3945 0
-3946 -2077 2707 0
-3946 2077 -2707 0
3946 -3945 2077 2707 0
3946 -3945 -2077 -2707 0
-3946 2167 -1537 0
-3947 3946 0
-3947 -2167 1537 0
-3947 2167 -1537 0
3947 -3946 2167 1537 0
3947 -3946 -2167 -1537 0
-3947 2168 -1538 0
-3948 3947 0
-3948 -2168 1538 0
-3948 2168 -1538 0
3948 -3947 2168 1538 0
3948 -3947 -2168 -1538 0
-3948 2169 -1539 0
-3949 3948 0
-3949 -2169 1539 0
-3949 2169 -1539 0
3949 -3948 2169 1539 0
3949 -3948 -2169 -1539 0
-3949 2170 -1540 0
-3950 3949 0
-3950 -2170 1540 0
-3950 2170 -1540 0
3950 -3949 2170 1540 0
3950 -3949 -2170 -1540 0
-3950 2171 -1541 0
-3951 3950 0
-3951 -2171 1541 0
-3951 2171 -1541 0
3951 -3950 2171 1541 0
3951 -3950 -2171 -1541 0
-3951 2172 -1542 0
-3952 3951 0
-3952 -2172 1542 0
-3952 2172 -1542 0
3952 -3951 2172 1542 0
3952 -3951 -2172 -1542 0
-3952 2173 -1543 0
-3953 3952 0
-3953 -2173 1543 0
-3953 2173 -1543 0
3953 -3952 2173 1543 0
3953 -3952 -2173 -1543 0
-3953 2174 -1544 0
-3954 3953 0
-3954 -2174 1544 0
-3954 2174 -1544 0
3954 -3953 2174 1544 0
3954 -3953 -2174 -1544 0
-3954 2175 -1545 0
-3955 3954 0
-3955 -2175 1545 0
-3955 2175 -1545 0
3955 -3954 2175 1545 0
3955 -3954 -2175 -1545 0
-3955 2176 -1546 0
-3956 3955 0
-3956 -2176 1546 0
-3956 2176 -1546 0
3956 -3955 2176 1546 0
3956 -3955 -2176 -1546 0
-3956 2177 -1547 0
-3957 3956 0
-3957 -2177 1547 0
-3957 2177 -1547 0
3957 -3956 2177 1547 0
3957 -3956 -2177 -1547 0
-3957 2178 -1548 0
-3958 3957 0
-3958 -2178 1548 0
-3958 2178 -1548 0
3958 -3957 2178 1548 0
3958 -3957 -2178 -1548 0
-3958 2179 -1549 0
-3959 3958 0
-3959 -2179 1549 0
-3959 2179 -1549 0
3959 -3958 2179 1549 0
3959 -3958 -2179 -1549 0
-3959 2180 -1550 0
-3960 3959 0
-3960 -2180 1550 0
-3960 2180 -1550 0
3960 -3959 2180 1550 0
3960 -3959 -2180 -1550 0
-3960 2181 -1551 0
-3961 3960 0
-3961 -2181 1551 0
-3961 2181 -1551 0
3961 -3960 2181 1551 0
3961 -3960 -2181 -1551 0
-3961 2182 -1552 0
-3962 3961 0
-3962 -2182 1552 0
-3962 2182 -1552 0
3962 -3961 2182 1552 0
3962 -3961 -2182 -1552 0
-3962 2272 -1642 0
-3963 3962 0
-3963 -2272 1642 0
-3963 2272 -1642 0
3963 -3962 2272 1642 0
3963 -3962 -2272 -1642 0
-3963 2273 -1643 0
-3964 3963 0
-3964 -2273 1643 0
-3964 2273 -1643 0
3964 -3963 2273 1643 0
3964 -3963 -2273 -1643 0
-3964 2274 -1644 0
-3965 3964 0
-3965 -2274 1644 0
-3965 2274 -1644 0
3965 -3964 2274 1644 0
3965 -3964 -2274 -1644 0
-3965 2275 -1645 0
-3966 3965 0
-3966 -2275 1645 0
-3966 2275 -1645 0
3966 -3965 2275 1645 0
3966 -3965 -2275 -1645 0
-3966 2276 -1646 0
-3967 3966 0
-3967 -2276 1646 0
-3967 2276 -1646 0
3967 -3966 2276 1646 0
3967 -3966 -2276 -1646 0
-3967 2277 -1647 0
-3968 3967 0
-3968 -2277 1647 0
-3968 2277 -1647 0
3968 -3967 2277 1647 0
3968 -3967 -2277 -1647 0
-3968 2278 -1648 0
-3969 3968 0
-3969 -2278 1648 0
-3969 2278 -1648 0
3969 -3968 2278 1648 0
3969 -3968 -2278 -1648 0
-3969 2279 -1649 0
-3970 3969 0
-3970 -2279 1649 0
-3970 2279 -1649 0
3970 -3969 2279 1649 0
3970 -3969 -2279 -1649 0
-3970 2280 -1650 0
-3971 3970 0
-3971 -2280 1650 0
-3971 2280 -1650 0
3971 -3970 2280 1650 0
3971 -3970 -2280 -1650 0
-3971 2281 -1651 0
-3972 3971 0
-3972 -2281 1651 0
-3972 2281 -1651 0
3972 -3971 2281 1651 0
3972 -3971 -2281 -1651 0
-3972 2282 -1652 0
-3973 3972 0
-3973 -2282 1652 0
-3973 2282 -1652 0
3973 -3972 2282 1652 0
3973 -3972 -2282 -1652 0
-3973 2283 -1653 0
-3974 3973 0
-3974 -2283 1653 0
-3974 2283 -1653 0
3974 -3973 2283 1653 0
3974 -3973 -2283 -1653 0
-3974 2284 -1654 0
-3975 3974 0
-3975 -2284 1654 0
-3975 2284 -1654 0
3975 -3974 2284 1654 0
3975 -3974 -2284 -1654 0
-3975 2285 -1655 0
-3976 3975 0
-3976 -2285 1655 0
-3976 2285 -1655 0
3976 -3975 2285 1655 0
3976 -3975 -2285 -1655 0
-3976 2286 -1656 0
-3977 3976 0
-3977 -2286 1656 0
-3977 2286 -1656 0
3977 -3976 2286 1656 0
3977 -3976 -2286 -1656 0
-3977 2287 -1657 0
-3978 3977 0
-3978 -2287 1657 0
-3978 2287 -1657 0
3978 -3977 2287 1657 0
3978 -3977 -2287 -1657 0
-3978 2377 -1747 0
-3979 3978 0
-3979 -2377 1747 0
-3979 2377 -1747 0
3979 -3978 2377 1747 0
3979 -3978 -2377 -1747 0
-3979 2378 -1748 0
-3980 3979 0
-3980 -2378 1748 0
-3980 2378 -1748 0
3980 -3979 2378 1748 0
3980 -3979 -2378 -1748 0
-3980 2379 -1749 0
-3981 3980 0
-3981 -2379 1749 0
-3981 2379 -1749 0
3981 -3980 2379 1749 0
3981 -3980 -2379 -1749 0
-3981 2380 -1750 0
-3982 3981 0
-3982 -2380 1750 0
-3982 2380 -1750 0
3982 -3981 2380 1750 0
3982 -3981 -2380 -1750 0
-3982 2381 -1751 0
-3983 3982 0
-3983 -2381 1751 0
-3983 2381 -1751 0
3983 -3982 2381 1751 0
3983 -3982 -2381 -1751 0
-3983 2382 -1752 0
-3984 3983 0
-3984 -2382 1752 0
-3984 2382 -1752 0
3984 -3983 2382 1752 0
3984 -3983 -2382 -1752 0
-3984 2383 -1753 0
-3985 3984 0
-3985 -2383 1753 0
-3985 2383 -1753 0
3985 -3984 2383 1753 0
3985 -3984 -2383 -1753 0
-3985 2384 -1754 0
-3986 3985 0
-3986 -2384 1754 0
-3986 2384 -1754 0
3986 -3985 2384 1754 0
3986 -3985 -2384 -1754 0
-3986 2385 -1755 0
-3987 3986 0
-3987 -2385 1755 0
-3987 2385 -1755 0
3987 -3986 2385 1755 0
3987 -3986 -2385 -1755 0
-3987 2386 -1756 0
-3988 3987 0
-3988 -2386 1756 0
-3988 2386 -1756 0
3988 -3987 2386 1756 0
3988 -3987 -2386 -1756 0
-3988 2387 -1757 0
-3989 3988 0
-3989 -2387 1757 0
-3989 2387 -1757 0
3989 -3988 2387 1757 0
3989 -3988 -2387 -1757 0
-3989 2388 -1758 0
-3990 3989 0
-3990 -2388 1758 0
-3990 2388 -1758 0
3990 -3989 2388 1758 0
3990 -3989 -2388 -1758 0
-3990 2389 -1759 0
-3991 3990 0
-3991 -2389 1759 0
-3991 2389 -1759 0
3991 -3990 2389 1759 0
3991 -3990 -2389 -1759 0
-3991 2390 -1760 0
-3992 3991 0
-3992 -2390 1760 0
-3992 2390 -1760 0
3992 -3991 2390 1760 0
3992 -3991 -2390 -1760 0
-3992 2391 -1761 0
-3993 3992 0
-3993 -2391 1761 0
-3993 2391 -1761 0
3993 -3992 2391 1761 0
3993 -3992 -2391 -1761 0
-3993 2392 -1762 0
-3994 3993 0
-3994 -2392 1762 0
-3994 2392 -1762 0
3994 -3993 2392 1762 0
3994 -3993 -2392 -1762 0
-3994 2482 -1852 0
-3995 3994 0
-3995 -2482 1852 0
-3995 2482 -1852 0
3995 -3994 2482 1852 0
3995 -3994 -2482 -1852 0
-3995 2483 -1853 0
-3996 3995 0
-3996 -2483 1853 0
-3996 2483 -1853 0
3996 -3995 2483 1853 0
3996 -3995 -2483 -1853 0
-3996 2484 -1854 0
-3997 3996 0
-3997 -2484 1854 0
-3997 2484 -1854 0
3997 -3996 2484 1854 0
3997 -3996 -2484 -1854 0
-3997 2485 -1855 0
-3998 3997 0
-3998 -2485 1855 0
-3998 2485 -1855 0
3998 -3997 2485 1855 0
3998 -3997 -2485 -1855 0
-3998 2486 -1856 0
-3999 3998 0
-3999 -2486 1856 0
-3999 2486 -1856 0
3999 -3998 2486 1856 0
3999 -3998 -2486 -1856 0
-3999 2487 -1857 0
-4000 3999 0
-4000 -2487 1857 0
-4000 2487 -1857 0
4000 -3999 2487 1857 0
4000 -3999 -2487 -1857 0
-4000 2488 -1858 0
-4001 4000 0
-4001 -2488 1858 0
-4001 2488 -1858 0
4001 -4000 2488 1858 0
4001 -4000 -2488 -1858 0
-4001 2489 -1859 0
-4002 4001 0
-4002 -2489 1859 0
-4002 2489 -1859 0
4002 -4001 2489 1859 0
4002 -4001 -2489 -1859 0
-4002 2490 -1860 0
-4003 4002 0
-4003 -2490 1860 0
-4003 2490 -1860 0
4003 -4002 2490 1860 0
4003 -4002 -2490 -1860 0
-4003 2491 -1861 0
-4004 4003 0
-4004 -2491 1861 0
-4004 2491 -1861 0
4004 -4003 2491 1861 0
4004 -4003 -2491 -1861 0
-4004 2492 -1862 0
-4005 4004 0
-4005 -2492 1862 0
-4005 2492 -1862 0
4005 -4004 2492 1862 0
4005 -4004 -2492 -1862 0
-4005 2493 -1863 0
-4006 4005 0
-4006 -2493 1863 0
-4006 2493 -1863 0
4006 -4005 2493 1863 0
4006 -4005 -2493 -1863 0
-4006 2494 -1864 0
-4007 4006 0
-4007 -2494 1864 0
-4007 2494 -1864 0
4007 -4006 2494 1864 0
4007 -4006 -2494 -1864 0
-4007 2495 -1865 0
-4008 4007 0
-4008 -2495 1865 0
-4008 2495 -1865 0
4008 -4007 2495 1865 0
4008 -4007 -2495 -1865 0
-4008 2496 -1866 0
-4009 4008 0
-4009 -2496 1866 0
-4009 2496 -1866 0
4009 -4008 2496 1866 0
4009 -4008 -2496 -1866 0
-4009 2497 -1867 0
-4010 4009 0
-4010 -2497 1867 0
-4010 2497 -1867 0
4010 -4009 2497 1867 0
4010 -4009 -2497 -1867 0
-4010 2587 -1957 0
-4011 4010 0
-4011 -2587 1957 0
-4011 2587 -1957 0
4011 -4010 2587 1957 0
4011 -4010 -2587 -1957 0
-4011 2588 -1958 0
-4012 4011 0
-4012 -2588 1958 0
-4012 2588 -1958 0
4012 -4011 2588 1958 0
4012 -4011 -2588 -1958 0
-4012 2589 -1959 0
-4013 4012 0
-4013 -2589 1959 0
-4013 2589 -1959 0
4013 -4012 2589 1959 0
4013 -4012 -2589 -1959 0
-4013 2590 -1960 0
-4014 4013 0
-4014 -2590 1960 0
-4014 2590 -1960 0
4014 -4013 2590 1960 0
4014 -4013 -2590 -1960 0
-4014 2591 -1961 0
-4015 4014 0
-4015 -2591 1961 0
-4015 2591 -1961 0
4015 -4014 2591 1961 0
4015 -4014 -2591 -1961 0
-4015 2592 -1962 0
-4016 4015 0
-4016 -2592 1962 0
-4016 2592 -1962 0
4016 -4015 2592 1962 0
4016 -4015 -2592 -1962 0
-4016 2593 -1963 0
-4017 4016 0
-4017 -2593 1963 0
-4017 2593 -1963 0
4017 -4016 2593 1963 0
4017 -4016 -2593 -1963 0
-4017 2594 -1964 0
-4018 4017 0
-4018 -2594 1964 0
-4018 2594 -1964 0
4018 -4017 2594 1964 0
4018 -4017 -2594 -1964 0
-4018 2595 -1965 0
-4019 4018 0
-4019 -2595 1965 0
-4019 2595 -1965 0
4019 -4018 2595 1965 0
4019 -4018 -2595 -1965 0
-4019 2596 -1966 0
-4020 4019 0
-4020 -2596 1966 0
-4020 2596 -1966 0
4020 -4019 2596 1966 0
4020 -4019 -2596 -1966 0
-4020 2597 -1967 0
-4021 4020 0
-4021 -2597 1967 0
-4021 2597 -1967 0
4021 -4020 2597 1967 0
4021 -4020 -2597 -1967 0
-4021 2598 -1968 0
-4022 4021 0
-4022 -2598 1968 0
-4022 2598 -1968 0
4022 -4021 2598 1968 0
4022 -4021 -2598 -1968 0
-4022 2599 -1969 0
-4023 4022 0
-4023 -2599 1969 0
-4023 2599 -1969 0
4023 -4022 2599 1969 0
4023 -4022 -2599 -1969 0
-4023 2600 -1970 0
-4024 4023 0
-4024 -2600 1970 0
-4024 2600 -1970 0
4024 -4023 2600 1970 0
4024 -4023 -2600 -1970 0
-4024 2601 -1971 0
-4025 4024 0
-4025 -2601 1971 0
-4025 2601 -1971 0
4025 -4024 2601 1971 0
4025 -4024 -2601 -1971 0
-4025 2602 -1972 0
-4026 4025 0
-4026 -2602 1972 0
-4026 2602 -1972 0
4026 -4025 2602 1972 0
4026 -4025 -2602 -1972 0
-4026 2692 -2062 0
-4027 4026 0
-4027 -2692 2062 0
-4027 2692 -2062 0
4027 -4026 2692 2062 0
4027 -4026 -2692 -2062 0
-4027 2693 -2063 0
-4028 4027 0
-4028 -2693 2063 0
-4028 2693 -2063 0
4028 -4027 2693 2063 0
4028 -4027 -2693 -2063 0
-4028 2694 -2064 0
-4029 4028 0
-4029 -2694 2064 0
-4029 2694 -2064 0
4029 -4028 2694 2064 0
4029 -4028 -2694 -2064 0
-4029 2695 -2065 0
-4030 4029 0
-4030 -2695 2065 0
-4030 2695 -2065 0
4030 -4029 2695 2065 0
4030 -4029 -2695 -2065 0
-4030 2696 -2066 0
-4031 4030 0
-4031 -2696 2066 0
-4031 2696 -2066 0
4031 -4030 2696 2066 0
4031 -4030 -2696 -2066 0
-4031 2697 -2067 0
-4032 4031 0
-4032 -2697 2067 0
-4032 2697 -2067 0
4032 -4031 2697 2067 0
4032 -4031 -2697 -2067 0
-4032 2698 -2068 0
-4033 4032 0
-4033 -2698 2068 0
-4033 2698 -2068 0
4033 -4032 2698 2068 0
4033 -4032 -2698 -2068 0
-4033 2699 -2069 0
-4034 4033 0
-4034 -2699 2069 0
-4034 2699 -2069 0
4034 -4033 2699 2069 0
4034 -4033 -2699 -2069 0
-4034 2700 -2070 0
-4035 4034 0
-4035 -2700 2070 0
-4035 2700 -2070 0
4035 -4034 2700 2070 0
4035 -4034 -2700 -2070 0
-4035 2701 -2071 0
-4036 4035 0
-4036 -2701 2071 0
-4036 2701 -2071 0
4036 -4035 2701 2071 0
4036 -4035 -2701 -2071 0
-4036 2702 -2072 0
-4037 4036 0
-4037 -2702 2072 0
-4037 2702 -2072 0
4037 -4036 2702 2072 0
4037 -4036 -2702 -2072 0
-4037 2703 -2073 0
-4038 4037 0
-4038 -2703 2073 0
-4038 2703 -2073 0
4038 -4037 2703 2073 0
4038 -4037 -2703 -2073 0
-4038 2704 -2074 0
-4039 4038 0
-4039 -2704 2074 0
-4039 2704 -2074 0
4039 -4038 2704 2074 0
4039 -4038 -2704 -2074 0
-4039 2705 -2075 0
-4040 4039 0
-4040 -2705 2075 0
-4040 2705 -2075 0
4040 -4039 2705 2075 0
4040 -4039 -2705 -2075 0
-4040 2706 -2076 0
-4041 4040 0
-4041 -2706 2076 0
-4041 2706 -2076 0
4041 -4040 2706 2076 0
4041 -4040 -2706 -2076 0
-4041 2707 -2077 0
1537 -2272 0
-4042 -1537 2272 0
-4042 1537 -2272 0
4042 1537 2272 0
4042 -1537 -2272 0
-4042 1538 -2273 0
-4043 4042 0
-4043 -1538 2273 0
-4043 1538 -2273 0
4043 -4042 1538 2273 0
4043 -4042 -1538 -2273 0
-4043 1539 -2274 0
-4044 4043 0
-4044 -1539 2274 0
-4044 1539 -2274 0
4044 -4043 1539 2274 0
4044 -4043 -1539 -2274 0
-4044 1540 -2275 0
-4045 4044 0
-4045 -1540 2275 0
-4045 1540 -2275 0
4045 -4044 1540 2275 0
4045 -4044 -1540 -2275 0
-4045 1541 -2276 0
-4046 4045 0
-4046 -1541 2276 0
-4046 1541 -2276 0
4046 -4045 1541 2276 0
4046 -4045 -1541 -2276 0
-4046 1542 -2277 0
-4047 4046 0
-4047 -1542 2277 0
-4047 1542 -2277 0
4047 -4046 1542 2277 0
4047 -4046 -1542 -2277 0
-4047 1543 -2278 0
-4048 4047 0
-4048 -1543 2278 0
-4048 1543 -2278 0
4048 -4047 1543 2278 0
4048 -4047 -1543 -2278 0
-4048 1544 -2279 0
-4049 4048 0
-4049 -1544 2279 0
-4049 1544 -2279 0
4049 -4048 1544 2279 0
4049 -4048 -1544 -2279 0
-4049 1545 -2280 0
-4050 4049 0
-4050 -1545 2280 0
-4050 1545 -2280 0
4050 -4049 1545 2280 0
4050 -4049 -1545 -2280 0
-4050 1546 -2281 0
-4051 4050 0
-4051 -1546 2281 0
-4051 1546 -2281 0
4051 -4050 1546 2281 0
4051 -4050 -1546 -2281 0
-4051 1547 -2282 0
-4052 4051 0
-4052 -1547 2282 0
-4052 1547 -2282 0
4052 -4051 1547 2282 0
4052 -4051 -1547 -2282 0
-4052 1548 -2283 0
-4053 4052 0
-4053 -1548 2283 0
-4053 1548 -2283 0
4053 -4052 1548 2283 0
4053 -4052 -1548 -2283 0
-4053 1549 -2284 0
-4054 4053 0
-4054 -1549 2284 0
-4054 1549 -2284 0
4054 -4053 1549 2284 0
4054 -4053 -1549 -2284 0
-4054 1550 -2285 0
-4055 4054 0
-4055 -1550 2285 0
-4055 1550 -2285 0
4055 -4054 1550 2285 0
4055 -4054 -1550 -2285 0
-4055 1551 -2286 0
-4056 4055 0
-4056 -1551 2286 0
-4056 1551 -2286 0
4056 -4055 1551 2286 0
4056 -4055 -1551 -2286 0
-4056 1552 -2287 0
-4057 4056 0
-4057 -1552 2287 0
-4057 1552 -2287 0
4057 -4056 1552 2287 0
4057 -4056 -1552 -2287 0
-4057 1642 -2377 0
-4058 4057 0
-4058 -1642 2377 0
-4058 1642 -2377 0
4058 -4057 1642 2377 0
4058 -4057 -1642 -2377 0
-4058 1643 -2378 0
-4059 4058 0
-4059 -1643 2378 0
-4059 1643 -2378 0
4059 -4058 1643 2378 0
4059 -4058 -1643 -2378 0
-4059 1644 -2379 0
-4060 4059 0
-4060 -1644 2379 0
-4060 1644 -2379 0
4060 -4059 1644 2379 0
4060 -4059 -1644 -2379 0
-4060 1645 -2380 0
-4061 4060 0
-4061 -1645 2380 0
-4061 1645 -2380 0
4061 -4060 1645 2380 0
4061 -4060 -1645 -2380 0
-4061 1646 -2381 0
-4062 4061 0
-4062 -1646 2381 0
-4062 1646 -2381 0
4062 -4061 1646 2381 0
4062 -4061 -1646 -2381 0
-4062 1647 -2382 0
-4063 4062 0
-4063 -1647 2382 0
-4063 1647 -2382 0
4063 -4062 1647 2382 0
4063 -4062 -1647 -2382 0
-4063 1648 -2383 0
-4064 4063 0
-4064 -1648 2383 0
-4064 1648 -2383 0
4064 -4063 1648 2383 0
4064 -4063 -1648 -2383 0
-4064 1649 -2384 0
-4065 4064 0
-4065 -1649 2384 0
-4065 1649 -2384 0
4065 -4064 1649 2384 0
4065 -4064 -1649 -2384 0
-4065 1650 -2385 0
-4066 4065 0
-4066 -1650 2385 0
-4066 1650 -2385 0
4066 -4065 1650 2385 0
4066 -4065 -1650 -2385 0
-4066 1651 -2386 0
-4067 4066 0
-4067 -1651 2386 0
-4067 1651 -2386 0
4067 -4066 1651 2386 0
4067 -4066 -1651 -2386 0
-4067 1652 -2387 0
-4068 4067 0
-4068 -1652 2387 0
-4068 1652 -2387 0
4068 -4067 1652 2387 0
4068 -4067 -1652 -2387 0
-4068 1653 -2388 0
-4069 4068 0
-4069 -1653 2388 0
-4069 1653 -2388 0
4069 -4068 1653 2388 0
4069 -4068 -1653 -2388 0
-4069 1654 -2389 0
-4070 4069 0
-4070 -1654 2389 0
-4070 1654 -2389 0
4070 -4069 1654 2389 0
4070 -4069 -1654 -2389 0
-4070 1655 -2390 0
-4071 4070 0
-4071 -1655 2390 0
-4071 1655 -2390 0
4071 -4070 1655 2390 0
4071 -4070 -1655 -2390 0
-4071 1656 -2391 0
-4072 4071 0
-4072 -1656 2391 0
-4072 1656 -2391 0
4072 -4071 1656 2391 0
4072 -4071 -1656 -2391 0
-4072 1657 -2392 0
-4073 4072 0
-4073 -1657 2392 0
-4073 1657 -2392 0
4073 -4072 1657 2392 0
4073 -4072 -1657 -2392 0
-4073 1747 -2482 0
-4074 4073 0
-4074 -1747 2482 0
-4074 1747 -2482 0
4074 -4073 1747 2482 0
4074 -4073 -1747 -2482 0
-4074 1748 -2483 0
-4075 4074 0
-4075 -1748 2483 0
-4075 1748 -2483 0
4075 -4074 1748 2483 0
4075 -4074 -1748 -2483 0
-4075 1749 -2484 0
-4076 4075 0
-4076 -1749 2484 0
-4076 1749 -2484 0
4076 -4075 1749 2484 0
4076 -4075 -1749 -2484 0
-4076 1750 -2485 0
-4077 4076 0
-4077 -1750 2485 0
-4077 1750 -2485 0
4077 -4076 1750 2485 0
4077 -4076 -1750 -2485 0
-4077 1751 -2486 0
-4078 4077 0
-4078 -1751 2486 0
-4078 1751 -2486 0
4078 -4077 1751 2486 0
4078 -4077 -1751 -2486 0
-4078 1752 -2487 0
-4079 4078 0
-4079 -1752 2487 0
-4079 1752 -2487 0
4079 -4078 1752 2487 0
4079 -4078 -1752 -2487 0
-4079 1753 -2488 0
-4080 4079 0
-4080 -1753 2488 0
-4080 1753 -2488 0
4080 -4079 1753 2488 0
4080 -4079 -1753 -2488 0
-4080 1754 -2489 0
-4081 4080 0
-4081 -1754 2489 0
-4081 1754 -2489 0
4081 -4080 1754 2489 0
4081 -4080 -1754 -2489 0
-4081 1755 -2490 0
-4082 4081 0
-4082 -1755 2490 0
-4082 1755 -2490 0
4082 -4081 1755 2490 0
4082 -4081 -1755 -2490 0
-4082 1756 -2491 0
-4083 4082 0
-4083 -1756 2491 0
-4083 1756 -2491 0
4083 -4082 1756 2491 0
4083 -4082 -1756 -2491 0
-4083 1757 -2492 0
-4084 4083 0
-4084 -1757 2492 0
-4084 1757 -2492 0
4084 -4083 1757 2492 0
4084 -4083 -1757 -2492 0
-4084 1758 -2493 0
-4085 4084 0
-4085 -1758 2493 0
-4085 1758 -2493 0
4085 -4084 1758 2493 0
4085 -4084 -1758 -2493 0
-4085 1759 -2494 0
-4086 4085 0
-4086 -1759 2494 0
-4086 1759 -2494 0
4086 -4085 1759 2494 0
4086 -4085 -1759 -2494 0
-4086 1760 -2495 0
-4087 4086 0
-4087 -1760 2495 0
-4087 1760 -2495 0
4087 -4086 1760 2495 0
4087 -4086 -1760 -2495 0
-4087 1761 -2496 0
-4088 4087 0
-4088 -1761 2496 0
-4088 1761 -2496 0
4088 -4087 1761 2496 0
4088 -4087 -1761 -2496 0
-4088 1762 -2497 0
-4089 4088 0
-4089 -1762 2497 0
-4089 1762 -2497 0
4089 -4088 1762 2497 0
4089 -4088 -1762 -2497 0
-4089 1852 -2587 0
-4090 4089 0
-4090 -1852 2587 0
-4090 1852 -2587 0
4090 -4089 1852 2587 0
4090 -4089 -1852 -2587 0
-4090 1853 -2588 0
-4091 4090 0
-4091 -1853 2588 0
-4091 1853 -2588 0
4091 -4090 1853 2588 0
4091 -4090 -1853 -2588 0
-4091 1854 -2589 0
-4092 4091 0
-4092 -1854 2589 0
-4092 1854 -2589 0
4092 -4091 1854 2589 0
4092 -4091 -1854 -2589 0
-4092 1855 -2590 0
-4093 4092 0
-4093 -1855 2590 0
-4093 1855 -2590 0
4093 -4092 1855 2590 0
4093 -4092 -1855 -2590 0
-4093 1856 -2591 0
-4094 4093 0
-4094 -1856 2591 0
-4094 1856 -2591 0
4094 -4093 1856 2591 0
4094 -4093 -1856 -2591 0
-4094 1857 -2592 0
-4095 4094 0
-4095 -1857 2592 0
-4095 1857 -2592 0
4095 -4094 1857 2592 0
4095 -4094 -1857 -2592 0
-4095 1858 -2593 0
-4096 4095 0
-4096 -1858 2593 0
-4096 1858 -2593 0
4096 -4095 1858 2593 0
4096 -4095 -1858 -2593 0
-4096 1859 -2594 0
-4097 4096 0
-4097 -1859 2594 0
-4097 1859 -2594 0
4097 -4096 1859 2594 0
4097 -4096 -1859 -2594 0
-4097 1860 -2595 0
-4098 4097 0
-4098 -1860 2595 0
-4098 1860 -2595 0
4098 -4097 1860 2595 0
4098 -4097 -1860 -2595 0
-4098 1861 -2596 0
-4099 4098 0
-4099 -1861 2596 0
-4099 1861 -2596 0
4099 -4098 1861 2596 0
4099 -4098 -1861 -2596 0
-4099 1862 -2597 0
-4100 4099 0
-4100 -1862 2597 0
-4100 1862 -2597 0
4100 -4099 1862 2597 0
4100 -4099 -1862 -2597 0
-4100 1863 -2598 0
-4101 4100 0
-4101 -1863 2598 0
-4101 1863 -2598 0
4101 -4100 1863 2598 0
4101 -4100 -1863 -2598 0
-4101 1864 -2599 0
-4102 4101 0
-4102 -1864 2599 0
-4102 1864 -2599 0
4102 -4101 1864 2599 0
4102 -4101 -1864 -2599 0
-4102 1865 -2600 0
-4103 4102 0
-4103 -1865 2600 0
-4103 1865 -2600 0
4103 -4102 1865 2600 0
4103 -4102 -1865 -2600 0
-4103 1866 -2601 0
-4104 4103 0
-4104 -1866 2601 0
-4104 1866 -2601 0
4104 -4103 1866 2601 0
4104 -4103 -1866 -2601 0
-4104 1867 -2602 0
-4105 4104 0
-4105 -1867 2602 0
-4105 1867 -2602 0
4105 -4104 1867 2602 0
4105 -4104 -1867 -2602 0
-4105 1957 -2692 0
-4106 4105 0
-4106 -1957 2692 0
-4106 1957 -2692 0
4106 -4105 1957 2692 0
4106 -4105 -1957 -2692 0
-4106 1958 -2693 0
-4107 4106 0
-4107 -1958 2693 0
-4107 1958 -2693 0
4107 -4106 1958 2693 0
4107 -4106 -1958 -2693 0
-4107 1959 -2694 0
-4108 4107 0
-4108 -1959 2694 0
-4108 1959 -2694 0
4108 -4107 1959 2694 0
4108 -4107 -1959 -2694 0
-4108 1960 -2695 0
-4109 4108 0
-4109 -1960 2695 0
-4109 1960 -2695 0
4109 -4108 1960 2695 0
4109 -4108 -1960 -2695 0
-4109 1961 -2696 0
-4110 4109 0
-4110 -1961 2696 0
-4110 1961 -2696 0
4110 -4109 1961 2696 0
4110 -4109 -1961 -2696 0
-4110 1962 -2697 0
-4111 4110 0
-4111 -1962 2697 0
-4111 1962 -2697 0
4111 -4110 1962 2697 0
4111 -4110 -1962 -2697 0
-4111 1963 -2698 0
-4112 4111 0
-4112 -1963 2698 0
-4112 1963 -2698 0
4112 -4111 1963 2698 0
4112 -4111 -1963 -2698 0
-4112 1964 -2699 0
-4113 4112 0
-4113 -1964 2699 0
-4113 1964 -2699 0
4113 -4112 1964 2699 0
4113 -4112 -1964 -2699 0
-4113 1965 -2700 0
-4114 4113 0
-4114 -1965 2700 0
-4114 1965 -2700 0
4114 -4113 1965 2700 0
4114 -4113 -1965 -2700 0
-4114 1966 -2701 0
-4115 4114 0
-4115 -1966 2701 0
-4115 1966 -2701 0
4115 -4114 1966 2701 0
4115 -4114 -1966 -2701 0
-4115 1967 -2702 0
-4116 4115 0
-4116 -1967 2702 0
-4116 1967 -2702 0
4116 -4115 1967 2702 0
4116 -4115 -1967 -2702 0
-4116 1968 -2703 0
-4117 4116 0
-4117 -1968 2703 0
-4117 1968 -2703 0
4117 -4116 1968 2703 0
4117 -4116 -1968 -2703 0
-4117 1969 -2704 0
-4118 4117 0
-4118 -1969 2704 0
-4118 1969 -2704 0
4118 -4117 1969 2704 0
4118 -4117 -1969 -2704 0
-4118 1970 -2705 0
-4119 4118 0
-4119 -1970 2705 0
-4119 1970 -2705 0
4119 -4118 1970 2705 0
4119 -4118 -1970 -2705 0
-4119 1971 -2706 0
-4120 4119 0
-4120 -1971 2706 0
-4120 1971 -2706 0
4120 -4119 1971 2706 0
4120 -4119 -1971 -2706 0
-4120 1972 -2707 0
-4121 4120 0
-4121 -1972 2707 0
-4121 1972 -2707 0
4121 -4120 1972 2707 0
4121 -4120 -1972 -2707 0
-4121 2062 -1537 0
-4122 4121 0
-4122 -2062 1537 0
-4122 2062 -1537 0
4122 -4121 2062 1537 0
4122 -4121 -2062 -1537 0
-4122 2063 -1538 0
-4123 4122 0
-4123 -2063 1538 0
-4123 2063 -1538 0
4123 -4122 2063 1538 0
4123 -4122 -2063 -1538 0
-4123 2064 -1539 0
-4124 4123 0
-4124 -2064 1539 0
-4124 2064 -1539 0
4124 -4123 2064 1539 0
4124 -4123 -2064 -1539 0
-4124 2065 -1540 0
-4125 4124 0
-4125 -2065 1540 0
-4125 2065 -1540 0
4125 -4124 2065 1540 0
4125 -4124 -2065 -1540 0
-4125 2066 -1541 0
-4126 4125 0
-4126 -2066 1541 0
-4126 2066 -1541 0
4126 -4125 2066 1541 0
4126 -4125 -2066 -1541 0
-4126 2067 -1542 0
-4127 4126 0
-4127 -2067 1542 0
-4127 2067 -1542 0
4127 -4126 2067 1542 0
4127 -4126 -2067 -1542 0
-4127 2068 -1543 0
-4128 4127 0
-4128 -2068 1543 0
-4128 2068 -1543 0
4128 -4127 2068 1543 0
4128 -4127 -2068 -1543 0
-4128 2069 -1544 0
-4129 4128 0
-4129 -2069 1544 0
-4129 2069 -1544 0
4129 -4128 2069 1544 0
4129 -4128 -2069 -1544 0
-4129 2070 -1545 0
-4130 4129 0
-4130 -2070 1545 0
-4130 2070 -1545 0
4130 -4129 2070 1545 0
4130 -4129 -2070 -1545 0
-4130 2071 -1546 0
-4131 4130 0
-4131 -2071 1546 0
-4131 2071 -1546 0
4131 -4130 2071 1546 0
4131 -4130 -2071 -1546 0
-4131 2072 -1547 0
-4132 4131 0
-4132 -2072 1547 0
-4132 2072 -1547 0
4132 -4131 2072 1547 0
4132 -4131 -2072 -1547 0
-4132 2073 -1548 0
-4133 4132 0
-4133 -2073 1548 0
-4133 2073 -1548 0
4133 -4132 2073 1548 0
4133 -4132 -2073 -1548 0
-4133 2074 -1549 0
-4134 4133 0
-4134 -2074 1549 0
-4134 2074 -1549 0
4134 -4133 2074 1549 0
4134 -4133 -2074 -1549 0
-4134 2075 -1550 0
-4135 4134 0
-4135 -2075 1550 0
-4135 2075 -1550 0
4135 -4134 2075 1550 0
4135 -4134 -2075 -1550 0
-4135 2076 -1551 0
-4136 4135 0
-4136 -2076 1551 0
-4136 2076 -1551 0
4136 -4135 2076 1551 0
4136 -4135 -2076 -1551 0
-4136 2077 -1552 0
-4137 4136 0
-4137 -2077 1552 0
-4137 2077 -1552 0
4137 -4136 2077 1552 0
4137 -4136 -2077 -1552 0
-4137 2167 -1642 0
-4138 4137 0
-4138 -2167 1642 0
-4138 2167 -1642 0
4138 -4137 2167 1642 0
4138 -4137 -2167 -1642 0
-4138 2168 -1643 0
-4139 4138 0
-4139 -2168 1643 0
-4139 2168 -1643 0
4139 -4138 2168 1643 0
4139 -4138 -2168 -1643 0
-4139 2169 -1644 0
-4140 4139 0
-4140 -2169 1644 0
-4140 2169 -1644 0
4140 -4139 2169 1644 0
4140 -4139 -2169 -1644 0
-4140 2170 -1645 0
-4141 4140 0
-4141 -2170 1645 0
-4141 2170 -1645 0
4141 -4140 2170 1645 0
4141 -4140 -2170 -1645 0
-4141 2171 -1646 0
-4142 4141 0
-4142 -2171 1646 0
-4142 2171 -1646 0
4142 -4141 2171 1646 0
4142 -4141 -2171 -1646 0
-4142 2172 -1647 0
-4143 4142 0
-4143 -2172 1647 0
-4143 2172 -1647 0
4143 -4142 2172 1647 0
4143 -4142 -2172 -1647 0
-4143 2173 -1648 0
-4144 4143 0
-4144 -2173 1648 0
-4144 2173 -1648 0
4144 -4143 2173 1648 0
4144 -4143 -2173 -1648 0
-4144 2174 -1649 0
-4145 4144 0
-4145 -2174 1649 0
-4145 2174 -1649 0
4145 -4144 2174 1649 0
4145 -4144 -2174 -1649 0
-4145 2175 -1650 0
-4146 4145 0
-4146 -2175 1650 0
-4146 2175 -1650 0
4146 -4145 2175 1650 0
4146 -4145 -2175 -1650 0
-4146 2176 -1651 0
-4147 4146 0
-4147 -2176 1651 0
-4147 2176 -1651 0
4147 -4146 2176 1651 0
4147 -4146 -2176 -1651 0
-4147 2177 -1652 0
-4148 4147 0
-4148 -2177 1652 0
-4148 2177 -1652 0
4148 -4147 2177 1652 0
4148 -4147 -2177 -1652 0
-4148 2178 -1653 0
-4149 4148 0
-4149 -2178 1653 0
-4149 2178 -1653 0
4149 -4148 2178 1653 0
4149 -4148 -2178 -1653 0
-4149 2179 -1654 0
-4150 4149 0
-4150 -2179 1654 0
-4150 2179 -1654 0
4150 -4149 2179 1654 0
4150 -4149 -2179 -1654 0
-4150 2180 -1655 0
-4151 4150 0
-4151 -2180 1655 0
-4151 2180 -1655 0
4151 -4150 2180 1655 0
4151 -4150 -2180 -1655 0
-4151 2181 -1656 0
-4152 4151 0
-4152 -2181 1656 0
-4152 2181 -1656 0
4152 -4151 2181 1656 0
4152 -4151 -2181 -1656 0
-4152 2182 -1657 0
-4153 4152 0
-4153 -2182 1657 0
-4153 2182 -1657 0
4153 -4152 2182 1657 0
4153 -4152 -2182 -1657 0
-4153 2272 -1747 0
-4154 4153 0
-4154 -2272 1747 0
-4154 2272 -1747 0
4154 -4153 2272 1747 0
4154 -4153 -2272 -1747 0
-4154 2273 -1748 0
-4155 4154 0
-4155 -2273 1748 0
-4155 2273 -1748 0
4155 -4154 2273 1748 0
4155 -4154 -2273 -1748 0
-4155 2274 -1749 0
-4156 4155 0
-4156 -2274 1749 0
-4156 2274 -1749 0
4156 -4155 2274 1749 0
4156 -4155 -2274 -1749 0
-4156 2275 -1750 0
-4157 4156 0
-4157 -2275 1750 0
-4157 2275 -1750 0
4157 -4156 2275 1750 0
4157 -4156 -2275 -1750 0
-4157 2276 -1751 0
-4158 4157 0
-4158 -2276 1751 0
-4158 2276 -1751 0
4158 -4157 2276 1751 0
4158 -4157 -2276 -1751 0
-4158 2277 -1752 0
-4159 4158 0
-4159 -2277 1752 0
-4159 2277 -1752 0
4159 -4158 2277 1752 0
4159 -4158 -2277 -1752 0
-4159 2278 -1753 0
-4160 4159 0
-4160 -2278 1753 0
-4160 2278 -1753 0
4160 -4159 2278 1753 0
4160 -4159 -2278 -1753 0
-4160 2279 -1754 0
-4161 4160 0
-4161 -2279 1754 0
-4161 2279 -1754 0
4161 -4160 2279 1754 0
4161 -4160 -2279 -1754 0
-4161 2280 -1755 0
-4162 4161 0
-4162 -2280 1755 0
-4162 2280 -1755 0
4162 -4161 2280 1755 0
4162 -4161 -2280 -1755 0
-4162 2281 -1756 0
-4163 4162 0
-4163 -2281 1756 0
-4163 2281 -1756 0
4163 -4162 2281 1756 0
4163 -4162 -2281 -1756 0
-4163 2282 -1757 0
-4164 4163 0
-4164 -2282 1757 0
-4164 2282 -1757 0
4164 -4163 2282 1757 0
4164 -4163 -2282 -1757 0
-4164 2283 -1758 0
-4165 4164 0
-4165 -2283 1758 0
-4165 2283 -1758 0
4165 -4164 2283 1758 0
4165 -4164 -2283 -1758 0
-4165 2284 -1759 0
-4166 4165 0
-4166 -2284 1759 0
-4166 2284 -1759 0
4166 -4165 2284 1759 0
4166 -4165 -2284 -1759 0
-4166 2285 -1760 0
-4167 4166 0
-4167 -2285 1760 0
-4167 2285 -1760 0
4167 -4166 2285 1760 0
4167 -4166 -2285 -1760 0
-4167 2286 -1761 0
-4168 4167 0
-4168 -2286 1761 0
-4168 2286 -1761 0
4168 -4167 2286 1761 0
4168 -4167 -2286 -1761 0
-4168 2287 -1762 0
-4169 4168 0
-4169 -2287 1762 0
-4169 2287 -1762 0
4169 -4168 2287 1762 0
4169 -4168 -2287 -1762 0
-4169 2377 -1852 0
-4170 4169 0
-4170 -2377 1852 0
-4170 2377 -1852 0
4170 -4169 2377 1852 0
4170 -4169 -2377 -1852 0
-4170 2378 -1853 0
-4171 4170 0
-4171 -2378 1853 0
-4171 2378 -1853 0
4171 -4170 2378 1853 0
4171 -4170 -2378 -1853 0
-4171 2379 -1854 0
-4172 4171 0
-4172 -2379 1854 0
-4172 2379 -1854 0
4172 -4171 2379 1854 0
4172 -4171 -2379 -1854 0
-4172 2380 -1855 0
-4173 4172 0
-4173 -2380 1855 0
-4173 2380 -1855 0
4173 -4172 2380 1855 0
4173 -4172 -2380 -1855 0
-4173 2381 -1856 0
-4174 4173 0
-4174 -2381 1856 0
-4174 2381 -1856 0
4174 -4173 2381 1856 0
4174 -4173 -2381 -1856 0
-4174 2382 -1857 0
-4175 4174 0
-4175 -2382 1857 0
-4175 2382 -1857 0
4175 -4174 2382 1857 0
4175 -4174 -2382 -1857 0
-4175 2383 -1858 0
-4176 4175 0
-4176 -2383 1858 0
-4176 2383 -1858 0
4176 -4175 2383 1858 0
4176 -4175 -2383 -1858 0
-4176 2384 -1859 0
-4177 4176 0
-4177 -2384 1859 0
-4177 2384 -1859 0
4177 -4176 2384 1859 0
4177 -4176 -2384 -1859 0
-4177 2385 -1860 0
-4178 4177 0
-4178 -2385 1860 0
-4178 2385 -1860 0
4178 -4177 2385 1860 0
4178 -4177 -2385 -1860 0
-4178 2386 -1861 0
-4179 4178 0
-4179 -2386 1861 0
-4179 2386 -1861 0
4179 -4178 2386 1861 0
4179 -4178 -2386 -1861 0
-4179 2387 -1862 0
-4180 4179 0
-4180 -2387 1862 0
-4180 2387 -1862 0
4180 -4179 2387 1862 0
4180 -4179 -2387 -1862 0
-4180 2388 -1863 0
-4181 4180 0
-4181 -2388 1863 0
-4181 2388 -1863 0
4181 -4180 2388 1863 0
4181 -4180 -2388 -1863 0
-4181 2389 -1864 0
-4182 4181 0
-4182 -2389 1864 0
-4182 2389 -1864 0
4182 -4181 2389 1864 0
4182 -4181 -2389 -1864 0
-4182 2390 -1865 0
-4183 4182 0
-4183 -2390 1865 0
-4183 2390 -1865 0
4183 -4182 2390 1865 0
4183 -4182 -2390 -1865 0
-4183 2391 -1866 0
-4184 4183 0
-4184 -2391 1866 0
-4184 2391 -1866 0
4184 -4183 2391 1866 0
4184 -4183 -2391 -1866 0
-4184 2392 -1867 0
-4185 4184 0
-4185 -2392 1867 0
-4185 2392 -1867 0
4185 -4184 2392 1867 0
4185 -4184 -2392 -1867 0
-4185 2482 -1957 0
-4186 4185 0
-4186 -2482 1957 0
-4186 2482 -1957 0
4186 -4185 2482 1957 0
4186 -4185 -2482 -1957 0
-4186 2483 -1958 0
-4187 4186 0
-4187 -2483 1958 0
-4187 2483 -1958 0
4187 -4186 2483 1958 0
4187 -4186 -2483 -1958 0
-4187 2484 -1959 0
-4188 4187 0
-4188 -2484 1959 0
-4188 2484 -1959 0
4188 -4187 2484 1959 0
4188 -4187 -2484 -1959 0
-4188 2485 -1960 0
-4189 4188 0
-4189 -2485 1960 0
-4189 2485 -1960 0
4189 -4188 2485 1960 0
4189 -4188 -2485 -1960 0
-4189 2486 -1961 0
-4190 4189 0
-4190 -2486 1961 0
-4190 2486 -1961 0
4190 -4189 2486 1961 0
4190 -4189 -2486 -1961 0
-4190 2487 -1962 0
-4191 4190 0
-4191 -2487 1962 0
-4191 2487 -1962 0
4191 -4190 2487 1962 0
4191 -4190 -2487 -1962 0
-4191 2488 -1963 0
-4192 4191 0
-4192 -2488 1963 0
-4192 2488 -1963 0
4192 -4191 2488 1963 0
4192 -4191 -2488 -1963 0
-4192 2489 -1964 0
-4193 4192 0
-4193 -2489 1964 0
-4193 2489 -1964 0
4193 -4192 2489 1964 0
4193 -4192 -2489 -1964 0
-4193 2490 -1965 0
-4194 4193 0
-4194 -2490 1965 0
-4194 2490 -1965 0
4194 -4193 2490 1965 0
4194 -4193 -2490 -1965 0
-4194 2491 -1966 0
-4195 4194 0
-4195 -2491 1966 0
-4195 2491 -1966 0
4195 -4194 2491 1966 0
4195 -4194 -2491 -1966 0
-4195 2492 -1967 0
-4196 4195 0
-4196 -2492 1967 0
-4196 2492 -1967 0
4196 -4195 2492 1967 0
4196 -4195 -2492 -1967 0
-4196 2493 -1968 0
-4197 4196 0
-4197 -2493 1968 0
-4197 2493 -1968 0
4197 -4196 2493 1968 0
4197 -4196 -2493 -1968 0
-4197 2494 -1969 0
-4198 4197 0
-4198 -2494 1969 0
-4198 2494 -1969 0
4198 -4197 2494 1969 0
4198 -4197 -2494 -1969 0
-4198 2495 -1970 0
-4199 4198 0
-4199 -2495 1970 0
-4199 2495 -1970 0
4199 -4198 2495 1970 0
4199 -4198 -2495 -1970 0
-4199 2496 -1971 0
-4200 4199 0
-4200 -2496 1971 0
-4200 2496 -1971 0
4200 -4199 2496 1971 0
4200 -4199 -2496 -1971 0
-4200 2497 -1972 0
-4201 4200 0
-4201 -2497 1972 0
-4201 2497 -1972 0
4201 -4200 2497 1972 0
4201 -4200 -2497 -1972 0
-4201 2587 -2062 0
-4202 4201 0
-4202 -2587 2062 0
-4202 2587 -2062 0
4202 -4201 2587 2062 0
4202 -4201 -2587 -2062 0
-4202 2588 -2063 0
-4203 4202 0
-4203 -2588 2063 0
-4203 2588 -2063 0
4203 -4202 2588 2063 0
4203 -4202 -2588 -2063 0
-4203 2589 -2064 0
-4204 4203 0
-4204 -2589 2064 0
-4204 2589 -2064 0
4204 -4203 2589 2064 0
4204 -4203 -2589 -2064 0
-4204 2590 -2065 0
-4205 4204 0
-4205 -2590 2065 0
-4205 2590 -2065 0
4205 -4204 2590 2065 0
4205 -4204 -2590 -2065 0
-4205 2591 -2066 0
-4206 4205 0
-4206 -2591 2066 0
-4206 2591 -2066 0
4206 -4205 2591 2066 0
4206 -4205 -2591 -2066 0
-4206 2592 -2067 0
-4207 4206 0
-4207 -2592 2067 0
-4207 2592 -2067 0
4207 -4206 2592 2067 0
4207 -4206 -2592 -2067 0
-4207 2593 -2068 0
-4208 4207 0
-4208 -2593 2068 0
-4208 2593 -2068 0
4208 -4207 2593 2068 0
4208 -4207 -2593 -2068 0
-4208 2594 -2069 0
-4209 4208 0
-4209 -2594 2069 0
-4209 2594 -2069 0
4209 -4208 2594 2069 0
4209 -4208 -2594 -2069 0
-4209 2595 -2070 0
-4210 4209 0
-4210 -2595 2070 0
-4210 2595 -2070 0
4210 -4209 2595 2070 0
4210 -4209 -2595 -2070 0
-4210 2596 -2071 0
-4211 4210 0
-4211 -2596 2071 0
-4211 2596 -2071 0
4211 -4210 2596 2071 0
4211 -4210 -2596 -2071 0
-4211 2597 -2072 0
-4212 4211 0
-4212 -2597 2072 0
-4212 2597 -2072 0
4212 -4211 2597 2072 0
4212 -4211 -2597 -2072 0
-4212 2598 -2073 0
-4213 4212 0
-4213 -2598 2073 0
-4213 2598 -2073 0
4213 -4212 2598 2073 0
4213 -4212 -2598 -2073 0
-4213 2599 -2074 0
-4214 4213 0
-4214 -2599 2074 0
-4214 2599 -2074 0
4214 -4213 2599 2074 0
4214 -4213 -2599 -2074 0
-4214 2600 -2075 0
-4215 4214 0
-4215 -2600 2075 0
-4215 2600 -2075 0
4215 -4214 2600 2075 0
4215 -4214 -2600 -2075 0
-4215 2601 -2076 0
-4216 4215 0
-4216 -2601 2076 0
-4216 2601 -2076 0
4216 -4215 2601 2076 0
4216 -4215 -2601 -2076 0
-4216 2602 -2077 0
-4217 4216 0
-4217 -2602 2077 0
-4217 2602 -2077 0
4217 -4216 2602 2077 0
4217 -4216 -2602 -2077 0
-4217 2692 -2167 0
-4218 4217 0
-4218 -2692 2167 0
-4218 2692 -2167 0
4218 -4217 2692 2167 0
4218 -4217 -2692 -2167 0
-4218 2693 -2168 0
-4219 4218 0
-4219 -2693 2168 0
-4219 2693 -2168 0
4219 -4218 2693 2168 0
4219 -4218 -2693 -2168 0
-4219 2694 -2169 0
-4220 4219 0
-4220 -2694 2169 0
-4220 2694 -2169 0
4220 -4219 2694 2169 0
4220 -4219 -2694 -2169 0
-4220 2695 -2170 0
-4221 4220 0
-4221 -2695 2170 0
-4221 2695 -2170 0
4221 -4220 2695 2170 0
4221 -4220 -2695 -2170 0
-4221 2696 -2171 0
-4222 4221 0
-4222 -2696 2171 0
-4222 2696 -2171 0
4222 -4221 2696 2171 0
4222 -4221 -2696 -2171 0
-4222 2697 -2172 0
-4223 4222 0
-4223 -2697 2172 0
-4223 2697 -2172 0
4223 -4222 2697 2172 0
4223 -4222 -2697 -2172 0
-4223 2698 -2173 0
-4224 4223 0
-4224 -2698 2173 0
-4224 2698 -2173 0
4224 -4223 2698 2173 0
4224 -4223 -2698 -2173 0
-4224 2699 -2174 0
-4225 4224 0
-4225 -2699 2174 0
-4225 2699 -2174 0
4225 -4224 2699 2174 0
4225 -4224 -2699 -2174 0
-4225 2700 -2175 0
-4226 4225 0
-4226 -2700 2175 0
-4226 2700 -2175 0
4226 -4225 2700 2175 0
4226 -4225 -2700 -2175 0
-4226 2701 -2176 0
-4227 4226 0
-4227 -2701 2176 0
-4227 2701 -2176 0
4227 -4226 2701 2176 0
4227 -4226 -2701 -2176 0
-4227 2702 -2177 0
-4228 4227 0
-4228 -2702 2177 0
-4228 2702 -2177 0
4228 -4227 2702 2177 0
4228 -4227 -2702 -2177 0
-4228 2703 -2178 0
-4229 4228 0
-4229 -2703 2178 0
-4229 2703 -2178 0
4229 -4228 2703 2178 0
4229 -4228 -2703 -2178 0
-4229 2704 -2179 0
-4230 4229 0
-4230 -2704 2179 0
-4230 2704 -2179 0
4230 -4229 2704 2179 0
4230 -4229 -2704 -2179 0
-4230 2705 -2180 0
-4231 4230 0
-4231 -2705 2180 0
-4231 2705 -2180 0
4231 -4230 2705 2180 0
4231 -4230 -2705 -2180 0
-4231 2706 -2181 0
-4232 4231 0
-4232 -2706 2181 0
-4232 2706 -2181 0
4232 -4231 2706 2181 0
4232 -4231 -2706 -2181 0
-4232 2707 -2182 0
1537 -2377 0
-4233 -1537 2377 0
-4233 1537 -2377 0
4233 1537 2377 0
4233 -1537 -2377 0
-4233 1538 -2378 0
-4234 4233 0
-4234 -1538 2378 0
-4234 1538 -2378 0
4234 -4233 1538 2378 0
4234 -4233 -1538 -2378 0
-4234 1539 -2379 0
-4235 4234 0
-4235 -1539 2379 0
-4235 1539 -2379 0
4235 -4234 1539 2379 0
4235 -4234 -1539 -2379 0
-4235 1540 -2380 0
-4236 4235 0
-4236 -1540 2380 0
-4236 1540 -2380 0
4236 -4235 1540 2380 0
4236 -4235 -1540 -2380 0
-4236 1541 -2381 0
-4237 4236 0
-4237 -1541 2381 0
-4237 1541 -2381 0
4237 -4236 1541 2381 0
4237 -4236 -1541 -2381 0
-4237 1542 -2382 0
-4238 4237 0
-4238 -1542 2382 0
-4238 1542 -2382 0
4238 -4237 1542 2382 0
4238 -4237 -1542 -2382 0
-4238 1543 -2383 0
-4239 4238 0
-4239 -1543 2383 0
-4239 1543 -2383 0
4239 -4238 1543 2383 0
4239 -4238 -1543 -2383 0
-4239 1544 -2384 0
-4240 4239 0
-4240 -1544 2384 0
-4240 1544 -2384 0
4240 -4239 1544 2384 0
4240 -4239 -1544 -2384 0
-4240 1545 -2385 0
-4241 4240 0
-4241 -1545 2385 0
-4241 1545 -2385 0
4241 -4240 1545 2385 0
4241 -4240 -1545 -2385 0
-4241 1546 -2386 0
-4242 4241 0
-4242 -1546 2386 0
-4242 1546 -2386 0
4242 -4241 1546 2386 0
4242 -4241 -1546 -2386 0
-4242 1547 -2387 0
-4243 4242 0
-4243 -1547 2387 0
-4243 1547 -2387 0
4243 -4242 1547 2387 0
4243 -4242 -1547 -2387 0
-4243 1548 -2388 0
-4244 4243 0
-4244 -1548 2388 0
-4244 1548 -2388 0
4244 -4243 1548 2388 0
4244 -4243 -1548 -2388 0
-4244 1549 -2389 0
-4245 4244 0
-4245 -1549 2389 0
-4245 1549 -2389 0
4245 -4244 1549 2389 0
4245 -4244 -1549 -2389 0
-4245 1550 -2390 0
-4246 4245 0
-4246 -1550 2390 0
-4246 1550 -2390 0
4246 -4245 1550 2390 0
4246 -4245 -1550 -2390 0
-4246 1551 -2391 0
-4247 4246 0
-4247 -1551 2391 0
-4247 1551 -2391 0
4247 -4246 1551 2391 0
4247 -4246 -1551 -2391 0
-4247 1552 -2392 0
-4248 4247 0
-4248 -1552 2392 0
-4248 1552 -2392 0
4248 -4247 1552 2392 0
4248 -4247 -1552 -2392 0
-4248 1642 -2482 0
-4249 4248 0
-4249 -1642 2482 0
-4249 1642 -2482 0
4249 -4248 1642 2482 0
4249 -4248 -1642 -2482 0
-4249 1643 -2483 0
-4250 4249 0
-4250 -1643 2483 0
-4250 1643 -2483 0
4250 -4249 1643 2483 0
4250 -4249 -1643 -2483 0
-4250 1644 -2484 0
-4251 4250 0
-4251 -1644 2484 0
-4251 1644 -2484 0
4251 -4250 1644 2484 0
4251 -4250 -1644 -2484 0
-4251 1645 -2485 0
-4252 4251 0
-4252 -1645 2485 0
-4252 1645 -2485 0
4252 -4251 1645 2485 0
4252 -4251 -1645 -2485 0
-4252 1646 -2486 0
-4253 4252 0
-4253 -1646 2486 0
-4253 1646 -2486 0
4253 -4252 1646 2486 0
4253 -4252 -1646 -2486 0
-4253 1647 -2487 0
-4254 4253 0
-4254 -1647 2487 0
-4254 1647 -2487 0
4254 -4253 1647 2487 0
4254 -4253 -1647 -2487 0
-4254 1648 -2488 0
-4255 4254 0
-4255 -1648 2488 0
-4255 1648 -2488 0
4255 -4254 1648 2488 0
4255 -4254 -1648 -2488 0
-4255 1649 -2489 0
-4256 4255 0
-4256 -1649 2489 0
-4256 1649 -2489 0
4256 -4255 1649 2489 0
4256 -4255 -1649 -2489 0
-4256 1650 -2490 0
-4257 4256 0
-4257 -1650 2490 0
-4257 1650 -2490 0
4257 -4256 1650 2490 0
4257 -4256 -1650 -2490 0
-4257 1651 -2491 0
-4258 4257 0
-4258 -1651 2491 0
-4258 1651 -2491 0
4258 -4257 1651 2491 0
4258 -4257 -1651 -2491 0
-4258 1652 -2492 0
-4259 4258 0
-4259 -1652 2492 0
-4259 1652 -2492 0
4259 -4258 1652 2492 0
4259 -4258 -1652 -2492 0
-4259 1653 -2493 0
-4260 4259 0
-4260 -1653 2493 0
-4260 1653 -2493 0
4260 -4259 1653 2493 0
4260 -4259 -1653 -2493 0
-4260 1654 -2494 0
-4261 4260 0
-4261 -1654 2494 0
-4261 1654 -2494 0
4261 -4260 1654 2494 0
4261 -4260 -1654 -2494 0
-4261 1655 -2495 0
-4262 4261 0
-4262 -1655 2495 0
-4262 1655 -2495 0
4262 -4261 1655 2495 0
4262 -4261 -1655 -2495 0
-4262 1656 -2496 0
-4263 4262 0
-4263 -1656 2496 0
-4263 1656 -2496 0
4263 -4262 1656 2496 0
4263 -4262 -1656 -2496 0
-4263 1657 -2497 0
-4264 4263 0
-4264 -1657 2497 0
-4264 1657 -2497 0
4264 -4263 1657 2497 0
4264 -4263 -1657 -2497 0
-4264 1747 -2587 0
-4265 4264 0
-4265 -1747 2587 0
-4265 1747 -2587 0
4265 -4264 1747 2587 0
4265 -4264 -1747 -2587 0
-4265 1748 -2588 0
-4266 4265 0
-4266 -1748 2588 0
-4266 1748 -2588 0
4266 -4265 1748 2588 0
4266 -4265 -1748 -2588 0
-4266 1749 -2589 0
-4267 4266 0
-4267 -1749 2589 0
-4267 1749 -2589 0
4267 -4266 1749 2589 0
4267 -4266 -1749 -2589 0
-4267 1750 -2590 0
-4268 4267 0
-4268 -1750 2590 0
-4268 1750 -2590 0
4268 -4267 1750 2590 0
4268 -4267 -1750 -2590 0
-4268 1751 -2591 0
-4269 4268 0
-4269 -1751 2591 0
-4269 1751 -2591 0
4269 -4268 1751 2591 0
4269 -4268 -1751 -2591 0
-4269 1752 -2592 0
-4270 4269 0
-4270 -1752 2592 0
-4270 1752 -2592 0
4270 -4269 1752 2592 0
4270 -4269 -1752 -2592 0
-4270 1753 -2593 0
-4271 4270 0
-4271 -1753 2593 0
-4271 1753 -2593 0
4271 -4270 1753 2593 0
4271 -4270 -1753 -2593 0
-4271 1754 -2594 0
-4272 4271 0
-4272 -1754 2594 0
-4272 1754 -2594 0
4272 -4271 1754 2594 0
4272 -4271 -1754 -2594 0
-4272 1755 -2595 0
-4273 4272 0
-4273 -1755 2595 0
-4273 1755 -2595 0
4273 -4272 1755 2595 0
4273 -4272 -1755 -2595 0
-4273 1756 -2596 0
-4274 4273 0
-4274 -1756 2596 0
-4274 1756 -2596 0
4274 -4273 1756 2596 0
4274 -4273 -1756 -2596 0
-4274 1757 -2597 0
-4275 4274 0
-4275 -1757 2597 0
-4275 1757 -2597 0
4275 -4274 1757 2597 0
4275 -4274 -1757 -2597 0
-4275 1758 -2598 0
-4276 4275 0
-4276 -1758 2598 0
-4276 1758 -2598 0
4276 -4275 1758 2598 0
4276 -4275 -1758 -2598 0
-4276 1759 -2599 0
-4277 4276 0
-4277 -1759 2599 0
-4277 1759 -2599 0
4277 -4276 1759 2599 0
4277 -4276 -1759 -2599 0
-4277 1760 -2600 0
-4278 4277 0
-4278 -1760 2600 0
-4278 1760 -2600 0
4278 -4277 1760 2600 0
4278 -4277 -1760 -2600 0
-4278 1761 -2601 0
-4279 4278 0
-4279 -1761 2601 0
-4279 1761 -2601 0
4279 -4278 1761 2601 0
4279 -4278 -1761 -2601 0
-4279 1762 -2602 0
-4280 4279 0
-4280 -1762 2602 0
-4280 1762 -2602 0
4280 -4279 1762 2602 0
4280 -4279 -1762 -2602 0
-4280 1852 -2692 0
-4281 4280 0
-4281 -1852 2692 0
-4281 1852 -2692 0
4281 -4280 1852 2692 0
4281 -4280 -1852 -2692 0
-4281 1853 -2693 0
-4282 4281 0
-4282 -1853 2693 0
-4282 1853 -2693 0
4282 -4281 1853 2693 0
4282 -4281 -1853 -2693 0
-4282 1854 -2694 0
-4283 4282 0
-4283 -1854 2694 0
-4283 1854 -2694 0
4283 -4282 1854 2694 0
4283 -4282 -1854 -2694 0
-4283 1855 -2695 0
-4284 4283 0
-4284 -1855 2695 0
-4284 1855 -2695 0
4284 -4283 1855 2695 0
4284 -4283 -1855 -2695 0
-4284 1856 -2696 0
-4285 4284 0
-4285 -1856 2696 0
-4285 1856 -2696 0
4285 -4284 1856 2696 0
4285 -4284 -1856 -2696 0
-4285 1857 -2697 0
-4286 4285 0
-4286 -1857 2697 0
-4286 1857 -2697 0
4286 -4285 1857 2697 0
4286 -4285 -1857 -2697 0
-4286 1858 -2698 0
-4287 4286 0
-4287 -1858 2698 0
-4287 1858 -2698 0
4287 -4286 1858 2698 0
4287 -4286 -1858 -2698 0
-4287 1859 -2699 0
-4288 4287 0
-4288 -1859 2699 0
-4288 1859 -2699 0
4288 -4287 1859 2699 0
4288 -4287 -1859 -2699 0
-4288 1860 -2700 0
-4289 4288 0
-4289 -1860 2700 0
-4289 1860 -2700 0
4289 -4288 1860 2700 0
4289 -4288 -1860 -2700 0
-4289 1861 -2701 0
-4290 4289 0
-4290 -1861 2701 0
-4290 1861 -2701 0
4290 -4289 1861 2701 0
4290 -4289 -1861 -2701 0
-4290 1862 -2702 0
-4291 4290 0
-4291 -1862 2702 0
-4291 1862 -2702 0
4291 -4290 1862 2702 0
4291 -4290 -1862 -2702 0
-4291 1863 -2703 0
-4292 4291 0
-4292 -1863 2703 0
-4292 1863 -2703 0
4292 -4291 1863 2703 0
4292 -4291 -1863 -2703 0
-4292 1864 -2704 0
-4293 4292 0
-4293 -1864 2704 0
-4293 1864 -2704 0
4293 -4292 1864 2704 0
4293 -4292 -1864 -2704 0
-4293 1865 -2705 0
-4294 4293 0
-4294 -1865 2705 0
-4294 1865 -2705 0
4294 -4293 1865 2705 0
4294 -4293 -1865 -2705 0
-4294 1866 -2706 0
-4295 4294 0
-4295 -1866 2706 0
-4295 1866 -2706 0
4295 -4294 1866 2706 0
4295 -4294 -1866 -2706 0
-4295 1867 -2707 0
-4296 4295 0
-4296 -1867 2707 0
-4296 1867 -2707 0
4296 -4295 1867 2707 0
4296 -4295 -1867 -2707 0
-4296 1957 -1537 0
-4297 4296 0
-4297 -1957 1537 0
-4297 1957 -1537 0
4297 -4296 1957 1537 0
4297 -4296 -1957 -1537 0
-4297 1958 -1538 0
-4298 4297 0
-4298 -1958 1538 0
-4298 1958 -1538 0
4298 -4297 1958 1538 0
4298 -4297 -1958 -1538 0
-4298 1959 -1539 0
-4299 4298 0
-4299 -1959 1539 0
-4299 1959 -1539 0
4299 -4298 1959 1539 0
4299 -4298 -1959 -1539 0
-4299 1960 -1540 0
-4300 4299 0
-4300 -1960 1540 0
-4300 1960 -1540 0
4300 -4299 1960 1540 0
4300 -4299 -1960 -1540 0
-4300 1961 -1541 0
-4301 4300 0
-4301 -1961 1541 0
-4301 1961 -1541 0
4301 -4300 1961 1541 0
4301 -4300 -1961 -1541 0
-4301 1962 -1542 0
-4302 4301 0
-4302 -1962 1542 0
-4302 1962 -1542 0
4302 -4301 1962 1542 0
4302 -4301 -1962 -1542 0
-4302 1963 -1543 0
-4303 4302 0
-4303 -1963 1543 0
-4303 1963 -1543 0
4303 -4302 1963 1543 0
4303 -4302 -1963 -1543 0
-4303 1964 -1544 0
-4304 4303 0
-4304 -1964 1544 0
-4304 1964 -1544 0
4304 -4303 1964 1544 0
4304 -4303 -1964 -1544 0
-4304 1965 -1545 0
-4305 4304 0
-4305 -1965 1545 0
-4305 1965 -1545 0
4305 -4304 1965 1545 0
4305 -4304 -1965 -1545 0
-4305 1966 -1546 0
-4306 4305 0
-4306 -1966 1546 0
-4306 1966 -1546 0
4306 -4305 1966 1546 0
4306 -4305 -1966 -1546 0
-4306 1967 -1547 0
-4307 4306 0
-4307 -1967 1547 0
-4307 1967 -1547 0
4307 -4306 1967 1547 0
4307 -4306 -1967 -1547 0
-4307 1968 -1548 0
-4308 4307 0
-4308 -1968 1548 0
-4308 1968 -1548 0
4308 -4307 1968 1548 0
4308 -4307 -1968 -1548 0
-4308 1969 -1549 0
-4309 4308 0
-4309 -1969 1549 0
-4309 1969 -1549 0
4309 -4308 1969 1549 0
4309 -4308 -1969 -1549 0
-4309 1970 -1550 0
-4310 4309 0
-4310 -1970 1550 0
-4310 1970 -1550 0
4310 -4309 1970 1550 0
4310 -4309 -1970 -1550 0
-4310 1971 -1551 0
-4311 4310 0
-4311 -1971 1551 0
-4311 1971 -1551 0
4311 -4310 1971 1551 0
4311 -4310 -1971 -1551 0
-4311 1972 -1552 0
-4312 4311 0
-4312 -1972 1552 0
-4312 1972 -1552 0
4312 -4311 1972 1552 0
4312 -4311 -1972 -1552 0
-4312 2062 -1642 0
-4313 4312 0
-4313 -2062 1642 0
-4313 2062 -1642 0
4313 -4312 2062 1642 0
4313 -4312 -2062 -1642 0
-4313 2063 -1643 0
-4314 4313 0
-4314 -2063 1643 0
-4314 2063 -1643 0
4314 -4313 2063 1643 0
4314 -4313 -2063 -1643 0
-4314 2064 -1644 0
-4315 4314 0
-4315 -2064 1644 0
-4315 2064 -1644 0
4315 -4314 2064 1644 0
4315 -4314 -2064 -1644 0
-4315 2065 -1645 0
-4316 4315 0
-4316 -2065 1645 0
-4316 2065 -1645 0
4316 -4315 2065 1645 0
4316 -4315 -2065 -1645 0
-4316 2066 -1646 0
-4317 4316 0
-4317 -2066 1646 0
-4317 2066 -1646 0
4317 -4316 2066 1646 0
4317 -4316 -2066 -1646 0
-4317 2067 -1647 0
-4318 4317 0
-4318 -2067 1647 0
-4318 2067 -1647 0
4318 -4317 2067 1647 0
4318 -4317 -2067 -1647 0
-4318 2068 -1648 0
-4319 4318 0
-4319 -2068 1648 0
-4319 2068 -1648 0
4319 -4318 2068 1648 0
4319 -4318 -2068 -1648 0
-4319 2069 -1649 0
-4320 4319 0
-4320 -2069 1649 0
-4320 2069 -1649 0
4320 -4319 2069 1649 0
4320 -4319 -2069 -1649 0
-4320 2070 -1650 0
-4321 4320 0
-4321 -2070 1650 0
-4321 2070 -1650 0
4321 -4320 2070 1650 0
4321 -4320 -2070 -1650 0
-4321 2071 -1651 0
-4322 4321 0
-4322 -2071 1651 0
-4322 2071 -1651 0
4322 -4321 2071 1651 0
4322 -4321 -2071 -1651 0
-4322 2072 -1652 0
-4323 4322 0
-4323 -2072 1652 0
-4323 2072 -1652 0
4323 -4322 2072 1652 0
4323 -4322 -2072 -1652 0
-4323 2073 -1653 0
-4324 4323 0
-4324 -2073 1653 0
-4324 2073 -1653 0
4324 -4323 2073 1653 0
4324 -4323 -2073 -1653 0
-4324 2074 -1654 0
-4325 4324 0
-4325 -2074 1654 0
-4325 2074 -1654 0
4325 -4324 2074 1654 0
4325 -4324 -2074 -1654 0
-4325 2075 -1655 0
-4326 4325 0
-4326 -2075 1655 0
-4326 2075 -1655 0
4326 -4325 2075 1655 0
4326 -4325 -2075 -1655 0
-4326 2076 -1656 0
-4327 4326 0
-4327 -2076 1656 0
-4327 2076 -1656 0
4327 -4326 2076 1656 0
4327 -4326 -2076 -1656 0
-4327 2077 -1657 0
-4328 4327 0
-4328 -2077 1657 0
-4328 2077 -1657 0
4328 -4327 2077 1657 0
4328 -4327 -2077 -1657 0
-4328 2167 -1747 0
-4329 4328 0
-4329 -2167 1747 0
-4329 2167 -1747 0
4329 -4328 2167 1747 0
4329 -4328 -2167 -1747 0
-4329 2168 -1748 0
-4330 4329 0
-4330 -2168 1748 0
-4330 2168 -1748 0
4330 -4329 2168 1748 0
4330 -4329 -2168 -1748 0
-4330 2169 -1749 0
-4331 4330 0
-4331 -2169 1749 0
-4331 2169 -1749 0
4331 -4330 2169 1749 0
4331 -4330 -2169 -1749 0
-4331 2170 -1750 0
-4332 4331 0
-4332 -2170 1750 0
-4332 2170 -1750 0
4332 -4331 2170 1750 0
4332 -4331 -2170 -1750 0
-4332 2171 -1751 0
-4333 4332 0
-4333 -2171 1751 0
-4333 2171 -1751 0
4333 -4332 2171 1751 0
4333 -4332 -2171 -1751 0
-4333 2172 -1752 0
-4334 4333 0
-4334 -2172 1752 0
-4334 2172 -1752 0
4334 -4333 2172 1752 0
4334 -4333 -2172 -1752 0
-4334 2173 -1753 0
-4335 4334 0
-4335 -2173 1753 0
-4335 2173 -1753 0
4335 -4334 2173 1753 0
4335 -4334 -2173 -1753 0
-4335 2174 -1754 0
-4336 4335 0
-4336 -2174 1754 0
-4336 2174 -1754 0
4336 -4335 2174 1754 0
4336 -4335 -2174 -1754 0
-4336 2175 -1755 0
-4337 4336 0
-4337 -2175 1755 0
-4337 2175 -1755 0
4337 -4336 2175 1755 0
4337 -4336 -2175 -1755 0
-4337 2176 -1756 0
-4338 4337 0
-4338 -2176 1756 0
-4338 2176 -1756 0
4338 -4337 2176 1756 0
4338 -4337 -2176 -1756 0
-4338 2177 -1757 0
-4339 4338 0
-4339 -2177 1757 0
-4339 2177 -1757 0
4339 -4338 2177 1757 0
4339 -4338 -2177 -1757 0
-4339 2178 -1758 0
-4340 4339 0
-4340 -2178 1758 0
-4340 2178 -1758 0
4340 -4339 2178 1758 0
4340 -4339 -2178 -1758 0
-4340 2179 -1759 0
-4341 4340 0
-4341 -2179 1759 0
-4341 2179 -1759 0
4341 -4340 2179 1759 0
4341 -4340 -2179 -1759 0
-4341 2180 -1760 0
-4342 4341 0
-4342 -2180 1760 0
-4342 2180 -1760 0
4342 -4341 2180 1760 0
4342 -4341 -2180 -1760 0
-4342 2181 -1761 0
-4343 4342 0
-4343 -2181 1761 0
-4343 2181 -1761 0
4343 -4342 2181 1761 0
4343 -4342 -2181 -1761 0
-4343 2182 -1762 0
-4344 4343 0
-4344 -2182 1762 0
-4344 2182 -1762 0
4344 -4343 2182 1762 0
4344 -4343 -2182 -1762 0
-4344 2272 -1852 0
-4345 4344 0
-4345 -2272 1852 0
-4345 2272 -1852 0
4345 -4344 2272 1852 0
4345 -4344 -2272 -1852 0
-4345 2273 -1853 0
-4346 4345 0
-4346 -2273 1853 0
-4346 2273 -1853 0
4346 -4345 2273 1853 0
4346 -4345 -2273 -1853 0
-4346 2274 -1854 0
-4347 4346 0
-4347 -2274 1854 0
-4347 2274 -1854 0
4347 -4346 2274 1854 0
4347 -4346 -2274 -1854 0
-4347 2275 -1855 0
-4348 4347 0
-4348 -2275 1855 0
-4348 2275 -1855 0
4348 -4347 2275 1855 0
4348 -4347 -2275 -1855 0
-4348 2276 -1856 0
-4349 4348 0
-4349 -2276 1856 0
-4349 2276 -1856 0
4349 -4348 2276 1856 0
4349 -4348 -2276 -1856 0
-4349 2277 -1857 0
-4350 4349 0
-4350 -2277 1857 0
-4350 2277 -1857 0
4350 -4349 2277 1857 0
4350 -4349 -2277 -1857 0
-4350 2278 -1858 0
-4351 4350 0
-4351 -2278 1858 0
-4351 2278 -1858 0
4351 -4350 2278 1858 0
4351 -4350 -2278 -1858 0
-4351 2279 -1859 0
-4352 4351 0
-4352 -2279 1859 0
-4352 2279 -1859 0
4352 -4351 2279 1859 0
4352 -4351 -2279 -1859 0
-4352 2280 -1860 0
-4353 4352 0
-4353 -2280 1860 0
-4353 2280 -1860 0
4353 -4352 2280 1860 0
4353 -4352 -2280 -1860 0
-4353 2281 -1861 0
-4354 4353 0
-4354 -2281 1861 0
-4354 2281 -1861 0
4354 -4353 2281 1861 0
4354 -4353 -2281 -1861 0
-4354 2282 -1862 0
-4355 4354 0
-4355 -2282 1862 0
-4355 2282 -1862 0
4355 -4354 2282 1862 0
4355 -4354 -2282 -1862 0
-4355 2283 -1863 0
-4356 4355 0
-4356 -2283 1863 0
-4356 2283 -1863 0
4356 -4355 2283 1863 0
4356 -4355 -2283 -1863 0
-4356 2284 -1864 0
-4357 4356 0
-4357 -2284 1864 0
-4357 2284 -1864 0
4357 -4356 2284 1864 0
4357 -4356 -2284 -1864 0
-4357 2285 -1865 0
-4358 4357 0
-4358 -2285 1865 0
-4358 2285 -1865 0
4358 -4357 2285 1865 0
4358 -4357 -2285 -1865 0
-4358 2286 -1866 0
-4359 4358 0
-4359 -2286 1866 0
-4359 2286 -1866 0
4359 -4358 2286 1866 0
4359 -4358 -2286 -1866 0
-4359 2287 -1867 0
-4360 4359 0
-4360 -2287 1867 0
-4360 2287 -1867 0
4360 -4359 2287 1867 0
4360 -4359 -2287 -1867 0
-4360 2377 -1957 0
-4361 4360 0
-4361 -2377 1957 0
-4361 2377 -1957 0
4361 -4360 2377 1957 0
4361 -4360 -2377 -1957 0
-4361 2378 -1958 0
-4362 4361 0
-4362 -2378 1958 0
-4362 2378 -1958 0
4362 -4361 2378 1958 0
4362 -4361 -2378 -1958 0
-4362 2379 -1959 0
-4363 4362 0
-4363 -2379 1959 0
-4363 2379 -1959 0
4363 -4362 2379 1959 0
4363 -4362 -2379 -1959 0
-4363 2380 -1960 0
-4364 4363 0
-4364 -2380 1960 0
-4364 2380 -1960 0
4364 -4363 2380 1960 0
4364 -4363 -2380 -1960 0
-4364 2381 -1961 0
-4365 4364 0
-4365 -2381 1961 0
-4365 2381 -1961 0
4365 -4364 2381 1961 0
4365 -4364 -2381 -1961 0
-4365 2382 -1962 0
-4366 4365 0
-4366 -2382 1962 0
-4366 2382 -1962 0
4366 -4365 2382 1962 0
4366 -4365 -2382 -1962 0
-4366 2383 -1963 0
-4367 4366 0
-4367 -2383 1963 0
-4367 2383 -1963 0
4367 -4366 2383 1963 0
4367 -4366 -2383 -1963 0
-4367 2384 -1964 0
-4368 4367 0
-4368 -2384 1964 0
-4368 2384 -1964 0
4368 -4367 2384 1964 0
4368 -4367 -2384 -1964 0
-4368 2385 -1965 0
-4369 4368 0
-4369 -2385 1965 0
-4369 2385 -1965 0
4369 -4368 2385 1965 0
4369 -4368 -2385 -1965 0
-4369 2386 -1966 0
-4370 4369 0
-4370 -2386 1966 0
-4370 2386 -1966 0
4370 -4369 2386 1966 0
4370 -4369 -2386 -1966 0
-4370 2387 -1967 0
-4371 4370 0
-4371 -2387 1967 0
-4371 2387 -1967 0
4371 -4370 2387 1967 0
4371 -4370 -2387 -1967 0
-4371 2388 -1968 0
-4372 4371 0
-4372 -2388 1968 0
-4372 2388 -1968 0
4372 -4371 2388 1968 0
4372 -4371 -2388 -1968 0
-4372 2389 -1969 0
-4373 4372 0
-4373 -2389 1969 0
-4373 2389 -1969 0
4373 -4372 2389 1969 0
4373 -4372 -2389 -1969 0
-4373 2390 -1970 0
-4374 4373 0
-4374 -2390 1970 0
-4374 2390 -1970 0
4374 -4373 2390 1970 0
4374 -4373 -2390 -1970 0
-4374 2391 -1971 0
-4375 4374 0
-4375 -2391 1971 0
-4375 2391 -1971 0
4375 -4374 2391 1971 0
4375 -4374 -2391 -1971 0
-4375 2392 -1972 0
-4376 4375 0
-4376 -2392 1972 0
-4376 2392 -1972 0
4376 -4375 2392 1972 0
4376 -4375 -2392 -1972 0
-4376 2482 -2062 0
-4377 4376 0
-4377 -2482 2062 0
-4377 2482 -2062 0
4377 -4376 2482 2062 0
4377 -4376 -2482 -2062 0
-4377 2483 -2063 0
-4378 4377 0
-4378 -2483 2063 0
-4378 2483 -2063 0
4378 -4377 2483 2063 0
4378 -4377 -2483 -2063 0
-4378 2484 -2064 0
-4379 4378 0
-4379 -2484 2064 0
-4379 2484 -2064 0
4379 -4378 2484 2064 0
4379 -4378 -2484 -2064 0
-4379 2485 -2065 0
-4380 4379 0
-4380 -2485 2065 0
-4380 2485 -2065 0
4380 -4379 2485 2065 0
4380 -4379 -2485 -2065 0
-4380 2486 -2066 0
-4381 4380 0
-4381 -2486 2066 0
-4381 2486 -2066 0
4381 -4380 2486 2066 0
4381 -4380 -2486 -2066 0
-4381 2487 -2067 0
-4382 4381 0
-4382 -2487 2067 0
-4382 2487 -2067 0
4382 -4381 2487 2067 0
4382 -4381 -2487 -2067 0
-4382 2488 -2068 0
-4383 4382 0
-4383 -2488 2068 0
-4383 2488 -2068 0
4383 -4382 2488 2068 0
4383 -4382 -2488 -2068 0
-4383 2489 -2069 0
-4384 4383 0
-4384 -2489 2069 0
-4384 2489 -2069 0
4384 -4383 2489 2069 0
4384 -4383 -2489 -2069 0
-4384 2490 -2070 0
-4385 4384 0
-4385 -2490 2070 0
-4385 2490 -2070 0
4385 -4384 2490 2070 0
4385 -4384 -2490 -2070 0
-4385 2491 -2071 0
-4386 4385 0
-4386 -2491 2071 0
-4386 2491 -2071 0
4386 -4385 2491 2071 0
4386 -4385 -2491 -2071 0
-4386 2492 -2072 0
-4387 4386 0
-4387 -2492 2072 0
-4387 2492 -2072 0
4387 -4386 2492 2072 0
4387 -4386 -2492 -2072 0
-4387 2493 -2073 0
-4388 4387 0
-4388 -2493 2073 0
-4388 2493 -2073 0
4388 -4387 2493 2073 0
4388 -4387 -2493 -2073 0
-4388 2494 -2074 0
-4389 4388 0
-4389 -2494 2074 0
-4389 2494 -2074 0
4389 -4388 2494 2074 0
4389 -4388 -2494 -2074 0
-4389 2495 -2075 0
-4390 4389 0
-4390 -2495 2075 0
-4390 2495 -2075 0
4390 -4389 2495 2075 0
4390 -4389 -2495 -2075 0
-4390 2496 -2076 0
-4391 4390 0
-4391 -2496 2076 0
-4391 2496 -2076 0
4391 -4390 2496 2076 0
4391 -4390 -2496 -2076 0
-4391 2497 -2077 0
-4392 4391 0
-4392 -2497 2077 0
-4392 2497 -2077 0
4392 -4391 2497 2077 0
4392 -4391 -2497 -2077 0
-4392 2587 -2167 0
-4393 4392 0
-4393 -2587 2167 0
-4393 2587 -2167 0
4393 -4392 2587 2167 0
4393 -4392 -2587 -2167 0
-4393 2588 -2168 0
-4394 4393 0
-4394 -2588 2168 0
-4394 2588 -2168 0
4394 -4393 2588 2168 0
4394 -4393 -2588 -2168 0
-4394 2589 -2169 0
-4395 4394 0
-4395 -2589 2169 0
-4395 2589 -2169 0
4395 -4394 2589 2169 0
4395 -4394 -2589 -2169 0
-4395 2590 -2170 0
-4396 4395 0
-4396 -2590 2170 0
-4396 2590 -2170 0
4396 -4395 2590 2170 0
4396 -4395 -2590 -2170 0
-4396 2591 -2171 0
-4397 4396 0
-4397 -2591 2171 0
-4397 2591 -2171 0
4397 -4396 2591 2171 0
4397 -4396 -2591 -2171 0
-4397 2592 -2172 0
-4398 4397 0
-4398 -2592 2172 0
-4398 2592 -2172 0
4398 -4397 2592 2172 0
4398 -4397 -2592 -2172 0
-4398 2593 -2173 0
-4399 4398 0
-4399 -2593 2173 0
-4399 2593 -2173 0
4399 -4398 2593 2173 0
4399 -4398 -2593 -2173 0
-4399 2594 -2174 0
-4400 4399 0
-4400 -2594 2174 0
-4400 2594 -2174 0
4400 -4399 2594 2174 0
4400 -4399 -2594 -2174 0
-4400 2595 -2175 0
-4401 4400 0
-4401 -2595 2175 0
-4401 2595 -2175 0
4401 -4400 2595 2175 0
4401 -4400 -2595 -2175 0
-4401 2596 -2176 0
-4402 4401 0
-4402 -2596 2176 0
-4402 2596 -2176 0
4402 -4401 2596 2176 0
4402 -4401 -2596 -2176 0
-4402 2597 -2177 0
-4403 4402 0
-4403 -2597 2177 0
-4403 2597 -2177 0
4403 -4402 2597 2177 0
4403 -4402 -2597 -2177 0
-4403 2598 -2178 0
-4404 4403 0
-4404 -2598 2178 0
-4404 2598 -2178 0
4404 -4403 2598 2178 0
4404 -4403 -2598 -2178 0
-4404 2599 -2179 0
-4405 4404 0
-4405 -2599 2179 0
-4405 2599 -2179 0
4405 -4404 2599 2179 0
4405 -4404 -2599 -2179 0
-4405 2600 -2180 0
-4406 4405 0
-4406 -2600 2180 0
-4406 2600 -2180 0
4406 -4405 2600 2180 0
4406 -4405 -2600 -2180 0
-4406 2601 -2181 0
-4407 4406 0
-4407 -2601 2181 0
-4407 2601 -2181 0
4407 -4406 2601 2181 0
4407 -4406 -2601 -2181 0
-4407 2602 -2182 0
-4408 4407 0
-4408 -2602 2182 0
-4408 2602 -2182 0
4408 -4407 2602 2182 0
4408 -4407 -2602 -2182 0
-4408 2692 -2272 0
-4409 4408 0
-4409 -2692 2272 0
-4409 2692 -2272 0
4409 -4408 2692 2272 0
4409 -4408 -2692 -2272 0
-4409 2693 -2273 0
-4410 4409 0
-4410 -2693 2273 0
-4410 2693 -2273 0
4410 -4409 2693 2273 0
4410 -4409 -2693 -2273 0
-4410 2694 -2274 0
-4411 4410 0
-4411 -2694 2274 0
-4411 2694 -2274 0
4411 -4410 2694 2274 0
4411 -4410 -2694 -2274 0
-4411 2695 -2275 0
-4412 4411 0
-4412 -2695 2275 0
-4412 2695 -2275 0
4412 -4411 2695 2275 0
4412 -4411 -2695 -2275 0
-4412 2696 -2276 0
-4413 4412 0
-4413 -2696 2276 0
-4413 2696 -2276 0
4413 -4412 2696 2276 0
4413 -4412 -2696 -2276 0
-4413 2697 -2277 0
-4414 4413 0
-4414 -2697 2277 0
-4414 2697 -2277 0
4414 -4413 2697 2277 0
4414 -4413 -2697 -2277 0
-4414 2698 -2278 0
-4415 4414 0
-4415 -2698 2278 0
-4415 2698 -2278 0
4415 -4414 2698 2278 0
4415 -4414 -2698 -2278 0
-4415 2699 -2279 0
-4416 4415 0
-4416 -2699 2279 0
-4416 2699 -2279 0
4416 -4415 2699 2279 0
4416 -4415 -2699 -2279 0
-4416 2700 -2280 0
-4417 4416 0
-4417 -2700 2280 0
-4417 2700 -2280 0
4417 -4416 2700 2280 0
4417 -4416 -2700 -2280 0
-4417 2701 -2281 0
-4418 4417 0
-4418 -2701 2281 0
-4418 2701 -2281 0
4418 -4417 2701 2281 0
4418 -4417 -2701 -2281 0
-4418 2702 -2282 0
-4419 4418 0
-4419 -2702 2282 0
-4419 2702 -2282 0
4419 -4418 2702 2282 0
4419 -4418 -2702 -2282 0
-4419 2703 -2283 0
-4420 4419 0
-4420 -2703 2283 0
-4420 2703 -2283 0
4420 -4419 2703 2283 0
4420 -4419 -2703 -2283 0
-4420 2704 -2284 0
-4421 4420 0
-4421 -2704 2284 0
-4421 2704 -2284 0
4421 -4420 2704 2284 0
4421 -4420 -2704 -2284 0
-4421 2705 -2285 0
-4422 4421 0
-4422 -2705 2285 0
-4422 2705 -2285 0
4422 -4421 2705 2285 0
4422 -4421 -2705 -2285 0
-4422 2706 -2286 0
-4423 4422 0
-4423 -2706 2286 0
-4423 2706 -2286 0
4423 -4422 2706 2286 0
4423 -4422 -2706 -2286 0
-4423 2707 -2287 0
1537 -2482 0
-4424 -1537 2482 0
-4424 1537 -2482 0
4424 1537 2482 0
4424 -1537 -2482 0
-4424 1538 -2483 0
-4425 4424 0
-4425 -1538 2483 0
-4425 1538 -2483 0
4425 -4424 1538 2483 0
4425 -4424 -1538 -2483 0
-4425 1539 -2484 0
-4426 4425 0
-4426 -1539 2484 0
-4426 1539 -2484 0
4426 -4425 1539 2484 0
4426 -4425 -1539 -2484 0
-4426 1540 -2485 0
-4427 4426 0
-4427 -1540 2485 0
-4427 1540 -2485 0
4427 -4426 1540 2485 0
4427 -4426 -1540 -2485 0
-4427 1541 -2486 0
-4428 4427 0
-4428 -1541 2486 0
-4428 1541 -2486 0
4428 -4427 1541 2486 0
4428 -4427 -1541 -2486 0
-4428 1542 -2487 0
-4429 4428 0
-4429 -1542 2487 0
-4429 1542 -2487 0
4429 -4428 1542 2487 0
4429 -4428 -1542 -2487 0
-4429 1543 -2488 0
-4430 4429 0
-4430 -1543 2488 0
-4430 1543 -2488 0
4430 -4429 1543 2488 0
4430 -4429 -1543 -2488 0
-4430 1544 -2489 0
-4431 4430 0
-4431 -1544 2489 0
-4431 1544 -2489 0
4431 -4430 1544 2489 0
4431 -4430 -1544 -2489 0
-4431 1545 -2490 0
-4432 4431 0
-4432 -1545 2490 0
-4432 1545 -2490 0
4432 -4431 1545 2490 0
4432 -4431 -1545 -2490 0
-4432 1546 -2491 0
-4433 4432 0
-4433 -1546 2491 0
-4433 1546 -2491 0
4433 -4432 1546 2491 0
4433 -4432 -1546 -2491 0
-4433 1547 -2492 0
-4434 4433 0
-4434 -1547 2492 0
-4434 1547 -2492 0
4434 -4433 1547 2492 0
4434 -4433 -1547 -2492 0
-4434 1548 -2493 0
-4435 4434 0
-4435 -1548 2493 0
-4435 1548 -2493 0
4435 -4434 1548 2493 0
4435 -4434 -1548 -2493 0
-4435 1549 -2494 0
-4436 4435 0
-4436 -1549 2494 0
-4436 1549 -2494 0
4436 -4435 1549 2494 0
4436 -4435 -1549 -2494 0
-4436 1550 -2495 0
-4437 4436 0
-4437 -1550 2495 0
-4437 1550 -2495 0
4437 -4436 1550 2495 0
4437 -4436 -1550 -2495 0
-4437 1551 -2496 0
-4438 4437 0
-4438 -1551 2496 0
-4438 1551 -2496 0
4438 -4437 1551 2496 0
4438 -4437 -1551 -2496 0
-4438 1552 -2497 0
-4439 4438 0
-4439 -1552 2497 0
-4439 1552 -2497 0
4439 -4438 1552 2497 0
4439 -4438 -1552 -2497 0
-4439 1642 -2587 0
-4440 4439 0
-4440 -1642 2587 0
-4440 1642 -2587 0
4440 -4439 1642 2587 0
4440 -4439 -1642 -2587 0
-4440 1643 -2588 0
-4441 4440 0
-4441 -1643 2588 0
-4441 1643 -2588 0
4441 -4440 1643 2588 0
4441 -4440 -1643 -2588 0
-4441 1644 -2589 0
-4442 4441 0
-4442 -1644 2589 0
-4442 1644 -2589 0
4442 -4441 1644 2589 0
4442 -4441 -1644 -2589 0
-4442 1645 -2590 0
-4443 4442 0
-4443 -1645 2590 0
-4443 1645 -2590 0
4443 -4442 1645 2590 0
4443 -4442 -1645 -2590 0
-4443 1646 -2591 0
-4444 4443 0
-4444 -1646 2591 0
-4444 1646 -2591 0
4444 -4443 1646 2591 0
4444 -4443 -1646 -2591 0
-4444 1647 -2592 0
-4445 4444 0
-4445 -1647 2592 0
-4445 1647 -2592 0
4445 -4444 1647 2592 0
4445 -4444 -1647 -2592 0
-4445 1648 -2593 0
-4446 4445 0
-4446 -1648 2593 0
-4446 1648 -2593 0
4446 -4445 1648 2593 0
4446 -4445 -1648 -2593 0
-4446 1649 -2594 0
-4447 4446 0
-4447 -1649 2594 0
-4447 1649 -2594 0
4447 -4446 1649 2594 0
4447 -4446 -1649 -2594 0
-4447 1650 -2595 0
-4448 4447 0
-4448 -1650 2595 0
-4448 1650 -2595 0
4448 -4447 1650 2595 0
4448 -4447 -1650 -2595 0
-4448 1651 -2596 0
-4449 4448 0
-4449 -1651 2596 0
-4449 1651 -2596 0
4449 -4448 1651 2596 0
4449 -4448 -1651 -2596 0
-4449 1652 -2597 0
-4450 4449 0
-4450 -1652 2597 0
-4450 1652 -2597 0
4450 -4449 1652 2597 0
4450 -4449 -1652 -2597 0
-4450 1653 -2598 0
-4451 4450 0
-4451 -1653 2598 0
-4451 1653 -2598 0
4451 -4450 1653 2598 0
4451 -4450 -1653 -2598 0
-4451 1654 -2599 0
-4452 4451 0
-4452 -1654 2599 0
-4452 1654 -2599 0
4452 -4451 1654 2599 0
4452 -4451 -1654 -2599 0
-4452 1655 -2600 0
-4453 4452 0
-4453 -1655 2600 0
-4453 1655 -2600 0
4453 -4452 1655 2600 0
4453 -4452 -1655 -2600 0
-4453 1656 -2601 0
-4454 4453 0
-4454 -1656 2601 0
-4454 1656 -2601 0
4454 -4453 1656 2601 0
4454 -4453 -1656 -2601 0
-4454 1657 -2602 0
-4455 4454 0
-4455 -1657 2602 0
-4455 1657 -2602 0
4455 -4454 1657 2602 0
4455 -4454 -1657 -2602 0
-4455 1747 -2692 0
-4456 4455 0
-4456 -1747 2692 0
-4456 1747 -2692 0
4456 -4455 1747 2692 0
4456 -4455 -1747 -2692 0
-4456 1748 -2693 0
-4457 4456 0
-4457 -1748 2693 0
-4457 1748 -2693 0
4457 -4456 1748 2693 0
4457 -4456 -1748 -2693 0
-4457 1749 -2694 0
-4458 4457 0
-4458 -1749 2694 0
-4458 1749 -2694 0
4458 -4457 1749 2694 0
4458 -4457 -1749 -2694 0
-4458 1750 -2695 0
-4459 4458 0
-4459 -1750 2695 0
-4459 1750 -2695 0
4459 -4458 1750 2695 0
4459 -4458 -1750 -2695 0
-4459 1751 -2696 0
-4460 4459 0
-4460 -1751 2696 0
-4460 1751 -2696 0
4460 -4459 1751 2696 0
4460 -4459 -1751 -2696 0
-4460 1752 -2697 0
-4461 4460 0
-4461 -1752 2697 0
-4461 1752 -2697 0
4461 -4460 1752 2697 0
4461 -4460 -1752 -2697 0
-4461 1753 -2698 0
-4462 4461 0
-4462 -1753 2698 0
-4462 1753 -2698 0
4462 -4461 1753 2698 0
4462 -4461 -1753 -2698 0
-4462 1754 -2699 0
-4463 4462 0
-4463 -1754 2699 0
-4463 1754 -2699 0
4463 -4462 1754 2699 0
4463 -4462 -1754 -2699 0
-4463 1755 -2700 0
-4464 4463 0
-4464 -1755 2700 0
-4464 1755 -2700 0
4464 -4463 1755 2700 0
4464 -4463 -1755 -2700 0
-4464 1756 -2701 0
-4465 4464 0
-4465 -1756 2701 0
-4465 1756 -2701 0
4465 -4464 1756 2701 0
4465 -4464 -1756 -2701 0
-4465 1757 -2702 0
-4466 4465 0
-4466 -1757 2702 0
-4466 1757 -2702 0
4466 -4465 1757 2702 0
4466 -4465 -1757 -2702 0
-4466 1758 -2703 0
-4467 4466 0
-4467 -1758 2703 0
-4467 1758 -2703 0
4467 -4466 1758 2703 0
4467 -4466 -1758 -2703 0
-4467 1759 -2704 0
-4468 4467 0
-4468 -1759 2704 0
-4468 1759 -2704 0
4468 -4467 1759 2704 0
4468 -4467 -1759 -2704 0
-4468 1760 -2705 0
-4469 4468 0
-4469 -1760 2705 0
-4469 1760 -2705 0
4469 -4468 1760 2705 0
4469 -4468 -1760 -2705 0
-4469 1761 -2706 0
-4470 4469 0
-4470 -1761 2706 0
-4470 1761 -2706 0
4470 -4469 1761 2706 0
4470 -4469 -1761 -2706 0
-4470 1762 -2707 0
-4471 4470 0
-4471 -1762 2707 0
-4471 1762 -2707 0
4471 -4470 1762 2707 0
4471 -4470 -1762 -2707 0
-4471 1852 -1537 0
-4472 4471 0
-4472 -1852 1537 0
-4472 1852 -1537 0
4472 -4471 1852 1537 0
4472 -4471 -1852 -1537 0
-4472 1853 -1538 0
-4473 4472 0
-4473 -1853 1538 0
-4473 1853 -1538 0
4473 -4472 1853 1538 0
4473 -4472 -1853 -1538 0
-4473 1854 -1539 0
-4474 4473 0
-4474 -1854 1539 0
-4474 1854 -1539 0
4474 -4473 1854 1539 0
4474 -4473 -1854 -1539 0
-4474 1855 -1540 0
-4475 4474 0
-4475 -1855 1540 0
-4475 1855 -1540 0
4475 -4474 1855 1540 0
4475 -4474 -1855 -1540 0
-4475 1856 -1541 0
-4476 4475 0
-4476 -1856 1541 0
-4476 1856 -1541 0
4476 -4475 1856 1541 0
4476 -4475 -1856 -1541 0
-4476 1857 -1542 0
-4477 4476 0
-4477 -1857 1542 0
-4477 1857 -1542 0
4477 -4476 1857 1542 0
4477 -4476 -1857 -1542 0
-4477 1858 -1543 0
-4478 4477 0
-4478 -1858 1543 0
-4478 1858 -1543 0
4478 -4477 1858 1543 0
4478 -4477 -1858 -1543 0
-4478 1859 -1544 0
-4479 4478 0
-4479 -1859 1544 0
-4479 1859 -1544 0
4479 -4478 1859 1544 0
4479 -4478 -1859 -1544 0
-4479 1860 -1545 0
-4480 4479 0
-4480 -1860 1545 0
-4480 1860 -1545 0
4480 -4479 1860 1545 0
4480 -4479 -1860 -1545 0
-4480 1861 -1546 0
-4481 4480 0
-4481 -1861 1546 0
-4481 1861 -1546 0
4481 -4480 1861 1546 0
4481 -4480 -1861 -1546 0
-4481 1862 -1547 0
-4482 4481 0
-4482 -1862 1547 0
-4482 1862 -1547 0
4482 -4481 1862 1547 0
4482 -4481 -1862 -1547 0
-4482 1863 -1548 0
-4483 4482 0
-4483 -1863 1548 0
-4483 1863 -1548 0
4483 -4482 1863 1548 0
4483 -4482 -1863 -1548 0
-4483 1864 -1549 0
-4484 4483 0
-4484 -1864 1549 0
-4484 1864 -1549 0
4484 -4483 1864 1549 0
4484 -4483 -1864 -1549 0
-4484 1865 -1550 0
-4485 4484 0
-4485 -1865 1550 0
-4485 1865 -1550 0
4485 -4484 1865 1550 0
4485 -4484 -1865 -1550 0
-4485 1866 -1551 0
-4486 4485 0
-4486 -1866 1551 0
-4486 1866 -1551 0
4486 -4485 1866 1551 0
4486 -4485 -1866 -1551 0
-4486 1867 -1552 0
-4487 4486 0
-4487 -1867 1552 0
-4487 1867 -1552 0
4487 -4486 1867 1552 0
4487 -4486 -1867 -1552 0
-4487 1957 -1642 0
-4488 4487 0
-4488 -1957 1642 0
-4488 1957 -1642 0
4488 -4487 1957 1642 0
4488 -4487 -1957 -1642 0
-4488 1958 -1643 0
-4489 4488 0
-4489 -1958 1643 0
-4489 1958 -1643 0
4489 -4488 1958 1643 0
4489 -4488 -1958 -1643 0
-4489 1959 -1644 0
-4490 4489 0
-4490 -1959 1644 0
-4490 1959 -1644 0
4490 -4489 1959 1644 0
4490 -4489 -1959 -1644 0
-4490 1960 -1645 0
-4491 4490 0
-4491 -1960 1645 0
-4491 1960 -1645 0
4491 -4490 1960 1645 0
4491 -4490 -1960 -1645 0
-4491 1961 -1646 0
-4492 4491 0
-4492 -1961 1646 0
-4492 1961 -1646 0
4492 -4491 1961 1646 0
4492 -4491 -1961 -1646 0
-4492 1962 -1647 0
-4493 4492 0
-4493 -1962 1647 0
-4493 1962 -1647 0
4493 -4492 1962 1647 0
4493 -4492 -1962 -1647 0
-4493 1963 -1648 0
-4494 4493 0
-4494 -1963 1648 0
-4494 1963 -1648 0
4494 -4493 1963 1648 0
4494 -4493 -1963 -1648 0
-4494 1964 -1649 0
-4495 4494 0
-4495 -1964 1649 0
-4495 1964 -1649 0
4495 -4494 1964 1649 0
4495 -4494 -1964 -1649 0
-4495 1965 -1650 0
-4496 4495 0
-4496 -1965 1650 0
-4496 1965 -1650 0
4496 -4495 1965 1650 0
4496 -4495 -1965 -1650 0
-4496 1966 -1651 0
-4497 4496 0
-4497 -1966 1651 0
-4497 1966 -1651 0
4497 -4496 1966 1651 0
4497 -4496 -1966 -1651 0
-4497 1967 -1652 0
-4498 4497 0
-4498 -1967 1652 0
-4498 1967 -1652 0
4498 -4497 1967 1652 0
4498 -4497 -1967 -1652 0
-4498 1968 -1653 0
-4499 4498 0
-4499 -1968 1653 0
-4499 1968 -1653 0
4499 -4498 1968 1653 0
4499 -4498 -1968 -1653 0
-4499 1969 -1654 0
-4500 4499 0
-4500 -1969 1654 0
-4500 1969 -1654 0
4500 -4499 1969 1654 0
4500 -4499 -1969 -1654 0
-4500 1970 -1655 0
-4501 4500 0
-4501 -1970 1655 0
-4501 1970 -1655 0
4501 -4500 1970 1655 0
4501 -4500 -1970 -1655 0
-4501 1971 -1656 0
-4502 4501 0
-4502 -1971 1656 0
-4502 1971 -1656 0
4502 -4501 1971 1656 0
4502 -4501 -1971 -1656 0
-4502 1972 -1657 0
-4503 4502 0
-4503 -1972 1657 0
-4503 1972 -1657 0
4503 -4502 1972 1657 0
4503 -4502 -1972 -1657 0
-4503 2062 -1747 0
-4504 4503 0
-4504 -2062 1747 0
-4504 2062 -1747 0
4504 -4503 2062 1747 0
4504 -4503 -2062 -1747 0
-4504 2063 -1748 0
-4505 4504 0
-4505 -2063 1748 0
-4505 2063 -1748 0
4505 -4504 2063 1748 0
4505 -4504 -2063 -1748 0
-4505 2064 -1749 0
-4506 4505 0
-4506 -2064 1749 0
-4506 2064 -1749 0
4506 -4505 2064 1749 0
4506 -4505 -2064 -1749 0
-4506 2065 -1750 0
-4507 4506 0
-4507 -2065 1750 0
-4507 2065 -1750 0
4507 -4506 2065 1750 0
4507 -4506 -2065 -1750 0
-4507 2066 -1751 0
-4508 4507 0
-4508 -2066 1751 0
-4508 2066 -1751 0
4508 -4507 2066 1751 0
4508 -4507 -2066 -1751 0
-4508 2067 -1752 0
-4509 4508 0
-4509 -2067 1752 0
-4509 2067 -1752 0
4509 -4508 2067 1752 0
4509 -4508 -2067 -1752 0
-4509 2068 -1753 0
-4510 4509 0
-4510 -2068 1753 0
-4510 2068 -1753 0
4510 -4509 2068 1753 0
4510 -4509 -2068 -1753 0
-4510 2069 -1754 0
-4511 4510 0
-4511 -2069 1754 0
-4511 2069 -1754 0
4511 -4510 2069 1754 0
4511 -4510 -2069 -1754 0
-4511 2070 -1755 0
-4512 4511 0
-4512 -2070 1755 0
-4512 2070 -1755 0
4512 -4511 2070 1755 0
4512 -4511 -2070 -1755 0
-4512 2071 -1756 0
-4513 4512 0
-4513 -2071 1756 0
-4513 2071 -1756 0
4513 -4512 2071 1756 0
4513 -4512 -2071 -1756 0
-4513 2072 -1757 0
-4514 4513 0
-4514 -2072 1757 0
-4514 2072 -1757 0
4514 -4513 2072 1757 0
4514 -4513 -2072 -1757 0
-4514 2073 -1758 0
-4515 4514 0
-4515 -2073 1758 0
-4515 2073 -1758 0
4515 -4514 2073 1758 0
4515 -4514 -2073 -1758 0
-4515 2074 -1759 0
-4516 4515 0
-4516 -2074 1759 0
-4516 2074 -1759 0
4516 -4515 2074 1759 0
4516 -4515 -2074 -1759 0
-4516 2075 -1760 0
-4517 4516 0
-4517 -2075 1760 0
-4517 2075 -1760 0
4517 -4516 2075 1760 0
4517 -4516 -2075 -1760 0
-4517 2076 -1761 0
-4518 4517 0
-4518 -2076 1761 0
-4518 2076 -1761 0
4518 -4517 2076 1761 0
4518 -4517 -2076 -1761 0
-4518 2077 -1762 0
-4519 4518 0
-4519 -2077 1762 0
-4519 2077 -1762 0
4519 -4518 2077 1762 0
4519 -4518 -2077 -1762 0
-4519 2167 -1852 0
-4520 4519 0
-4520 -2167 1852 0
-4520 2167 -1852 0
4520 -4519 2167 1852 0
4520 -4519 -2167 -1852 0
-4520 2168 -1853 0
-4521 4520 0
-4521 -2168 1853 0
-4521 2168 -1853 0
4521 -4520 2168 1853 0
4521 -4520 -2168 -1853 0
-4521 2169 -1854 0
-4522 4521 0
-4522 -2169 1854 0
-4522 2169 -1854 0
4522 -4521 2169 1854 0
4522 -4521 -2169 -1854 0
-4522 2170 -1855 0
-4523 4522 0
-4523 -2170 1855 0
-4523 2170 -1855 0
4523 -4522 2170 1855 0
4523 -4522 -2170 -1855 0
-4523 2171 -1856 0
-4524 4523 0
-4524 -2171 1856 0
-4524 2171 -1856 0
4524 -4523 2171 1856 0
4524 -4523 -2171 -1856 0
-4524 2172 -1857 0
-4525 4524 0
-4525 -2172 1857 0
-4525 2172 -1857 0
4525 -4524 2172 1857 0
4525 -4524 -2172 -1857 0
-4525 2173 -1858 0
-4526 4525 0
-4526 -2173 1858 0
-4526 2173 -1858 0
4526 -4525 2173 1858 0
4526 -4525 -2173 -1858 0
-4526 2174 -1859 0
-4527 4526 0
-4527 -2174 1859 0
-4527 2174 -1859 0
4527 -4526 2174 1859 0
4527 -4526 -2174 -1859 0
-4527 2175 -1860 0
-4528 4527 0
-4528 -2175 1860 0
-4528 2175 -1860 0
4528 -4527 2175 1860 0
4528 -4527 -2175 -1860 0
-4528 2176 -1861 0
-4529 4528 0
-4529 -2176 1861 0
-4529 2176 -1861 0
4529 -4528 2176 1861 0
4529 -4528 -2176 -1861 0
-4529 2177 -1862 0
-4530 4529 0
-4530 -2177 1862 0
-4530 2177 -1862 0
4530 -4529 2177 1862 0
4530 -4529 -2177 -1862 0
-4530 2178 -1863 0
-4531 4530 0
-4531 -2178 1863 0
-4531 2178 -1863 0
4531 -4530 2178 1863 0
4531 -4530 -2178 -1863 0
-4531 2179 -1864 0
-4532 4531 0
-4532 -2179 1864 0
-4532 2179 -1864 0
4532 -4531 2179 1864 0
4532 -4531 -2179 -1864 0
-4532 2180 -1865 0
-4533 4532 0
-4533 -2180 1865 0
-4533 2180 -1865 0
4533 -4532 2180 1865 0
4533 -4532 -2180 -1865 0
-4533 2181 -1866 0
-4534 4533 0
-4534 -2181 1866 0
-4534 2181 -1866 0
4534 -4533 2181 1866 0
4534 -4533 -2181 -1866 0
-4534 2182 -1867 0
-4535 4534 0
-4535 -2182 1867 0
-4535 2182 -1867 0
4535 -4534 2182 1867 0
4535 -4534 -2182 -1867 0
-4535 2272 -1957 0
-4536 4535 0
-4536 -2272 1957 0
-4536 2272 -1957 0
4536 -4535 2272 1957 0
4536 -4535 -2272 -1957 0
-4536 2273 -1958 0
-4537 4536 0
-4537 -2273 1958 0
-4537 2273 -1958 0
4537 -4536 2273 1958 0
4537 -4536 -2273 -1958 0
-4537 2274 -1959 0
-4538 4537 0
-4538 -2274 1959 0
-4538 2274 -1959 0
4538 -4537 2274 1959 0
4538 -4537 -2274 -1959 0
-4538 2275 -1960 0
-4539 4538 0
-4539 -2275 1960 0
-4539 2275 -1960 0
4539 -4538 2275 1960 0
4539 -4538 -2275 -1960 0
-4539 2276 -1961 0
-4540 4539 0
-4540 -2276 1961 0
-4540 2276 -1961 0
4540 -4539 2276 1961 0
4540 -4539 -2276 -1961 0
-4540 2277 -1962 0
-4541 4540 0
-4541 -2277 1962 0
-4541 2277 -1962 0
4541 -4540 2277 1962 0
4541 -4540 -2277 -1962 0
-4541 2278 -1963 0
-4542 4541 0
-4542 -2278 1963 0
-4542 2278 -1963 0
4542 -4541 2278 1963 0
4542 -4541 -2278 -1963 0
-4542 2279 -1964 0
-4543 4542 0
-4543 -2279 1964 0
-4543 2279 -1964 0
4543 -4542 2279 1964 0
4543 -4542 -2279 -1964 0
-4543 2280 -1965 0
-4544 4543 0
-4544 -2280 1965 0
-4544 2280 -1965 0
4544 -4543 2280 1965 0
4544 -4543 -2280 -1965 0
-4544 2281 -1966 0
-4545 4544 0
-4545 -2281 1966 0
-4545 2281 -1966 0
4545 -4544 2281 1966 0
4545 -4544 -2281 -1966 0
-4545 2282 -1967 0
-4546 4545 0
-4546 -2282 1967 0
-4546 2282 -1967 0
4546 -4545 2282 1967 0
4546 -4545 -2282 -1967 0
-4546 2283 -1968 0
-4547 4546 0
-4547 -2283 1968 0
-4547 2283 -1968 0
4547 -4546 2283 1968 0
4547 -4546 -2283 -1968 0
-4547 2284 -1969 0
-4548 4547 0
-4548 -2284 1969 0
-4548 2284 -1969 0
4548 -4547 2284 1969 0
4548 -4547 -2284 -1969 0
-4548 2285 -1970 0
-4549 4548 0
-4549 -2285 1970 0
-4549 2285 -1970 0
4549 -4548 2285 1970 0
4549 -4548 -2285 -1970 0
-4549 2286 -1971 0
-4550 4549 0
-4550 -2286 1971 0
-4550 2286 -1971 0
4550 -4549 2286 1971 0
4550 -4549 -2286 -1971 0
-4550 2287 -1972 0
-4551 4550 0
-4551 -2287 1972 0
-4551 2287 -1972 0
4551 -4550 2287 1972 0
4551 -4550 -2287 -1972 0
-4551 2377 -2062 0
-4552 4551 0
-4552 -2377 2062 0
-4552 2377 -2062 0
4552 -4551 2377 2062 0
4552 -4551 -2377 -2062 0
-4552 2378 -2063 0
-4553 4552 0
-4553 -2378 2063 0
-4553 2378 -2063 0
4553 -4552 2378 2063 0
4553 -4552 -2378 -2063 0
-4553 2379 -2064 0
-4554 4553 0
-4554 -2379 2064 0
-4554 2379 -2064 0
4554 -4553 2379 2064 0
4554 -4553 -2379 -2064 0
-4554 2380 -2065 0
-4555 4554 0
-4555 -2380 2065 0
-4555 2380 -2065 0
4555 -4554 2380 2065 0
4555 -4554 -2380 -2065 0
-4555 2381 -2066 0
-4556 4555 0
-4556 -2381 2066 0
-4556 2381 -2066 0
4556 -4555 2381 2066 0
4556 -4555 -2381 -2066 0
-4556 2382 -2067 0
-4557 4556 0
-4557 -2382 2067 0
-4557 2382 -2067 0
4557 -4556 2382 2067 0
4557 -4556 -2382 -2067 0
-4557 2383 -2068 0
-4558 4557 0
-4558 -2383 2068 0
-4558 2383 -2068 0
4558 -4557 2383 2068 0
4558 -4557 -2383 -2068 0
-4558 2384 -2069 0
-4559 4558 0
-4559 -2384 2069 0
-4559 2384 -2069 0
4559 -4558 2384 2069 0
4559 -4558 -2384 -2069 0
-4559 2385 -2070 0
-4560 4559 0
-4560 -2385 2070 0
-4560 2385 -2070 0
4560 -4559 2385 2070 0
4560 -4559 -2385 -2070 0
-4560 2386 -2071 0
-4561 4560 0
-4561 -2386 2071 0
-4561 2386 -2071 0
4561 -4560 2386 2071 0
4561 -4560 -2386 -2071 0
-4561 2387 -2072 0
-4562 4561 0
-4562 -2387 2072 0
-4562 2387 -2072 0
4562 -4561 2387 2072 0
4562 -4561 -2387 -2072 0
-4562 2388 -2073 0
-4563 4562 0
-4563 -2388 2073 0
-4563 2388 -2073 0
4563 -4562 2388 2073 0
4563 -4562 -2388 -2073 0
-4563 2389 -2074 0
-4564 4563 0
-4564 -2389 2074 0
-4564 2389 -2074 0
4564 -4563 2389 2074 0
4564 -4563 -2389 -2074 0
-4564 2390 -2075 0
-4565 4564 0
-4565 -2390 2075 0
-4565 2390 -2075 0
4565 -4564 2390 2075 0
4565 -4564 -2390 -2075 0
-4565 2391 -2076 0
-4566 4565 0
-4566 -2391 2076 0
-4566 2391 -2076 0
4566 -4565 2391 2076 0
4566 -4565 -2391 -2076 0
-4566 2392 -2077 0
-4567 4566 0
-4567 -2392 2077 0
-4567 2392 -2077 0
4567 -4566 2392 2077 0
4567 -4566 -2392 -2077 0
-4567 2482 -2167 0
-4568 4567 0
-4568 -2482 2167 0
-4568 2482 -2167 0
4568 -4567 2482 2167 0
4568 -4567 -2482 -2167 0
-4568 2483 -2168 0
-4569 4568 0
-4569 -2483 2168 0
-4569 2483 -2168 0
4569 -4568 2483 2168 0
4569 -4568 -2483 -2168 0
-4569 2484 -2169 0
-4570 4569 0
-4570 -2484 2169 0
-4570 2484 -2169 0
4570 -4569 2484 2169 0
4570 -4569 -2484 -2169 0
-4570 2485 -2170 0
-4571 4570 0
-4571 -2485 2170 0
-4571 2485 -2170 0
4571 -4570 2485 2170 0
4571 -4570 -2485 -2170 0
-4571 2486 -2171 0
-4572 4571 0
-4572 -2486 2171 0
-4572 2486 -2171 0
4572 -4571 2486 2171 0
4572 -4571 -2486 -2171 0
-4572 2487 -2172 0
-4573 4572 0
-4573 -2487 2172 0
-4573 2487 -2172 0
4573 -4572 2487 2172 0
4573 -4572 -2487 -2172 0
-4573 2488 -2173 0
-4574 4573 0
-4574 -2488 2173 0
-4574 2488 -2173 0
4574 -4573 2488 2173 0
4574 -4573 -2488 -2173 0
-4574 2489 -2174 0
-4575 4574 0
-4575 -2489 2174 0
-4575 2489 -2174 0
4575 -4574 2489 2174 0
4575 -4574 -2489 -2174 0
-4575 2490 -2175 0
-4576 4575 0
-4576 -2490 2175 0
-4576 2490 -2175 0
4576 -4575 2490 2175 0
4576 -4575 -2490 -2175 0
-4576 2491 -2176 0
-4577 4576 0
-4577 -2491 2176 0
-4577 2491 -2176 0
4577 -4576 2491 2176 0
4577 -4576 -2491 -2176 0
-4577 2492 -2177 0
-4578 4577 0
-4578 -2492 2177 0
-4578 2492 -2177 0
4578 -4577 2492 2177 0
4578 -4577 -2492 -2177 0
-4578 2493 -2178 0
-4579 4578 0
-4579 -2493 2178 0
-4579 2493 -2178 0
4579 -4578 2493 2178 0
4579 -4578 -2493 -2178 0
-4579 2494 -2179 0
-4580 4579 0
-4580 -2494 2179 0
-4580 2494 -2179 0
4580 -4579 2494 2179 0
4580 -4579 -2494 -2179 0
-4580 2495 -2180 0
-4581 4580 0
-4581 -2495 2180 0
-4581 2495 -2180 0
4581 -4580 2495 2180 0
4581 -4580 -2495 -2180 0
-4581 2496 -2181 0
-4582 4581 0
-4582 -2496 2181 0
-4582 2496 -2181 0
4582 -4581 2496 2181 0
4582 -4581 -2496 -2181 0
-4582 2497 -2182 0
-4583 4582 0
-4583 -2497 2182 0
-4583 2497 -2182 0
4583 -4582 2497 2182 0
4583 -4582 -2497 -2182 0
-4583 2587 -2272 0
-4584 4583 0
-4584 -2587 2272 0
-4584 2587 -2272 0
4584 -4583 2587 2272 0
4584 -4583 -2587 -2272 0
-4584 2588 -2273 0
-4585 4584 0
-4585 -2588 2273 0
-4585 2588 -2273 0
4585 -4584 2588 2273 0
4585 -4584 -2588 -2273 0
-4585 2589 -2274 0
-4586 4585 0
-4586 -2589 2274 0
-4586 2589 -2274 0
4586 -4585 2589 2274 0
4586 -4585 -2589 -2274 0
-4586 2590 -2275 0
-4587 4586 0
-4587 -2590 2275 0
-4587 2590 -2275 0
4587 -4586 2590 2275 0
4587 -4586 -2590 -2275 0
-4587 2591 -2276 0
-4588 4587 0
-4588 -2591 2276 0
-4588 2591 -2276 0
4588 -4587 2591 2276 0
4588 -4587 -2591 -2276 0
-4588 2592 -2277 0
-4589 4588 0
-4589 -2592 2277 0
-4589 2592 -2277 0
4589 -4588 2592 2277 0
4589 -4588 -2592 -2277 0
-4589 2593 -2278 0
-4590 4589 0
-4590 -2593 2278 0
-4590 2593 -2278 0
4590 -4589 2593 2278 0
4590 -4589 -2593 -2278 0
-4590 2594 -2279 0
-4591 4590 0
-4591 -2594 2279 0
-4591 2594 -2279 0
4591 -4590 2594 2279 0
4591 -4590 -2594 -2279 0
-4591 2595 -2280 0
-4592 4591 0
-4592 -2595 2280 0
-4592 2595 -2280 0
4592 -4591 2595 2280 0
4592 -4591 -2595 -2280 0
-4592 2596 -2281 0
-4593 4592 0
-4593 -2596 2281 0
-4593 2596 -2281 0
4593 -4592 2596 2281 0
4593 -4592 -2596 -2281 0
-4593 2597 -2282 0
-4594 4593 0
-4594 -2597 2282 0
-4594 2597 -2282 0
4594 -4593 2597 2282 0
4594 -4593 -2597 -2282 0
-4594 2598 -2283 0
-4595 4594 0
-4595 -2598 2283 0
-4595 2598 -2283 0
4595 -4594 2598 2283 0
4595 -4594 -2598 -2283 0
-4595 2599 -2284 0
-4596 4595 0
-4596 -2599 2284 0
-4596 2599 -2284 0
4596 -4595 2599 2284 0
4596 -4595 -2599 -2284 0
-4596 2600 -2285 0
-4597 4596 0
-4597 -2600 2285 0
-4597 2600 -2285 0
4597 -4596 2600 2285 0
4597 -4596 -2600 -2285 0
-4597 2601 -2286 0
-4598 4597 0
-4598 -2601 2286 0
-4598 2601 -2286 0
4598 -4597 2601 2286 0
4598 -4597 -2601 -2286 0
-4598 2602 -2287 0
-4599 4598 0
-4599 -2602 2287 0
-4599 2602 -2287 0
4599 -4598 2602 2287 0
4599 -4598 -2602 -2287 0
-4599 2692 -2377 0
-4600 4599 0
-4600 -2692 2377 0
-4600 2692 -2377 0
4600 -4599 2692 2377 0
4600 -4599 -2692 -2377 0
-4600 2693 -2378 0
-4601 4600 0
-4601 -2693 2378 0
-4601 2693 -2378 0
4601 -4600 2693 2378 0
4601 -4600 -2693 -2378 0
-4601 2694 -2379 0
-4602 4601 0
-4602 -2694 2379 0
-4602 2694 -2379 0
4602 -4601 2694 2379 0
4602 -4601 -2694 -2379 0
-4602 2695 -2380 0
-4603 4602 0
-4603 -2695 2380 0
-4603 2695 -2380 0
4603 -4602 2695 2380 0
4603 -4602 -2695 -2380 0
-4603 2696 -2381 0
-4604 4603 0
-4604 -2696 2381 0
-4604 2696 -2381 0
4604 -4603 2696 2381 0
4604 -4603 -2696 -2381 0
-4604 2697 -2382 0
-4605 4604 0
-4605 -2697 2382 0
-4605 2697 -2382 0
4605 -4604 2697 2382 0
4605 -4604 -2697 -2382 0
-4605 2698 -2383 0
-4606 4605 0
-4606 -2698 2383 0
-4606 2698 -2383 0
4606 -4605 2698 2383 0
4606 -4605 -2698 -2383 0
-4606 2699 -2384 0
-4607 4606 0
-4607 -2699 2384 0
-4607 2699 -2384 0
4607 -4606 2699 2384 0
4607 -4606 -2699 -2384 0
-4607 2700 -2385 0
-4608 4607 0
-4608 -2700 2385 0
-4608 2700 -2385 0
4608 -4607 2700 2385 0
4608 -4607 -2700 -2385 0
-4608 2701 -2386 0
-4609 4608 0
-4609 -2701 2386 0
-4609 2701 -2386 0
4609 -4608 2701 2386 0
4609 -4608 -2701 -2386 0
-4609 2702 -2387 0
-4610 4609 0
-4610 -2702 2387 0
-4610 2702 -2387 0
4610 -4609 2702 2387 0
4610 -4609 -2702 -2387 0
-4610 2703 -2388 0
-4611 4610 0
-4611 -2703 2388 0
-4611 2703 -2388 0
4611 -4610 2703 2388 0
4611 -4610 -2703 -2388 0
-4611 2704 -2389 0
-4612 4611 0
-4612 -2704 2389 0
-4612 2704 -2389 0
4612 -4611 2704 2389 0
4612 -4611 -2704 -2389 0
-4612 2705 -2390 0
-4613 4612 0
-4613 -2705 2390 0
-4613 2705 -2390 0
4613 -4612 2705 2390 0
4613 -4612 -2705 -2390 0
-4613 2706 -2391 0
-4614 4613 0
-4614 -2706 2391 0
-4614 2706 -2391 0
4614 -4613 2706 2391 0
4614 -4613 -2706 -2391 0
-4614 2707 -2392 0
1537 -2587 0
-4615 -1537 2587 0
-4615 1537 -2587 0
4615 1537 2587 0
4615 -1537 -2587 0
-4615 1538 -2588 0
-4616 4615 0
-4616 -1538 2588 0
-4616 1538 -2588 0
4616 -4615 1538 2588 0
4616 -4615 -1538 -2588 0
-4616 1539 -2589 0
-4617 4616 0
-4617 -1539 2589 0
-4617 1539 -2589 0
4617 -4616 1539 2589 0
4617 -4616 -1539 -2589 0
-4617 1540 -2590 0
-4618 4617 0
-4618 -1540 2590 0
-4618 1540 -2590 0
4618 -4617 1540 2590 0
4618 -4617 -1540 -2590 0
-4618 1541 -2591 0
-4619 4618 0
-4619 -1541 2591 0
-4619 1541 -2591 0
4619 -4618 1541 2591 0
4619 -4618 -1541 -2591 0
-4619 1542 -2592 0
-4620 4619 0
-4620 -1542 2592 0
-4620 1542 -2592 0
4620 -4619 1542 2592 0
4620 -4619 -1542 -2592 0
-4620 1543 -2593 0
-4621 4620 0
-4621 -1543 2593 0
-4621 1543 -2593 0
4621 -4620 1543 2593 0
4621 -4620 -1543 -2593 0
-4621 1544 -2594 0
-4622 4621 0
-4622 -1544 2594 0
-4622 1544 -2594 0
4622 -4621 1544 2594 0
4622 -4621 -1544 -2594 0
-4622 1545 -2595 0
-4623 4622 0
-4623 -1545 2595 0
-4623 1545 -2595 0
4623 -4622 1545 2595 0
4623 -4622 -1545 -2595 0
-4623 1546 -2596 0
-4624 4623 0
-4624 -1546 2596 0
-4624 1546 -2596 0
4624 -4623 1546 2596 0
4624 -4623 -1546 -2596 0
-4624 1547 -2597 0
-4625 4624 0
-4625 -1547 2597 0
-4625 1547 -2597 0
4625 -4624 1547 2597 0
4625 -4624 -1547 -2597 0
-4625 1548 -2598 0
-4626 4625 0
-4626 -1548 2598 0
-4626 1548 -2598 0
4626 -4625 1548 2598 0
4626 -4625 -1548 -2598 0
-4626 1549 -2599 0
-4627 4626 0
-4627 -1549 2599 0
-4627 1549 -2599 0
4627 -4626 1549 2599 0
4627 -4626 -1549 -2599 0
-4627 1550 -2600 0
-4628 4627 0
-4628 -1550 2600 0
-4628 1550 -2600 0
4628 -4627 1550 2600 0
4628 -4627 -1550 -2600 0
-4628 1551 -2601 0
-4629 4628 0
-4629 -1551 2601 0
-4629 1551 -2601 0
4629 -4628 1551 2601 0
4629 -4628 -1551 -2601 0
-4629 1552 -2602 0
-4630 4629 0
-4630 -1552 2602 0
-4630 1552 -2602 0
4630 -4629 1552 2602 0
4630 -4629 -1552 -2602 0
-4630 1642 -2692 0
-4631 4630 0
-4631 -1642 2692 0
-4631 1642 -2692 0
4631 -4630 1642 2692 0
4631 -4630 -1642 -2692 0
-4631 1643 -2693 0
-4632 4631 0
-4632 -1643 2693 0
-4632 1643 -2693 0
4632 -4631 1643 2693 0
4632 -4631 -1643 -2693 0
-4632 1644 -2694 0
-4633 4632 0
-4633 -1644 2694 0
-4633 1644 -2694 0
4633 -4632 1644 2694 0
4633 -4632 -1644 -2694 0
-4633 1645 -2695 0
-4634 4633 0
-4634 -1645 2695 0
-4634 1645 -2695 0
4634 -4633 1645 2695 0
4634 -4633 -1645 -2695 0
-4634 1646 -2696 0
-4635 4634 0
-4635 -1646 2696 0
-4635 1646 -2696 0
4635 -4634 1646 2696 0
4635 -4634 -1646 -2696 0
-4635 1647 -2697 0
-4636 4635 0
-4636 -1647 2697 0
-4636 1647 -2697 0
4636 -4635 1647 2697 0
4636 -4635 -1647 -2697 0
-4636 1648 -2698 0
-4637 4636 0
-4637 -1648 2698 0
-4637 1648 -2698 0
4637 -4636 1648 2698 0
4637 -4636 -1648 -2698 0
-4637 1649 -2699 0
-4638 4637 0
-4638 -1649 2699 0
-4638 1649 -2699 0
4638 -4637 1649 2699 0
4638 -4637 -1649 -2699 0
-4638 1650 -2700 0
-4639 4638 0
-4639 -1650 2700 0
-4639 1650 -2700 0
4639 -4638 1650 2700 0
4639 -4638 -1650 -2700 0
-4639 1651 -2701 0
-4640 4639 0
-4640 -1651 2701 0
-4640 1651 -2701 0
4640 -4639 1651 2701 0
4640 -4639 -1651 -2701 0
-4640 1652 -2702 0
-4641 4640 0
-4641 -1652 2702 0
-4641 1652 -2702 0
4641 -4640 1652 2702 0
4641 -4640 -1652 -2702 0
-4641 1653 -2703 0
-4642 4641 0
-4642 -1653 2703 0
-4642 1653 -2703 0
4642 -4641 1653 2703 0
4642 -4641 -1653 -2703 0
-4642 1654 -2704 0
-4643 4642 0
-4643 -1654 2704 0
-4643 1654 -2704 0
4643 -4642 1654 2704 0
4643 -4642 -1654 -2704 0
-4643 1655 -2705 0
-4644 4643 0
-4644 -1655 2705 0
-4644 1655 -2705 0
4644 -4643 1655 2705 0
4644 -4643 -1655 -2705 0
-4644 1656 -2706 0
-4645 4644 0
-4645 -1656 2706 0
-4645 1656 -2706 0
4645 -4644 1656 2706 0
4645 -4644 -1656 -2706 0
-4645 1657 -2707 0
-4646 4645 0
-4646 -1657 2707 0
-4646 1657 -2707 0
4646 -4645 1657 2707 0
4646 -4645 -1657 -2707 0
-4646 1747 -1537 0
-4647 4646 0
-4647 -1747 1537 0
-4647 1747 -1537 0
4647 -4646 1747 1537 0
4647 -4646 -1747 -1537 0
-4647 1748 -1538 0
-4648 4647 0
-4648 -1748 1538 0
-4648 1748 -1538 0
4648 -4647 1748 1538 0
4648 -4647 -1748 -1538 0
-4648 1749 -1539 0
-4649 4648 0
-4649 -1749 1539 0
-4649 1749 -1539 0
4649 -4648 1749 1539 0
4649 -4648 -1749 -1539 0
-4649 1750 -1540 0
-4650 4649 0
-4650 -1750 1540 0
-4650 1750 -1540 0
4650 -4649 1750 1540 0
4650 -4649 -1750 -1540 0
-4650 1751 -1541 0
-4651 4650 0
-4651 -1751 1541 0
-4651 1751 -1541 0
4651 -4650 1751 1541 0
4651 -4650 -1751 -1541 0
-4651 1752 -1542 0
-4652 4651 0
-4652 -1752 1542 0
-4652 1752 -1542 0
4652 -4651 1752 1542 0
4652 -4651 -1752 -1542 0
-4652 1753 -1543 0
-4653 4652 0
-4653 -1753 1543 0
-4653 1753 -1543 0
4653 -4652 1753 1543 0
4653 -4652 -1753 -1543 0
-4653 1754 -1544 0
-4654 4653 0
-4654 -1754 1544 0
-4654 1754 -1544 0
4654 -4653 1754 1544 0
4654 -4653 -1754 -1544 0
-4654 1755 -1545 0
-4655 4654 0
-4655 -1755 1545 0
-4655 1755 -1545 0
4655 -4654 1755 1545 0
4655 -4654 -1755 -1545 0
-4655 1756 -1546 0
-4656 4655 0
-4656 -1756 1546 0
-4656 1756 -1546 0
4656 -4655 1756 1546 0
4656 -4655 -1756 -1546 0
-4656 1757 -1547 0
-4657 4656 0
-4657 -1757 1547 0
-4657 1757 -1547 0
4657 -4656 1757 1547 0
4657 -4656 -1757 -1547 0
-4657 1758 -1548 0
-4658 4657 0
-4658 -1758 1548 0
-4658 1758 -1548 0
4658 -4657 1758 1548 0
4658 -4657 -1758 -1548 0
-4658 1759 -1549 0
-4659 4658 0
-4659 -1759 1549 0
-4659 1759 -1549 0
4659 -4658 1759 1549 0
4659 -4658 -1759 -1549 0
-4659 1760 -1550 0
-4660 4659 0
-4660 -1760 1550 0
-4660 1760 -1550 0
4660 -4659 1760 1550 0
4660 -4659 -1760 -1550 0
-4660 1761 -1551 0
-4661 4660 0
-4661 -1761 1551 0
-4661 1761 -1551 0
4661 -4660 1761 1551 0
4661 -4660 -1761 -1551 0
-4661 1762 -1552 0
-4662 4661 0
-4662 -1762 1552 0
-4662 1762 -1552 0
4662 -4661 1762 1552 0
4662 -4661 -1762 -1552 0
-4662 1852 -1642 0
-4663 4662 0
-4663 -1852 1642 0
-4663 1852 -1642 0
4663 -4662 1852 1642 0
4663 -4662 -1852 -1642 0
-4663 1853 -1643 0
-4664 4663 0
-4664 -1853 1643 0
-4664 1853 -1643 0
4664 -4663 1853 1643 0
4664 -4663 -1853 -1643 0
-4664 1854 -1644 0
-4665 4664 0
-4665 -1854 1644 0
-4665 1854 -1644 0
4665 -4664 1854 1644 0
4665 -4664 -1854 -1644 0
-4665 1855 -1645 0
-4666 4665 0
-4666 -1855 1645 0
-4666 1855 -1645 0
4666 -4665 1855 1645 0
4666 -4665 -1855 -1645 0
-4666 1856 -1646 0
-4667 4666 0
-4667 -1856 1646 0
-4667 1856 -1646 0
4667 -4666 1856 1646 0
4667 -4666 -1856 -1646 0
-4667 1857 -1647 0
-4668 4667 0
-4668 -1857 1647 0
-4668 1857 -1647 0
4668 -4667 1857 1647 0
4668 -4667 -1857 -1647 0
-4668 1858 -1648 0
-4669 4668 0
-4669 -1858 1648 0
-4669 1858 -1648 0
4669 -4668 1858 1648 0
4669 -4668 -1858 -1648 0
-4669 1859 -1649 0
-4670 4669 0
-4670 -1859 1649 0
-4670 1859 -1649 0
4670 -4669 1859 1649 0
4670 -4669 -1859 -1649 0
-4670 1860 -1650 0
-4671 4670 0
-4671 -1860 1650 0
-4671 1860 -1650 0
4671 -4670 1860 1650 0
4671 -4670 -1860 -1650 0
-4671 1861 -1651 0
-4672 4671 0
-4672 -1861 1651 0
-4672 1861 -1651 0
4672 -4671 1861 1651 0
4672 -4671 -1861 -1651 0
-4672 1862 -1652 0
-4673 4672 0
-4673 -1862 1652 0
-4673 1862 -1652 0
4673 -4672 1862 1652 0
4673 -4672 -1862 -1652 0
-4673 1863 -1653 0
-4674 4673 0
-4674 -1863 1653 0
-4674 1863 -1653 0
4674 -4673 1863 1653 0
4674 -4673 -1863 -1653 0
-4674 1864 -1654 0
-4675 4674 0
-4675 -1864 1654 0
-4675 1864 -1654 0
4675 -4674 1864 1654 0
4675 -4674 -1864 -1654 0
-4675 1865 -1655 0
-4676 4675 0
-4676 -1865 1655 0
-4676 1865 -1655 0
4676 -4675 1865 1655 0
4676 -4675 -1865 -1655 0
-4676 1866 -1656 0
-4677 4676 0
-4677 -1866 1656 0
-4677 1866 -1656 0
4677 -4676 1866 1656 0
4677 -4676 -1866 -1656 0
-4677 1867 -1657 0
-4678 4677 0
-4678 -1867 1657 0
-4678 1867 -1657 0
4678 -4677 1867 1657 0
4678 -4677 -1867 -1657 0
-4678 1957 -1747 0
-4679 4678 0
-4679 -1957 1747 0
-4679 1957 -1747 0
4679 -4678 1957 1747 0
4679 -4678 -1957 -1747 0
-4679 1958 -1748 0
-4680 4679 0
-4680 -1958 1748 0
-4680 1958 -1748 0
4680 -4679 1958 1748 0
4680 -4679 -1958 -1748 0
-4680 1959 -1749 0
-4681 4680 0
-4681 -1959 1749 0
-4681 1959 -1749 0
4681 -4680 1959 1749 0
4681 -4680 -1959 -1749 0
-4681 1960 -1750 0
-4682 4681 0
-4682 -1960 1750 0
-4682 1960 -1750 0
4682 -4681 1960 1750 0
4682 -4681 -1960 -1750 0
-4682 1961 -1751 0
-4683 4682 0
-4683 -1961 1751 0
-4683 1961 -1751 0
4683 -4682 1961 1751 0
4683 -4682 -1961 -1751 0
-4683 1962 -1752 0
-4684 4683 0
-4684 -1962 1752 0
-4684 1962 -1752 0
4684 -4683 1962 1752 0
4684 -4683 -1962 -1752 0
-4684 1963 -1753 0
-4685 4684 0
-4685 -1963 1753 0
-4685 1963 -1753 0
4685 -4684 1963 1753 0
4685 -4684 -1963 -1753 0
-4685 1964 -1754 0
-4686 4685 0
-4686 -1964 1754 0
-4686 1964 -1754 0
4686 -4685 1964 1754 0
4686 -4685 -1964 -1754 0
-4686 1965 -1755 0
-4687 4686 0
-4687 -1965 1755 0
-4687 1965 -1755 0
4687 -4686 1965 1755 0
4687 -4686 -1965 -1755 0
-4687 1966 -1756 0
-4688 4687 0
-4688 -1966 1756 0
-4688 1966 -1756 0
4688 -4687 1966 1756 0
4688 -4687 -1966 -1756 0
-4688 1967 -1757 0
-4689 4688 0
-4689 -1967 1757 0
-4689 1967 -1757 0
4689 -4688 1967 1757 0
4689 -4688 -1967 -1757 0
-4689 1968 -1758 0
-4690 4689 0
-4690 -1968 1758 0
-4690 1968 -1758 0
4690 -4689 1968 1758 0
4690 -4689 -1968 -1758 0
-4690 1969 -1759 0
-4691 4690 0
-4691 -1969 1759 0
-4691 1969 -1759 0
4691 -4690 1969 1759 0
4691 -4690 -1969 -1759 0
-4691 1970 -1760 0
-4692 4691 0
-4692 -1970 1760 0
-4692 1970 -1760 0
4692 -4691 1970 1760 0
4692 -4691 -1970 -1760 0
-4692 1971 -1761 0
-4693 4692 0
-4693 -1971 1761 0
-4693 1971 -1761 0
4693 -4692 1971 1761 0
4693 -4692 -1971 -1761 0
-4693 1972 -1762 0
-4694 4693 0
-4694 -1972 1762 0
-4694 1972 -1762 0
4694 -4693 1972 1762 0
4694 -4693 -1972 -1762 0
-4694 2062 -1852 0
-4695 4694 0
-4695 -2062 1852 0
-4695 2062 -1852 0
4695 -4694 2062 1852 0
4695 -4694 -2062 -1852 0
-4695 2063 -1853 0
-4696 4695 0
-4696 -2063 1853 0
-4696 2063 -1853 0
4696 -4695 2063 1853 0
4696 -4695 -2063 -1853 0
-4696 2064 -1854 0
-4697 4696 0
-4697 -2064 1854 0
-4697 2064 -1854 0
4697 -4696 2064 1854 0
4697 -4696 -2064 -1854 0
-4697 2065 -1855 0
-4698 4697 0
-4698 -2065 1855 0
-4698 2065 -1855 0
4698 -4697 2065 1855 0
4698 -4697 -2065 -1855 0
-4698 2066 -1856 0
-4699 4698 0
-4699 -2066 1856 0
-4699 2066 -1856 0
4699 -4698 2066 1856 0
4699 -4698 -2066 -1856 0
-4699 2067 -1857 0
-4700 4699 0
-4700 -2067 1857 0
-4700 2067 -1857 0
4700 -4699 2067 1857 0
4700 -4699 -2067 -1857 0
-4700 2068 -1858 0
-4701 4700 0
-4701 -2068 1858 0
-4701 2068 -1858 0
4701 -4700 2068 1858 0
4701 -4700 -2068 -1858 0
-4701 2069 -1859 0
-4702 4701 0
-4702 -2069 1859 0
-4702 2069 -1859 0
4702 -4701 2069 1859 0
4702 -4701 -2069 -1859 0
-4702 2070 -1860 0
-4703 4702 0
-4703 -2070 1860 0
-4703 2070 -1860 0
4703 -4702 2070 1860 0
4703 -4702 -2070 -1860 0
-4703 2071 -1861 0
-4704 4703 0
-4704 -2071 1861 0
-4704 2071 -1861 0
4704 -4703 2071 1861 0
4704 -4703 -2071 -1861 0
-4704 2072 -1862 0
-4705 4704 0
-4705 -2072 1862 0
-4705 2072 -1862 0
4705 -4704 2072 1862 0
4705 -4704 -2072 -1862 0
-4705 2073 -1863 0
-4706 4705 0
-4706 -2073 1863 0
-4706 2073 -1863 0
4706 -4705 2073 1863 0
4706 -4705 -2073 -1863 0
-4706 2074 -1864 0
-4707 4706 0
-4707 -2074 1864 0
-4707 2074 -1864 0
4707 -4706 2074 1864 0
4707 -4706 -2074 -1864 0
-4707 2075 -1865 0
-4708 4707 0
-4708 -2075 1865 0
-4708 2075 -1865 0
4708 -4707 2075 1865 0
4708 -4707 -2075 -1865 0
-4708 2076 -1866 0
-4709 4708 0
-4709 -2076 1866 0
-4709 2076 -1866 0
4709 -4708 2076 1866 0
4709 -4708 -2076 -1866 0
-4709 2077 -1867 0
-4710 4709 0
-4710 -2077 1867 0
-4710 2077 -1867 0
4710 -4709 2077 1867 0
4710 -4709 -2077 -1867 0
-4710 2167 -1957 0
-4711 4710 0
-4711 -2167 1957 0
-4711 2167 -1957 0
4711 -4710 2167 1957 0
4711 -4710 -2167 -1957 0
-4711 2168 -1958 0
-4712 4711 0
-4712 -2168 1958 0
-4712 2168 -1958 0
4712 -4711 2168 1958 0
4712 -4711 -2168 -1958 0
-4712 2169 -1959 0
-4713 4712 0
-4713 -2169 1959 0
-4713 2169 -1959 0
4713 -4712 2169 1959 0
4713 -4712 -2169 -1959 0
-4713 2170 -1960 0
-4714 4713 0
-4714 -2170 1960 0
-4714 2170 -1960 0
4714 -4713 2170 1960 0
4714 -4713 -2170 -1960 0
-4714 2171 -1961 0
-4715 4714 0
-4715 -2171 1961 0
-4715 2171 -1961 0
4715 -4714 2171 1961 0
4715 -4714 -2171 -1961 0
-4715 2172 -1962 0
-4716 4715 0
-4716 -2172 1962 0
-4716 2172 -1962 0
4716 -4715 2172 1962 0
4716 -4715 -2172 -1962 0
-4716 2173 -1963 0
-4717 4716 0
-4717 -2173 1963 0
-4717 2173 -1963 0
4717 -4716 2173 1963 0
4717 -4716 -2173 -1963 0
-4717 2174 -1964 0
-4718 4717 0
-4718 -2174 1964 0
-4718 2174 -1964 0
4718 -4717 2174 1964 0
4718 -4717 -2174 -1964 0
-4718 2175 -1965 0
-4719 4718 0
-4719 -2175 1965 0
-4719 2175 -1965 0
4719 -4718 2175 1965 0
4719 -4718 -2175 -1965 0
-4719 2176 -1966 0
-4720 4719 0
-4720 -2176 1966 0
-4720 2176 -1966 0
4720 -4719 2176 1966 0
4720 -4719 -2176 -1966 0
-4720 2177 -1967 0
-4721 4720 0
-4721 -2177 1967 0
-4721 2177 -1967 0
4721 -4720 2177 1967 0
4721 -4720 -2177 -1967 0
-4721 2178 -1968 0
-4722 4721 0
-4722 -2178 1968 0
-4722 2178 -1968 0
4722 -4721 2178 1968 0
4722 -4721 -2178 -1968 0
-4722 2179 -1969 0
-4723 4722 0
-4723 -2179 1969 0
-4723 2179 -1969 0
4723 -4722 2179 1969 0
4723 -4722 -2179 -1969 0
-4723 2180 -1970 0
-4724 4723 0
-4724 -2180 1970 0
-4724 2180 -1970 0
4724 -4723 2180 1970 0
4724 -4723 -2180 -1970 0
-4724 2181 -1971 0
-4725 4724 0
-4725 -2181 1971 0
-4725 2181 -1971 0
4725 -4724 2181 1971 0
4725 -4724 -2181 -1971 0
-4725 2182 -1972 0
-4726 4725 0
-4726 -2182 1972 0
-4726 2182 -1972 0
4726 -4725 2182 1972 0
4726 -4725 -2182 -1972 0
-4726 2272 -2062 0
-4727 4726 0
-4727 -2272 2062 0
-4727 2272 -2062 0
4727 -4726 2272 2062 0
4727 -4726 -2272 -2062 0
-4727 2273 -2063 0
-4728 4727 0
-4728 -2273 2063 0
-4728 2273 -2063 0
4728 -4727 2273 2063 0
4728 -4727 -2273 -2063 0
-4728 2274 -2064 0
-4729 4728 0
-4729 -2274 2064 0
-4729 2274 -2064 0
4729 -4728 2274 2064 0
4729 -4728 -2274 -2064 0
-4729 2275 -2065 0
-4730 4729 0
-4730 -2275 2065 0
-4730 2275 -2065 0
4730 -4729 2275 2065 0
4730 -4729 -2275 -2065 0
-4730 2276 -2066 0
-4731 4730 0
-4731 -2276 2066 0
-4731 2276 -2066 0
4731 -4730 2276 2066 0
4731 -4730 -2276 -2066 0
-4731 2277 -2067 0
-4732 4731 0
-4732 -2277 2067 0
-4732 2277 -2067 0
4732 -4731 2277 2067 0
4732 -4731 -2277 -2067 0
-4732 2278 -2068 0
-4733 4732 0
-4733 -2278 2068 0
-4733 2278 -2068 0
4733 -4732 2278 2068 0
4733 -4732 -2278 -2068 0
-4733 2279 -2069 0
-4734 4733 0
-4734 -2279 2069 0
-4734 2279 -2069 0
4734 -4733 2279 2069 0
4734 -4733 -2279 -2069 0
-4734 2280 -2070 0
-4735 4734 0
-4735 -2280 2070 0
-4735 2280 -2070 0
4735 -4734 2280 2070 0
4735 -4734 -2280 -2070 0
-4735 2281 -2071 0
-4736 4735 0
-4736 -2281 2071 0
-4736 2281 -2071 0
4736 -4735 2281 2071 0
4736 -4735 -2281 -2071 0
-4736 2282 -2072 0
-4737 4736 0
-4737 -2282 2072 0
-4737 2282 -2072 0
4737 -4736 2282 2072 0
4737 -4736 -2282 -2072 0
-4737 2283 -2073 0
-4738 4737 0
-4738 -2283 2073 0
-4738 2283 -2073 0
4738 -4737 2283 2073 0
4738 -4737 -2283 -2073 0
-4738 2284 -2074 0
-4739 4738 0
-4739 -2284 2074 0
-4739 2284 -2074 0
4739 -4738 2284 2074 0
4739 -4738 -2284 -2074 0
-4739 2285 -2075 0
-4740 4739 0
-4740 -2285 2075 0
-4740 2285 -2075 0
4740 -4739 2285 2075 0
4740 -4739 -2285 -2075 0
-4740 2286 -2076 0
-4741 4740 0
-4741 -2286 2076 0
-4741 2286 -2076 0
4741 -4740 2286 2076 0
4741 -4740 -2286 -2076 0
-4741 2287 -2077 0
-4742 4741 0
-4742 -2287 2077 0
-4742 2287 -2077 0
4742 -4741 2287 2077 0
4742 -4741 -2287 -2077 0
-4742 2377 -2167 0
-4743 4742 0
-4743 -2377 2167 0
-4743 2377 -2167 0
4743 -4742 2377 2167 0
4743 -4742 -2377 -2167 0
-4743 2378 -2168 0
-4744 4743 0
-4744 -2378 2168 0
-4744 2378 -2168 0
4744 -4743 2378 2168 0
4744 -4743 -2378 -2168 0
-4744 2379 -2169 0
-4745 4744 0
-4745 -2379 2169 0
-4745 2379 -2169 0
4745 -4744 2379 2169 0
4745 -4744 -2379 -2169 0
-4745 2380 -2170 0
-4746 4745 0
-4746 -2380 2170 0
-4746 2380 -2170 0
4746 -4745 2380 2170 0
4746 -4745 -2380 -2170 0
-4746 2381 -2171 0
-4747 4746 0
-4747 -2381 2171 0
-4747 2381 -2171 0
4747 -4746 2381 2171 0
4747 -4746 -2381 -2171 0
-4747 2382 -2172 0
-4748 4747 0
-4748 -2382 2172 0
-4748 2382 -2172 0
4748 -4747 2382 2172 0
4748 -4747 -2382 -2172 0
-4748 2383 -2173 0
-4749 4748 0
-4749 -2383 2173 0
-4749 2383 -2173 0
4749 -4748 2383 2173 0
4749 -4748 -2383 -2173 0
-4749 2384 -2174 0
-4750 4749 0
-4750 -2384 2174 0
-4750 2384 -2174 0
4750 -4749 2384 2174 0
4750 -4749 -2384 -2174 0
-4750 2385 -2175 0
-4751 4750 0
-4751 -2385 2175 0
-4751 2385 -2175 0
4751 -4750 2385 2175 0
4751 -4750 -2385 -2175 0
-4751 2386 -2176 0
-4752 4751 0
-4752 -2386 2176 0
-4752 2386 -2176 0
4752 -4751 2386 2176 0
4752 -4751 -2386 -2176 0
-4752 2387 -2177 0
-4753 4752 0
-4753 -2387 2177 0
-4753 2387 -2177 0
4753 -4752 2387 2177 0
4753 -4752 -2387 -2177 0
-4753 2388 -2178 0
-4754 4753 0
-4754 -2388 2178 0
-4754 2388 -2178 0
4754 -4753 2388 2178 0
4754 -4753 -2388 -2178 0
-4754 2389 -2179 0
-4755 4754 0
-4755 -2389 2179 0
-4755 2389 -2179 0
4755 -4754 2389 2179 0
4755 -4754 -2389 -2179 0
-4755 2390 -2180 0
-4756 4755 0
-4756 -2390 2180 0
-4756 2390 -2180 0
4756 -4755 2390 2180 0
4756 -4755 -2390 -2180 0
-4756 2391 -2181 0
-4757 4756 0
-4757 -2391 2181 0
-4757 2391 -2181 0
4757 -4756 2391 2181 0
4757 -4756 -2391 -2181 0
-4757 2392 -2182 0
-4758 4757 0
-4758 -2392 2182 0
-4758 2392 -2182 0
4758 -4757 2392 2182 0
4758 -4757 -2392 -2182 0
-4758 2482 -2272 0
-4759 4758 0
-4759 -2482 2272 0
-4759 2482 -2272 0
4759 -4758 2482 2272 0
4759 -4758 -2482 -2272 0
-4759 2483 -2273 0
-4760 4759 0
-4760 -2483 2273 0
-4760 2483 -2273 0
4760 -4759 2483 2273 0
4760 -4759 -2483 -2273 0
-4760 2484 -2274 0
-4761 4760 0
-4761 -2484 2274 0
-4761 2484 -2274 0
4761 -4760 2484 2274 0
4761 -4760 -2484 -2274 0
-4761 2485 -2275 0
-4762 4761 0
-4762 -2485 2275 0
-4762 2485 -2275 0
4762 -4761 2485 2275 0
4762 -4761 -2485 -2275 0
-4762 2486 -2276 0
-4763 4762 0
-4763 -2486 2276 0
-4763 2486 -2276 0
4763 -4762 2486 2276 0
4763 -4762 -2486 -2276 0
-4763 2487 -2277 0
-4764 4763 0
-4764 -2487 2277 0
-4764 2487 -2277 0
4764 -4763 2487 2277 0
4764 -4763 -2487 -2277 0
-4764 2488 -2278 0
-4765 4764 0
-4765 -2488 2278 0
-4765 2488 -2278 0
4765 -4764 2488 2278 0
4765 -4764 -2488 -2278 0
-4765 2489 -2279 0
-4766 4765 0
-4766 -2489 2279 0
-4766 2489 -2279 0
4766 -4765 2489 2279 0
4766 -4765 -2489 -2279 0
-4766 2490 -2280 0
-4767 4766 0
-4767 -2490 2280 0
-4767 2490 -2280 0
4767 -4766 2490 2280 0
4767 -4766 -2490 -2280 0
-4767 2491 -2281 0
-4768 4767 0
-4768 -2491 2281 0
-4768 2491 -2281 0
4768 -4767 2491 2281 0
4768 -4767 -2491 -2281 0
-4768 2492 -2282 0
-4769 4768 0
-4769 -2492 2282 0
-4769 2492 -2282 0
4769 -4768 2492 2282 0
4769 -4768 -2492 -2282 0
-4769 2493 -2283 0
-4770 4769 0
-4770 -2493 2283 0
-4770 2493 -2283 0
4770 -4769 2493 2283 0
4770 -4769 -2493 -2283 0
-4770 2494 -2284 0
-4771 4770 0
-4771 -2494 2284 0
-4771 2494 -2284 0
4771 -4770 2494 2284 0
4771 -4770 -2494 -2284 0
-4771 2495 -2285 0
-4772 4771 0
-4772 -2495 2285 0
-4772 2495 -2285 0
4772 -4771 2495 2285 0
4772 -4771 -2495 -2285 0
-4772 2496 -2286 0
-4773 4772 0
-4773 -2496 2286 0
-4773 2496 -2286 0
4773 -4772 2496 2286 0
4773 -4772 -2496 -2286 0
-4773 2497 -2287 0
-4774 4773 0
-4774 -2497 2287 0
-4774 2497 -2287 0
4774 -4773 2497 2287 0
4774 -4773 -2497 -2287 0
-4774 2587 -2377 0
-4775 4774 0
-4775 -2587 2377 0
-4775 2587 -2377 0
4775 -4774 2587 2377 0
4775 -4774 -2587 -2377 0
-4775 2588 -2378 0
-4776 4775 0
-4776 -2588 2378 0
-4776 2588 -2378 0
4776 -4775 2588 2378 0
4776 -4775 -2588 -2378 0
-4776 2589 -2379 0
-4777 4776 0
-4777 -2589 2379 0
-4777 2589 -2379 0
4777 -4776 2589 2379 0
4777 -4776 -2589 -2379 0
-4777 2590 -2380 0
-4778 4777 0
-4778 -2590 2380 0
-4778 2590 -2380 0
4778 -4777 2590 2380 0
4778 -4777 -2590 -2380 0
-4778 2591 -2381 0
-4779 4778 0
-4779 -2591 2381 0
-4779 2591 -2381 0
4779 -4778 2591 2381 0
4779 -4778 -2591 -2381 0
-4779 2592 -2382 0
-4780 4779 0
-4780 -2592 2382 0
-4780 2592 -2382 0
4780 -4779 2592 2382 0
4780 -4779 -2592 -2382 0
-4780 2593 -2383 0
-4781 4780 0
-4781 -2593 2383 0
-4781 2593 -2383 0
4781 -4780 2593 2383 0
4781 -4780 -2593 -2383 0
-4781 2594 -2384 0
-4782 4781 0
-4782 -2594 2384 0
-4782 2594 -2384 0
4782 -4781 2594 2384 0
4782 -4781 -2594 -2384 0
-4782 2595 -2385 0
-4783 4782 0
-4783 -2595 2385 0
-4783 2595 -2385 0
4783 -4782 2595 2385 0
4783 -4782 -2595 -2385 0
-4783 2596 -2386 0
-4784 4783 0
-4784 -2596 2386 0
-4784 2596 -2386 0
4784 -4783 2596 2386 0
4784 -4783 -2596 -2386 0
-4784 2597 -2387 0
-4785 4784 0
-4785 -2597 2387 0
-4785 2597 -2387 0
4785 -4784 2597 2387 0
4785 -4784 -2597 -2387 0
-4785 2598 -2388 0
-4786 4785 0
-4786 -2598 2388 0
-4786 2598 -2388 0
4786 -4785 2598 2388 0
4786 -4785 -2598 -2388 0
-4786 2599 -2389 0
-4787 4786 0
-4787 -2599 2389 0
-4787 2599 -2389 0
4787 -4786 2599 2389 0
4787 -4786 -2599 -2389 0
-4787 2600 -2390 0
-4788 4787 0
-4788 -2600 2390 0
-4788 2600 -2390 0
4788 -4787 2600 2390 0
4788 -4787 -2600 -2390 0
-4788 2601 -2391 0
-4789 4788 0
-4789 -2601 2391 0
-4789 2601 -2391 0
4789 -4788 2601 2391 0
4789 -4788 -2601 -2391 0
-4789 2602 -2392 0
-4790 4789 0
-4790 -2602 2392 0
-4790 2602 -2392 0
4790 -4789 2602 2392 0
4790 -4789 -2602 -2392 0
-4790 2692 -2482 0
-4791 4790 0
-4791 -2692 2482 0
-4791 2692 -2482 0
4791 -4790 2692 2482 0
4791 -4790 -2692 -2482 0
-4791 2693 -2483 0
-4792 4791 0
-4792 -2693 2483 0
-4792 2693 -2483 0
4792 -4791 2693 2483 0
4792 -4791 -2693 -2483 0
-4792 2694 -2484 0
-4793 4792 0
-4793 -2694 2484 0
-4793 2694 -2484 0
4793 -4792 2694 2484 0
4793 -4792 -2694 -2484 0
-4793 2695 -2485 0
-4794 4793 0
-4794 -2695 2485 0
-4794 2695 -2485 0
4794 -4793 2695 2485 0
4794 -4793 -2695 -2485 0
-4794 2696 -2486 0
-4795 4794 0
-4795 -2696 2486 0
-4795 2696 -2486 0
4795 -4794 2696 2486 0
4795 -4794 -2696 -2486 0
-4795 2697 -2487 0
-4796 4795 0
-4796 -2697 2487 0
-4796 2697 -2487 0
4796 -4795 2697 2487 0
4796 -4795 -2697 -2487 0
-4796 2698 -2488 0
-4797 4796 0
-4797 -2698 2488 0
-4797 2698 -2488 0
4797 -4796 2698 2488 0
4797 -4796 -2698 -2488 0
-4797 2699 -2489 0
-4798 4797 0
-4798 -2699 2489 0
-4798 2699 -2489 0
4798 -4797 2699 2489 0
4798 -4797 -2699 -2489 0
-4798 2700 -2490 0
-4799 4798 0
-4799 -2700 2490 0
-4799 2700 -2490 0
4799 -4798 2700 2490 0
4799 -4798 -2700 -2490 0
-4799 2701 -2491 0
-4800 4799 0
-4800 -2701 2491 0
-4800 2701 -2491 0
4800 -4799 2701 2491 0
4800 -4799 -2701 -2491 0
-4800 2702 -2492 0
-4801 4800 0
-4801 -2702 2492 0
-4801 2702 -2492 0
4801 -4800 2702 2492 0
4801 -4800 -2702 -2492 0
-4801 2703 -2493 0
-4802 4801 0
-4802 -2703 2493 0
-4802 2703 -2493 0
4802 -4801 2703 2493 0
4802 -4801 -2703 -2493 0
-4802 2704 -2494 0
-4803 4802 0
-4803 -2704 2494 0
-4803 2704 -2494 0
4803 -4802 2704 2494 0
4803 -4802 -2704 -2494 0
-4803 2705 -2495 0
-4804 4803 0
-4804 -2705 2495 0
-4804 2705 -2495 0
4804 -4803 2705 2495 0
4804 -4803 -2705 -2495 0
-4804 2706 -2496 0
-4805 4804 0
-4805 -2706 2496 0
-4805 2706 -2496 0
4805 -4804 2706 2496 0
4805 -4804 -2706 -2496 0
-4805 2707 -2497 0
1537 -2692 0
-4806 -1537 2692 0
-4806 1537 -2692 0
4806 1537 2692 0
4806 -1537 -2692 0
-4806 1538 -2693 0
-4807 4806 0
-4807 -1538 2693 0
-4807 1538 -2693 0
4807 -4806 1538 2693 0
4807 -4806 -1538 -2693 0
-4807 1539 -2694 0
-4808 4807 0
-4808 -1539 2694 0
-4808 1539 -2694 0
4808 -4807 1539 2694 0
4808 -4807 -1539 -2694 0
-4808 1540 -2695 0
-4809 4808 0
-4809 -1540 2695 0
-4809 1540 -2695 0
4809 -4808 1540 2695 0
4809 -4808 -1540 -2695 0
-4809 1541 -2696 0
-4810 4809 0
-4810 -1541 2696 0
-4810 1541 -2696 0
4810 -4809 1541 2696 0
4810 -4809 -1541 -2696 0
-4810 1542 -2697 0
-4811 4810 0
-4811 -1542 2697 0
-4811 1542 -2697 0
4811 -4810 1542 2697 0
4811 -4810 -1542 -2697 0
-4811 1543 -2698 0
-4812 4811 0
-4812 -1543 2698 0
-4812 1543 -2698 0
4812 -4811 1543 2698 0
4812 -4811 -1543 -2698 0
-4812 1544 -2699 0
-4813 4812 0
-4813 -1544 2699 0
-4813 1544 -2699 0
4813 -4812 1544 2699 0
4813 -4812 -1544 -2699 0
-4813 1545 -2700 0
-4814 4813 0
-4814 -1545 2700 0
-4814 1545 -2700 0
4814 -4813 1545 2700 0
4814 -4813 -1545 -2700 0
-4814 1546 -2701 0
-4815 4814 0
-4815 -1546 2701 0
-4815 1546 -2701 0
4815 -4814 1546 2701 0
4815 -4814 -1546 -2701 0
-4815 1547 -2702 0
-4816 4815 0
-4816 -1547 2702 0
-4816 1547 -2702 0
4816 -4815 1547 2702 0
4816 -4815 -1547 -2702 0
-4816 1548 -2703 0
-4817 4816 0
-4817 -1548 2703 0
-4817 1548 -2703 0
4817 -4816 1548 2703 0
4817 -4816 -1548 -2703 0
-4817 1549 -2704 0
-4818 4817 0
-4818 -1549 2704 0
-4818 1549 -2704 0
4818 -4817 1549 2704 0
4818 -4817 -1549 -2704 0
-4818 1550 -2705 0
-4819 4818 0
-4819 -1550 2705 0
-4819 1550 -2705 0
4819 -4818 1550 2705 0
4819 -4818 -1550 -2705 0
-4819 1551 -2706 0
-4820 4819 0
-4820 -1551 2706 0
-4820 1551 -2706 0
4820 -4819 1551 2706 0
4820 -4819 -1551 -2706 0
-4820 1552 -2707 0
-4821 4820 0
-4821 -1552 2707 0
-4821 1552 -2707 0
4821 -4820 1552 2707 0
4821 -4820 -1552 -2707 0
-4821 1642 -1537 0
-4822 4821 0
-4822 -1642 1537 0
-4822 1642 -1537 0
4822 -4821 1642 1537 0
4822 -4821 -1642 -1537 0
-4822 1643 -1538 0
-4823 4822 0
-4823 -1643 1538 0
-4823 1643 -1538 0
4823 -4822 1643 1538 0
4823 -4822 -1643 -1538 0
-4823 1644 -1539 0
-4824 4823 0
-4824 -1644 1539 0
-4824 1644 -1539 0
4824 -4823 1644 1539 0
4824 -4823 -1644 -1539 0
-4824 1645 -1540 0
-4825 4824 0
-4825 -1645 1540 0
-4825 1645 -1540 0
4825 -4824 1645 1540 0
4825 -4824 -1645 -1540 0
-4825 1646 -1541 0
-4826 4825 0
-4826 -1646 1541 0
-4826 1646 -1541 0
4826 -4825 1646 1541 0
4826 -4825 -1646 -1541 0
-4826 1647 -1542 0
-4827 4826 0
-4827 -1647 1542 0
-4827 1647 -1542 0
4827 -4826 1647 1542 0
4827 -4826 -1647 -1542 0
-4827 1648 -1543 0
-4828 4827 0
-4828 -1648 1543 0
-4828 1648 -1543 0
4828 -4827 1648 1543 0
4828 -4827 -1648 -1543 0
-4828 1649 -1544 0
-4829 4828 0
-4829 -1649 1544 0
-4829 1649 -1544 0
4829 -4828 1649 1544 0
4829 -4828 -1649 -1544 0
-4829 1650 -1545 0
-4830 4829 0
-4830 -1650 1545 0
-4830 1650 -1545 0
4830 -4829 1650 1545 0
4830 -4829 -1650 -1545 0
-4830 1651 -1546 0
-4831 4830 0
-4831 -1651 1546 0
-4831 1651 -1546 0
4831 -4830 1651 1546 0
4831 -4830 -1651 -1546 0
-4831 1652 -1547 0
-4832 4831 0
-4832 -1652 1547 0
-4832 1652 -1547 0
4832 -4831 1652 1547 0
4832 -4831 -1652 -1547 0
-4832 1653 -1548 0
-4833 4832 0
-4833 -1653 1548 0
-4833 1653 -1548 0
4833 -4832 1653 1548 0
4833 -4832 -1653 -1548 0
-4833 1654 -1549 0
-4834 4833 0
-4834 -1654 1549 0
-4834 1654 -1549 0
4834 -4833 1654 1549 0
4834 -4833 -1654 -1549 0
-4834 1655 -1550 0
-4835 4834 0
-4835 -1655 1550 0
-4835 1655 -1550 0
4835 -4834 1655 1550 0
4835 -4834 -1655 -1550 0
-4835 1656 -1551 0
-4836 4835 0
-4836 -1656 1551 0
-4836 1656 -1551 0
4836 -4835 1656 1551 0
4836 -4835 -1656 -1551 0
-4836 1657 -1552 0
-4837 4836 0
-4837 -1657 1552 0
-4837 1657 -1552 0
4837 -4836 1657 1552 0
4837 -4836 -1657 -1552 0
-4837 1747 -1642 0
-4838 4837 0
-4838 -1747 1642 0
-4838 1747 -1642 0
4838 -4837 1747 1642 0
4838 -4837 -1747 -1642 0
-4838 1748 -1643 0
-4839 4838 0
-4839 -1748 1643 0
-4839 1748 -1643 0
4839 -4838 1748 1643 0
4839 -4838 -1748 -1643 0
-4839 1749 -1644 0
-4840 4839 0
-4840 -1749 1644 0
-4840 1749 -1644 0
4840 -4839 1749 1644 0
4840 -4839 -1749 -1644 0
-4840 1750 -1645 0
-4841 4840 0
-4841 -1750 1645 0
-4841 1750 -1645 0
4841 -4840 1750 1645 0
4841 -4840 -1750 -1645 0
-4841 1751 -1646 0
-4842 4841 0
-4842 -1751 1646 0
-4842 1751 -1646 0
4842 -4841 1751 1646 0
4842 -4841 -1751 -1646 0
-4842 1752 -1647 0
-4843 4842 0
-4843 -1752 1647 0
-4843 1752 -1647 0
4843 -4842 1752 1647 0
4843 -4842 -1752 -1647 0
-4843 1753 -1648 0
-4844 4843 0
-4844 -1753 1648 0
-4844 1753 -1648 0
4844 -4843 1753 1648 0
4844 -4843 -1753 -1648 0
-4844 1754 -1649 0
-4845 4844 0
-4845 -1754 1649 0
-4845 1754 -1649 0
4845 -4844 1754 1649 0
4845 -4844 -1754 -1649 0
-4845 1755 -1650 0
-4846 4845 0
-4846 -1755 1650 0
-4846 1755 -1650 0
4846 -4845 1755 1650 0
4846 -4845 -1755 -1650 0
-4846 1756 -1651 0
-4847 4846 0
-4847 -1756 1651 0
-4847 1756 -1651 0
4847 -4846 1756 1651 0
4847 -4846 -1756 -1651 0
-4847 1757 -1652 0
-4848 4847 0
-4848 -1757 1652 0
-4848 1757 -1652 0
4848 -4847 1757 1652 0
4848 -4847 -1757 -1652 0
-4848 1758 -1653 0
-4849 4848 0
-4849 -1758 1653 0
-4849 1758 -1653 0
4849 -4848 1758 1653 0
4849 -4848 -1758 -1653 0
-4849 1759 -1654 0
-4850 4849 0
-4850 -1759 1654 0
-4850 1759 -1654 0
4850 -4849 1759 1654 0
4850 -4849 -1759 -1654 0
-4850 1760 -1655 0
-4851 4850 0
-4851 -1760 1655 0
-4851 1760 -1655 0
4851 -4850 1760 1655 0
4851 -4850 -1760 -1655 0
-4851 1761 -1656 0
-4852 4851 0
-4852 -1761 1656 0
-4852 1761 -1656 0
4852 -4851 1761 1656 0
4852 -4851 -1761 -1656 0
-4852 1762 -1657 0
-4853 4852 0
-4853 -1762 1657 0
-4853 1762 -1657 0
4853 -4852 1762 1657 0
4853 -4852 -1762 -1657 0
-4853 1852 -1747 0
-4854 4853 0
-4854 -1852 1747 0
-4854 1852 -1747 0
4854 -4853 1852 1747 0
4854 -4853 -1852 -1747 0
-4854 1853 -1748 0
-4855 4854 0
-4855 -1853 1748 0
-4855 1853 -1748 0
4855 -4854 1853 1748 0
4855 -4854 -1853 -1748 0
-4855 1854 -1749 0
-4856 4855 0
-4856 -1854 1749 0
-4856 1854 -1749 0
4856 -4855 1854 1749 0
4856 -4855 -1854 -1749 0
-4856 1855 -1750 0
-4857 4856 0
-4857 -1855 1750 0
-4857 1855 -1750 0
4857 -4856 1855 1750 0
4857 -4856 -1855 -1750 0
-4857 1856 -1751 0
-4858 4857 0
-4858 -1856 1751 0
-4858 1856 -1751 0
4858 -4857 1856 1751 0
4858 -4857 -1856 -1751 0
-4858 1857 -1752 0
-4859 4858 0
-4859 -1857 1752 0
-4859 1857 -1752 0
4859 -4858 1857 1752 0
4859 -4858 -1857 -1752 0
-4859 1858 -1753 0
-4860 4859 0
-4860 -1858 1753 0
-4860 1858 -1753 0
4860 -4859 1858 1753 0
4860 -4859 -1858 -1753 0
-4860 1859 -1754 0
-4861 4860 0
-4861 -1859 1754 0
-4861 1859 -1754 0
4861 -4860 1859 1754 0
4861 -4860 -1859 -1754 0
-4861 1860 -1755 0
-4862 4861 0
-4862 -1860 1755 0
-4862 1860 -1755 0
4862 -4861 1860 1755 0
4862 -4861 -1860 -1755 0
-4862 1861 -1756 0
-4863 4862 0
-4863 -1861 1756 0
-4863 1861 -1756 0
4863 -4862 1861 1756 0
4863 -4862 -1861 -1756 0
-4863 1862 -1757 0
-4864 4863 0
-4864 -1862 1757 0
-4864 1862 -1757 0
4864 -4863 1862 1757 0
4864 -4863 -1862 -1757 0
-4864 1863 -1758 0
-4865 4864 0
-4865 -1863 1758 0
-4865 1863 -1758 0
4865 -4864 1863 1758 0
4865 -4864 -1863 -1758 0
-4865 1864 -1759 0
-4866 4865 0
-4866 -1864 1759 0
-4866 1864 -1759 0
4866 -4865 1864 1759 0
4866 -4865 -1864 -1759 0
-4866 1865 -1760 0
-4867 4866 0
-4867 -1865 1760 0
-4867 1865 -1760 0
4867 -4866 1865 1760 0
4867 -4866 -1865 -1760 0
-4867 1866 -1761 0
-4868 4867 0
-4868 -1866 1761 0
-4868 1866 -1761 0
4868 -4867 1866 1761 0
4868 -4867 -1866 -1761 0
-4868 1867 -1762 0
-4869 4868 0
-4869 -1867 1762 0
-4869 1867 -1762 0
4869 -4868 1867 1762 0
4869 -4868 -1867 -1762 0
-4869 1957 -1852 0
-4870 4869 0
-4870 -1957 1852 0
-4870 1957 -1852 0
4870 -4869 1957 1852 0
4870 -4869 -1957 -1852 0
-4870 1958 -1853 0
-4871 4870 0
-4871 -1958 1853 0
-4871 1958 -1853 0
4871 -4870 1958 1853 0
4871 -4870 -1958 -1853 0
-4871 1959 -1854 0
-4872 4871 0
-4872 -1959 1854 0
-4872 1959 -1854 0
4872 -4871 1959 1854 0
4872 -4871 -1959 -1854 0
-4872 1960 -1855 0
-4873 4872 0
-4873 -1960 1855 0
-4873 1960 -1855 0
4873 -4872 1960 1855 0
4873 -4872 -1960 -1855 0
-4873 1961 -1856 0
-4874 4873 0
-4874 -1961 1856 0
-4874 1961 -1856 0
4874 -4873 1961 1856 0
4874 -4873 -1961 -1856 0
-4874 1962 -1857 0
-4875 4874 0
-4875 -1962 1857 0
-4875 1962 -1857 0
4875 -4874 1962 1857 0
4875 -4874 -1962 -1857 0
-4875 1963 -1858 0
-4876 4875 0
-4876 -1963 1858 0
-4876 1963 -1858 0
4876 -4875 1963 1858 0
4876 -4875 -1963 -1858 0
-4876 1964 -1859 0
-4877 4876 0
-4877 -1964 1859 0
-4877 1964 -1859 0
4877 -4876 1964 1859 0
4877 -4876 -1964 -1859 0
-4877 1965 -1860 0
-4878 4877 0
-4878 -1965 1860 0
-4878 1965 -1860 0
4878 -4877 1965 1860 0
4878 -4877 -1965 -1860 0
-4878 1966 -1861 0
-4879 4878 0
-4879 -1966 1861 0
-4879 1966 -1861 0
4879 -4878 1966 1861 0
4879 -4878 -1966 -1861 0
-4879 1967 -1862 0
-4880 4879 0
-4880 -1967 1862 0
-4880 1967 -1862 0
4880 -4879 1967 1862 0
4880 -4879 -1967 -1862 0
-4880 1968 -1863 0
-4881 4880 0
-4881 -1968 1863 0
-4881 1968 -1863 0
4881 -4880 1968 1863 0
4881 -4880 -1968 -1863 0
-4881 1969 -1864 0
-4882 4881 0
-4882 -1969 1864 0
-4882 1969 -1864 0
4882 -4881 1969 1864 0
4882 -4881 -1969 -1864 0
-4882 1970 -1865 0
-4883 4882 0
-4883 -1970 1865 0
-4883 1970 -1865 0
4883 -4882 1970 1865 0
4883 -4882 -1970 -1865 0
-4883 1971 -1866 0
-4884 4883 0
-4884 -1971 1866 0
-4884 1971 -1866 0
4884 -4883 1971 1866 0
4884 -4883 -1971 -1866 0
-4884 1972 -1867 0
-4885 4884 0
-4885 -1972 1867 0
-4885 1972 -1867 0
4885 -4884 1972 1867 0
4885 -4884 -1972 -1867 0
-4885 2062 -1957 0
-4886 4885 0
-4886 -2062 1957 0
-4886 2062 -1957 0
4886 -4885 2062 1957 0
4886 -4885 -2062 -1957 0
-4886 2063 -1958 0
-4887 4886 0
-4887 -2063 1958 0
-4887 2063 -1958 0
4887 -4886 2063 1958 0
4887 -4886 -2063 -1958 0
-4887 2064 -1959 0
-4888 4887 0
-4888 -2064 1959 0
-4888 2064 -1959 0
4888 -4887 2064 1959 0
4888 -4887 -2064 -1959 0
-4888 2065 -1960 0
-4889 4888 0
-4889 -2065 1960 0
-4889 2065 -1960 0
4889 -4888 2065 1960 0
4889 -4888 -2065 -1960 0
-4889 2066 -1961 0
-4890 4889 0
-4890 -2066 1961 0
-4890 2066 -1961 0
4890 -4889 2066 1961 0
4890 -4889 -2066 -1961 0
-4890 2067 -1962 0
-4891 4890 0
-4891 -2067 1962 0
-4891 2067 -1962 0
4891 -4890 2067 1962 0
4891 -4890 -2067 -1962 0
-4891 2068 -1963 0
-4892 4891 0
-4892 -2068 1963 0
-4892 2068 -1963 0
4892 -4891 2068 1963 0
4892 -4891 -2068 -1963 0
-4892 2069 -1964 0
-4893 4892 0
-4893 -2069 1964 0
-4893 2069 -1964 0
4893 -4892 2069 1964 0
4893 -4892 -2069 -1964 0
-4893 2070 -1965 0
-4894 4893 0
-4894 -2070 1965 0
-4894 2070 -1965 0
4894 -4893 2070 1965 0
4894 -4893 -2070 -1965 0
-4894 2071 -1966 0
-4895 4894 0
-4895 -2071 1966 0
-4895 2071 -1966 0
4895 -4894 2071 1966 0
4895 -4894 -2071 -1966 0
-4895 2072 -1967 0
-4896 4895 0
-4896 -2072 1967 0
-4896 2072 -1967 0
4896 -4895 2072 1967 0
4896 -4895 -2072 -1967 0
-4896 2073 -1968 0
-4897 4896 0
-4897 -2073 1968 0
-4897 2073 -1968 0
4897 -4896 2073 1968 0
4897 -4896 -2073 -1968 0
-4897 2074 -1969 0
-4898 4897 0
-4898 -2074 1969 0
-4898 2074 -1969 0
4898 -4897 2074 1969 0
4898 -4897 -2074 -1969 0
-4898 2075 -1970 0
-4899 4898 0
-4899 -2075 1970 0
-4899 2075 -1970 0
4899 -4898 2075 1970 0
4899 -4898 -2075 -1970 0
-4899 2076 -1971 0
-4900 4899 0
-4900 -2076 1971 0
-4900 2076 -1971 0
4900 -4899 2076 1971 0
4900 -4899 -2076 -1971 0
-4900 2077 -1972 0
-4901 4900 0
-4901 -2077 1972 0
-4901 2077 -1972 0
4901 -4900 2077 1972 0
4901 -4900 -2077 -1972 0
-4901 2167 -2062 0
-4902 4901 0
-4902 -2167 2062 0
-4902 2167 -2062 0
4902 -4901 2167 2062 0
4902 -4901 -2167 -2062 0
-4902 2168 -2063 0
-4903 4902 0
-4903 -2168 2063 0
-4903 2168 -2063 0
4903 -4902 2168 2063 0
4903 -4902 -2168 -2063 0
-4903 2169 -2064 0
-4904 4903 0
-4904 -2169 2064 0
-4904 2169 -2064 0
4904 -4903 2169 2064 0
4904 -4903 -2169 -2064 0
-4904 2170 -2065 0
-4905 4904 0
-4905 -2170 2065 0
-4905 2170 -2065 0
4905 -4904 2170 2065 0
4905 -4904 -2170 -2065 0
-4905 2171 -2066 0
-4906 4905 0
-4906 -2171 2066 0
-4906 2171 -2066 0
4906 -4905 2171 2066 0
4906 -4905 -2171 -2066 0
-4906 2172 -2067 0
-4907 4906 0
-4907 -2172 2067 0
-4907 2172 -2067 0
4907 -4906 2172 2067 0
4907 -4906 -2172 -2067 0
-4907 2173 -2068 0
-4908 4907 0
-4908 -2173 2068 0
-4908 2173 -2068 0
4908 -4907 2173 2068 0
4908 -4907 -2173 -2068 0
-4908 2174 -2069 0
-4909 4908 0
-4909 -2174 2069 0
-4909 2174 -2069 0
4909 -4908 2174 2069 0
4909 -4908 -2174 -2069 0
-4909 2175 -2070 0
-4910 4909 0
-4910 -2175 2070 0
-4910 2175 -2070 0
4910 -4909 2175 2070 0
4910 -4909 -2175 -2070 0
-4910 2176 -2071 0
-4911 4910 0
-4911 -2176 2071 0
-4911 2176 -2071 0
4911 -4910 2176 2071 0
4911 -4910 -2176 -2071 0
-4911 2177 -2072 0
-4912 4911 0
-4912 -2177 2072 0
-4912 2177 -2072 0
4912 -4911 2177 2072 0
4912 -4911 -2177 -2072 0
-4912 2178 -2073 0
-4913 4912 0
-4913 -2178 2073 0
-4913 2178 -2073 0
4913 -4912 2178 2073 0
4913 -4912 -2178 -2073 0
-4913 2179 -2074 0
-4914 4913 0
-4914 -2179 2074 0
-4914 2179 -2074 0
4914 -4913 2179 2074 0
4914 -4913 -2179 -2074 0
-4914 2180 -2075 0
-4915 4914 0
-4915 -2180 2075 0
-4915 2180 -2075 0
4915 -4914 2180 2075 0
4915 -4914 -2180 -2075 0
-4915 2181 -2076 0
-4916 4915 0
-4916 -2181 2076 0
-4916 2181 -2076 0
4916 -4915 2181 2076 0
4916 -4915 -2181 -2076 0
-4916 2182 -2077 0
-4917 4916 0
-4917 -2182 2077 0
-4917 2182 -2077 0
4917 -4916 2182 2077 0
4917 -4916 -2182 -2077 0
-4917 2272 -2167 0
-4918 4917 0
-4918 -2272 2167 0
-4918 2272 -2167 0
4918 -4917 2272 2167 0
4918 -4917 -2272 -2167 0
-4918 2273 -2168 0
-4919 4918 0
-4919 -2273 2168 0
-4919 2273 -2168 0
4919 -4918 2273 2168 0
4919 -4918 -2273 -2168 0
-4919 2274 -2169 0
-4920 4919 0
-4920 -2274 2169 0
-4920 2274 -2169 0
4920 -4919 2274 2169 0
4920 -4919 -2274 -2169 0
-4920 2275 -2170 0
-4921 4920 0
-4921 -2275 2170 0
-4921 2275 -2170 0
4921 -4920 2275 2170 0
4921 -4920 -2275 -2170 0
-4921 2276 -2171 0
-4922 4921 0
-4922 -2276 2171 0
-4922 2276 -2171 0
4922 -4921 2276 2171 0
4922 -4921 -2276 -2171 0
-4922 2277 -2172 0
-4923 4922 0
-4923 -2277 2172 0
-4923 2277 -2172 0
4923 -4922 2277 2172 0
4923 -4922 -2277 -2172 0
-4923 2278 -2173 0
-4924 4923 0
-4924 -2278 2173 0
-4924 2278 -2173 0
4924 -4923 2278 2173 0
4924 -4923 -2278 -2173 0
-4924 2279 -2174 0
-4925 4924 0
-4925 -2279 2174 0
-4925 2279 -2174 0
4925 -4924 2279 2174 0
4925 -4924 -2279 -2174 0
-4925 2280 -2175 0
-4926 4925 0
-4926 -2280 2175 0
-4926 2280 -2175 0
4926 -4925 2280 2175 0
4926 -4925 -2280 -2175 0
-4926 2281 -2176 0
-4927 4926 0
-4927 -2281 2176 0
-4927 2281 -2176 0
4927 -4926 2281 2176 0
4927 -4926 -2281 -2176 0
-4927 2282 -2177 0
-4928 4927 0
-4928 -2282 2177 0
-4928 2282 -2177 0
4928 -4927 2282 2177 0
4928 -4927 -2282 -2177 0
-4928 2283 -2178 0
-4929 4928 0
-4929 -2283 2178 0
-4929 2283 -2178 0
4929 -4928 2283 2178 0
4929 -4928 -2283 -2178 0
-4929 2284 -2179 0
-4930 4929 0
-4930 -2284 2179 0
-4930 2284 -2179 0
4930 -4929 2284 2179 0
4930 -4929 -2284 -2179 0
-4930 2285 -2180 0
-4931 4930 0
-4931 -2285 2180 0
-4931 2285 -2180 0
4931 -4930 2285 2180 0
4931 -4930 -2285 -2180 0
-4931 2286 -2181 0
-4932 4931 0
-4932 -2286 2181 0
-4932 2286 -2181 0
4932 -4931 2286 2181 0
4932 -4931 -2286 -2181 0
-4932 2287 -2182 0
-4933 4932 0
-4933 -2287 2182 0
-4933 2287 -2182 0
4933 -4932 2287 2182 0
4933 -4932 -2287 -2182 0
-4933 2377 -2272 0
-4934 4933 0
-4934 -2377 2272 0
-4934 2377 -2272 0
4934 -4933 2377 2272 0
4934 -4933 -2377 -2272 0
-4934 2378 -2273 0
-4935 4934 0
-4935 -2378 2273 0
-4935 2378 -2273 0
4935 -4934 2378 2273 0
4935 -4934 -2378 -2273 0
-4935 2379 -2274 0
-4936 4935 0
-4936 -2379 2274 0
-4936 2379 -2274 0
4936 -4935 2379 2274 0
4936 -4935 -2379 -2274 0
-4936 2380 -2275 0
-4937 4936 0
-4937 -2380 2275 0
-4937 2380 -2275 0
4937 -4936 2380 2275 0
4937 -4936 -2380 -2275 0
-4937 2381 -2276 0
-4938 4937 0
-4938 -2381 2276 0
-4938 2381 -2276 0
4938 -4937 2381 2276 0
4938 -4937 -2381 -2276 0
-4938 2382 -2277 0
-4939 4938 0
-4939 -2382 2277 0
-4939 2382 -2277 0
4939 -4938 2382 2277 0
4939 -4938 -2382 -2277 0
-4939 2383 -2278 0
-4940 4939 0
-4940 -2383 2278 0
-4940 2383 -2278 0
4940 -4939 2383 2278 0
4940 -4939 -2383 -2278 0
-4940 2384 -2279 0
-4941 4940 0
-4941 -2384 2279 0
-4941 2384 -2279 0
4941 -4940 2384 2279 0
4941 -4940 -2384 -2279 0
-4941 2385 -2280 0
-4942 4941 0
-4942 -2385 2280 0
-4942 2385 -2280 0
4942 -4941 2385 2280 0
4942 -4941 -2385 -2280 0
-4942 2386 -2281 0
-4943 4942 0
-4943 -2386 2281 0
-4943 2386 -2281 0
4943 -4942 2386 2281 0
4943 -4942 -2386 -2281 0
-4943 2387 -2282 0
-4944 4943 0
-4944 -2387 2282 0
-4944 2387 -2282 0
4944 -4943 2387 2282 0
4944 -4943 -2387 -2282 0
-4944 2388 -2283 0
-4945 4944 0
-4945 -2388 2283 0
-4945 2388 -2283 0
4945 -4944 2388 2283 0
4945 -4944 -2388 -2283 0
-4945 2389 -2284 0
-4946 4945 0
-4946 -2389 2284 0
-4946 2389 -2284 0
4946 -4945 2389 2284 0
4946 -4945 -2389 -2284 0
-4946 2390 -2285 0
-4947 4946 0
-4947 -2390 2285 0
-4947 2390 -2285 0
4947 -4946 2390 2285 0
4947 -4946 -2390 -2285 0
-4947 2391 -2286 0
-4948 4947 0
-4948 -2391 2286 0
-4948 2391 -2286 0
4948 -4947 2391 2286 0
4948 -4947 -2391 -2286 0
-4948 2392 -2287 0
-4949 4948 0
-4949 -2392 2287 0
-4949 2392 -2287 0
4949 -4948 2392 2287 0
4949 -4948 -2392 -2287 0
-4949 2482 -2377 0
-4950 4949 0
-4950 -2482 2377 0
-4950 2482 -2377 0
4950 -4949 2482 2377 0
4950 -4949 -2482 -2377 0
-4950 2483 -2378 0
-4951 4950 0
-4951 -2483 2378 0
-4951 2483 -2378 0
4951 -4950 2483 2378 0
4951 -4950 -2483 -2378 0
-4951 2484 -2379 0
-4952 4951 0
-4952 -2484 2379 0
-4952 2484 -2379 0
4952 -4951 2484 2379 0
4952 -4951 -2484 -2379 0
-4952 2485 -2380 0
-4953 4952 0
-4953 -2485 2380 0
-4953 2485 -2380 0
4953 -4952 2485 2380 0
4953 -4952 -2485 -2380 0
-4953 2486 -2381 0
-4954 4953 0
-4954 -2486 2381 0
-4954 2486 -2381 0
4954 -4953 2486 2381 0
4954 -4953 -2486 -2381 0
-4954 2487 -2382 0
-4955 4954 0
-4955 -2487 2382 0
-4955 2487 -2382 0
4955 -4954 2487 2382 0
4955 -4954 -2487 -2382 0
-4955 2488 -2383 0
-4956 4955 0
-4956 -2488 2383 0
-4956 2488 -2383 0
4956 -4955 2488 2383 0
4956 -4955 -2488 -2383 0
-4956 2489 -2384 0
-4957 4956 0
-4957 -2489 2384 0
-4957 2489 -2384 0
4957 -4956 2489 2384 0
4957 -4956 -2489 -2384 0
-4957 2490 -2385 0
-4958 4957 0
-4958 -2490 2385 0
-4958 2490 -2385 0
4958 -4957 2490 2385 0
4958 -4957 -2490 -2385 0
-4958 2491 -2386 0
-4959 4958 0
-4959 -2491 2386 0
-4959 2491 -2386 0
4959 -4958 2491 2386 0
4959 -4958 -2491 -2386 0
-4959 2492 -2387 0
-4960 4959 0
-4960 -2492 2387 0
-4960 2492 -2387 0
4960 -4959 2492 2387 0
4960 -4959 -2492 -2387 0
-4960 2493 -2388 0
-4961 4960 0
-4961 -2493 2388 0
-4961 2493 -2388 0
4961 -4960 2493 2388 0
4961 -4960 -2493 -2388 0
-4961 2494 -2389 0
-4962 4961 0
-4962 -2494 2389 0
-4962 2494 -2389 0
4962 -4961 2494 2389 0
4962 -4961 -2494 -2389 0
-4962 2495 -2390 0
-4963 4962 0
-4963 -2495 2390 0
-4963 2495 -2390 0
4963 -4962 2495 2390 0
4963 -4962 -2495 -2390 0
-4963 2496 -2391 0
-4964 4963 0
-4964 -2496 2391 0
-4964 2496 -2391 0
4964 -4963 2496 2391 0
4964 -4963 -2496 -2391 0
-4964 2497 -2392 0
-4965 4964 0
-4965 -2497 2392 0
-4965 2497 -2392 0
4965 -4964 2497 2392 0
4965 -4964 -2497 -2392 0
-4965 2587 -2482 0
-4966 4965 0
-4966 -2587 2482 0
-4966 2587 -2482 0
4966 -4965 2587 2482 0
4966 -4965 -2587 -2482 0
-4966 2588 -2483 0
-4967 4966 0
-4967 -2588 2483 0
-4967 2588 -2483 0
4967 -4966 2588 2483 0
4967 -4966 -2588 -2483 0
-4967 2589 -2484 0
-4968 4967 0
-4968 -2589 2484 0
-4968 2589 -2484 0
4968 -4967 2589 2484 0
4968 -4967 -2589 -2484 0
-4968 2590 -2485 0
-4969 4968 0
-4969 -2590 2485 0
-4969 2590 -2485 0
4969 -4968 2590 2485 0
4969 -4968 -2590 -2485 0
-4969 2591 -2486 0
-4970 4969 0
-4970 -2591 2486 0
-4970 2591 -2486 0
4970 -4969 2591 2486 0
4970 -4969 -2591 -2486 0
-4970 2592 -2487 0
-4971 4970 0
-4971 -2592 2487 0
-4971 2592 -2487 0
4971 -4970 2592 2487 0
4971 -4970 -2592 -2487 0
-4971 2593 -2488 0
-4972 4971 0
-4972 -2593 2488 0
-4972 2593 -2488 0
4972 -4971 2593 2488 0
4972 -4971 -2593 -2488 0
-4972 2594 -2489 0
-4973 4972 0
-4973 -2594 2489 0
-4973 2594 -2489 0
4973 -4972 2594 2489 0
4973 -4972 -2594 -2489 0
-4973 2595 -2490 0
-4974 4973 0
-4974 -2595 2490 0
-4974 2595 -2490 0
4974 -4973 2595 2490 0
4974 -4973 -2595 -2490 0
-4974 2596 -2491 0
-4975 4974 0
-4975 -2596 2491 0
-4975 2596 -2491 0
4975 -4974 2596 2491 0
4975 -4974 -2596 -2491 0
-4975 2597 -2492 0
-4976 4975 0
-4976 -2597 2492 0
-4976 2597 -2492 0
4976 -4975 2597 2492 0
4976 -4975 -2597 -2492 0
-4976 2598 -2493 0
-4977 4976 0
-4977 -2598 2493 0
-4977 2598 -2493 0
4977 -4976 2598 2493 0
4977 -4976 -2598 -2493 0
-4977 2599 -2494 0
-4978 4977 0
-4978 -2599 2494 0
-4978 2599 -2494 0
4978 -4977 2599 2494 0
4978 -4977 -2599 -2494 0
-4978 2600 -2495 0
-4979 4978 0
-4979 -2600 2495 0
-4979 2600 -2495 0
4979 -4978 2600 2495 0
4979 -4978 -2600 -2495 0
-4979 2601 -2496 0
-4980 4979 0
-4980 -2601 2496 0
-4980 2601 -2496 0
4980 -4979 2601 2496 0
4980 -4979 -2601 -2496 0
-4980 2602 -2497 0
-4981 4980 0
-4981 -2602 2497 0
-4981 2602 -2497 0
4981 -4980 2602 2497 0
4981 -4980 -2602 -2497 0
-4981 2692 -2587 0
-4982 4981 0
-4982 -2692 2587 0
-4982 2692 -2587 0
4982 -4981 2692 2587 0
4982 -4981 -2692 -2587 0
-4982 2693 -2588 0
-4983 4982 0
-4983 -2693 2588 0
-4983 2693 -2588 0
4983 -4982 2693 2588 0
4983 -4982 -2693 -2588 0
-4983 2694 -2589 0
-4984 4983 0
-4984 -2694 2589 0
-4984 2694 -2589 0
4984 -4983 2694 2589 0
4984 -4983 -2694 -2589 0
-4984 2695 -2590 0
-4985 4984 0
-4985 -2695 2590 0
-4985 2695 -2590 0
4985 -4984 2695 2590 0
4985 -4984 -2695 -2590 0
-4985 2696 -2591 0
-4986 4985 0
-4986 -2696 2591 0
-4986 2696 -2591 0
4986 -4985 2696 2591 0
4986 -4985 -2696 -2591 0
-4986 2697 -2592 0
-4987 4986 0
-4987 -2697 2592 0
-4987 2697 -2592 0
4987 -4986 2697 2592 0
4987 -4986 -2697 -2592 0
-4987 2698 -2593 0
-4988 4987 0
-4988 -2698 2593 0
-4988 2698 -2593 0
4988 -4987 2698 2593 0
4988 -4987 -2698 -2593 0
-4988 2699 -2594 0
-4989 4988 0
-4989 -2699 2594 0
-4989 2699 -2594 0
4989 -4988 2699 2594 0
4989 -4988 -2699 -2594 0
-4989 2700 -2595 0
-4990 4989 0
-4990 -2700 2595 0
-4990 2700 -2595 0
4990 -4989 2700 2595 0
4990 -4989 -2700 -2595 0
-4990 2701 -2596 0
-4991 4990 0
-4991 -2701 2596 0
-4991 2701 -2596 0
4991 -4990 2701 2596 0
4991 -4990 -2701 -2596 0
-4991 2702 -2597 0
-4992 4991 0
-4992 -2702 2597 0
-4992 2702 -2597 0
4992 -4991 2702 2597 0
4992 -4991 -2702 -2597 0
-4992 2703 -2598 0
-4993 4992 0
-4993 -2703 2598 0
-4993 2703 -2598 0
4993 -4992 2703 2598 0
4993 -4992 -2703 -2598 0
-4993 2704 -2599 0
-4994 4993 0
-4994 -2704 2599 0
-4994 2704 -2599 0
4994 -4993 2704 2599 0
4994 -4993 -2704 -2599 0
-4994 2705 -2600 0
-4995 4994 0
-4995 -2705 2600 0
-4995 2705 -2600 0
4995 -4994 2705 2600 0
4995 -4994 -2705 -2600 0
-4995 2706 -2601 0
-4996 4995 0
-4996 -2706 2601 0
-4996 2706 -2601 0
4996 -4995 2706 2601 0
4996 -4995 -2706 -2601 0
-4996 2707 -2602 0
1 -2 0
-4997 -1 2 0
-4997 1 -2 0
4997 1 2 0
4997 -1 -2 0
-4997 2 -3 0
-4998 4997 0
-4998 -2 3 0
-4998 2 -3 0
4998 -4997 2 3 0
4998 -4997 -2 -3 0
-4998 3 -4 0
-4999 4998 0
-4999 -3 4 0
-4999 3 -4 0
4999 -4998 3 4 0
4999 -4998 -3 -4 0
-4999 4 -5 0
-5000 4999 0
-5000 -4 5 0
-5000 4 -5 0
5000 -4999 4 5 0
5000 -4999 -4 -5 0
-5000 5 -6 0
-5001 5000 0
-5001 -5 6 0
-5001 5 -6 0
5001 -5000 5 6 0
5001 -5000 -5 -6 0
-5001 6 -7 0
-5002 5001 0
-5002 -6 7 0
-5002 6 -7 0
5002 -5001 6 7 0
5002 -5001 -6 -7 0
-5002 7 -8 0
-5003 5002 0
-5003 -7 8 0
-5003 7 -8 0
5003 -5002 7 8 0
5003 -5002 -7 -8 0
-5003 8 -9 0
-5004 5003 0
-5004 -8 9 0
-5004 8 -9 0
5004 -5003 8 9 0
5004 -5003 -8 -9 0
-5004 9 -10 0
-5005 5004 0
-5005 -9 10 0
-5005 9 -10 0
5005 -5004 9 10 0
5005 -5004 -9 -10 0
-5005 10 -11 0
-5006 5005 0
-5006 -10 11 0
-5006 10 -11 0
5006 -5005 10 11 0
5006 -5005 -10 -11 0
-5006 11 -12 0
-5007 5006 0
-5007 -11 12 0
-5007 11 -12 0
5007 -5006 11 12 0
5007 -5006 -11 -12 0
-5007 12 -1 0
-5008 5007 0
-5008 -12 1 0
-5008 12 -1 0
5008 -5007 12 1 0
5008 -5007 -12 -1 0
-5008 145 -146 0
-5009 5008 0
-5009 -145 146 0
-5009 145 -146 0
5009 -5008 145 146 0
5009 -5008 -145 -146 0
-5009 146 -147 0
-5010 5009 0
-5010 -146 147 0
-5010 146 -147 0
5010 -5009 146 147 0
5010 -5009 -146 -147 0
-5010 147 -148 0
-5011 5010 0
-5011 -147 148 0
-5011 147 -148 0
5011 -5010 147 148 0
5011 -5010 -147 -148 0
-5011 148 -149 0
-5012 5011 0
-5012 -148 149 0
-5012 148 -149 0
5012 -5011 148 149 0
5012 -5011 -148 -149 0
-5012 149 -150 0
-5013 5012 0
-5013 -149 150 0
-5013 149 -150 0
5013 -5012 149 150 0
5013 -5012 -149 -150 0
-5013 150 -151 0
-5014 5013 0
-5014 -150 151 0
-5014 150 -151 0
5014 -5013 150 151 0
5014 -5013 -150 -151 0
-5014 151 -152 0
-5015 5014 0
-5015 -151 152 0
-5015 151 -152 0
5015 -5014 151 152 0
5015 -5014 -151 -152 0
-5015 152 -153 0
-5016 5015 0
-5016 -152 153 0
-5016 152 -153 0
5016 -5015 152 153 0
5016 -5015 -152 -153 0
-5016 153 -154 0
-5017 5016 0
-5017 -153 154 0
-5017 153 -154 0
5017 -5016 153 154 0
5017 -5016 -153 -154 0
-5017 154 -155 0
-5018 5017 0
-5018 -154 155 0
-5018 154 -155 0
5018 -5017 154 155 0
5018 -5017 -154 -155 0
-5018 155 -156 0
-5019 5018 0
-5019 -155 156 0
-5019 155 -156 0
5019 -5018 155 156 0
5019 -5018 -155 -156 0
-5019 156 -145 0
1 -3 0
-5020 -1 3 0
-5020 1 -3 0
5020 1 3 0
5020 -1 -3 0
-5020 2 -4 0
-5021 5020 0
-5021 -2 4 0
-5021 2 -4 0
5021 -5020 2 4 0
5021 -5020 -2 -4 0
-5021 3 -5 0
-5022 5021 0
-5022 -3 5 0
-5022 3 -5 0
5022 -5021 3 5 0
5022 -5021 -3 -5 0
-5022 4 -6 0
-5023 5022 0
-5023 -4 6 0
-5023 4 -6 0
5023 -5022 4 6 0
5023 -5022 -4 -6 0
-5023 5 -7 0
-5024 5023 0
-5024 -5 7 0
-5024 5 -7 0
5024 -5023 5 7 0
5024 -5023 -5 -7 0
-5024 6 -8 0
-5025 5024 0
-5025 -6 8 0
-5025 6 -8 0
5025 -5024 6 8 0
5025 -5024 -6 -8 0
-5025 7 -9 0
-5026 5025 0
-5026 -7 9 0
-5026 7 -9 0
5026 -5025 7 9 0
5026 -5025 -7 -9 0
-5026 8 -10 0
-5027 5026 0
-5027 -8 10 0
-5027 8 -10 0
5027 -5026 8 10 0
5027 -5026 -8 -10 0
-5027 9 -11 0
-5028 5027 0
-5028 -9 11 0
-5028 9 -11 0
5028 -5027 9 11 0
5028 -5027 -9 -11 0
-5028 10 -12 0
-5029 5028 0
-5029 -10 12 0
-5029 10 -12 0
5029 -5028 10 12 0
5029 -5028 -10 -12 0
-5029 11 -1 0
-5030 5029 0
-5030 -11 1 0
-5030 11 -1 0
5030 -5029 11 1 0
5030 -5029 -11 -1 0
-5030 12 -2 0
-5031 5030 0
-5031 -12 2 0
-5031 12 -2 0
5031 -5030 12 2 0
5031 -5030 -12 -2 0
-5031 145 -147 0
-5032 5031 0
-5032 -145 147 0
-5032 145 -147 0
5032 -5031 145 147 0
5032 -5031 -145 -147 0
-5032 146 -148 0
-5033 5032 0
-5033 -146 148 0
-5033 146 -148 0
5033 -5032 146 148 0
5033 -5032 -146 -148 0
-5033 147 -149 0
-5034 5033 0
-5034 -147 149 0
-5034 147 -149 0
5034 -5033 147 149 0
5034 -5033 -147 -149 0
-5034 148 -150 0
-5035 5034 0
-5035 -148 150 0
-5035 148 -150 0
5035 -5034 148 150 0
5035 -5034 -148 -150 0
-5035 149 -151 0
-5036 5035 0
-5036 -149 151 0
-5036 149 -151 0
5036 -5035 149 151 0
5036 -5035 -149 -151 0
-5036 150 -152 0
-5037 5036 0
-5037 -150 152 0
-5037 150 -152 0
5037 -5036 150 152 0
5037 -5036 -150 -152 0
-5037 151 -153 0
-5038 5037 0
-5038 -151 153 0
-5038 151 -153 0
5038 -5037 151 153 0
5038 -5037 -151 -153 0
-5038 152 -154 0
-5039 5038 0
-5039 -152 154 0
-5039 152 -154 0
5039 -5038 152 154 0
5039 -5038 -152 -154 0
-5039 153 -155 0
-5040 5039 0
-5040 -153 155 0
-5040 153 -155 0
5040 -5039 153 155 0
5040 -5039 -153 -155 0
-5040 154 -156 0
-5041 5040 0
-5041 -154 156 0
-5041 154 -156 0
5041 -5040 154 156 0
5041 -5040 -154 -156 0
-5041 155 -145 0
-5042 5041 0
-5042 -155 145 0
-5042 155 -145 0
5042 -5041 155 145 0
5042 -5041 -155 -145 0
-5042 156 -146 0
1 -4 0
-5043 -1 4 0
-5043 1 -4 0
5043 1 4 0
5043 -1 -4 0
-5043 2 -5 0
-5044 5043 0
-5044 -2 5 0
-5044 2 -5 0
5044 -5043 2 5 0
5044 -5043 -2 -5 0
-5044 3 -6 0
-5045 5044 0
-5045 -3 6 0
-5045 3 -6 0
5045 -5044 3 6 0
5045 -5044 -3 -6 0
-5045 4 -7 0
-5046 5045 0
-5046 -4 7 0
-5046 4 -7 0
5046 -5045 4 7 0
5046 -5045 -4 -7 0
-5046 5 -8 0
-5047 5046 0
-5047 -5 8 0
-5047 5 -8 0
5047 -5046 5 8 0
5047 -5046 -5 -8 0
-5047 6 -9 0
-5048 5047 0
-5048 -6 9 0
-5048 6 -9 0
5048 -5047 6 9 0
5048 -5047 -6 -9 0
-5048 7 -10 0
-5049 5048 0
-5049 -7 10 0
-5049 7 -10 0
5049 -5048 7 10 0
5049 -5048 -7 -10 0
-5049 8 -11 0
-5050 5049 0
-5050 -8 11 0
-5050 8 -11 0
5050 -5049 8 11 0
5050 -5049 -8 -11 0
-5050 9 -12 0
-5051 5050 0
-5051 -9 12 0
-5051 9 -12 0
5051 -5050 9 12 0
5051 -5050 -9 -12 0
-5051 10 -1 0
-5052 5051 0
-5052 -10 1 0
-5052 10 -1 0
5052 -5051 10 1 0
5052 -5051 -10 -1 0
-5052 11 -2 0
-5053 5052 0
-5053 -11 2 0
-5053 11 -2 0
5053 -5052 11 2 0
5053 -5052 -11 -2 0
-5053 12 -3 0
-5054 5053 0
-5054 -12 3 0
-5054 12 -3 0
5054 -5053 12 3 0
5054 -5053 -12 -3 0
-5054 145 -148 0
-5055 5054 0
-5055 -145 148 0
-5055 145 -148 0
5055 -5054 145 148 0
5055 -5054 -145 -148 0
-5055 146 -149 0
-5056 5055 0
-5056 -146 149 0
-5056 146 -149 0
5056 -5055 146 149 0
5056 -5055 -146 -149 0
-5056 147 -150 0
-5057 5056 0
-5057 -147 150 0
-5057 147 -150 0
5057 -5056 147 150 0
5057 -5056 -147 -150 0
-5057 148 -151 0
-5058 5057 0
-5058 -148 151 0
-5058 148 -151 0
5058 -5057 148 151 0
5058 -5057 -148 -151 0
-5058 149 -152 0
-5059 5058 0
-5059 -149 152 0
-5059 149 -152 0
5059 -5058 149 152 0
5059 -5058 -149 -152 0
-5059 150 -153 0
-5060 5059 0
-5060 -150 153 0
-5060 150 -153 0
5060 -5059 150 153 0
5060 -5059 -150 -153 0
-5060 151 -154 0
-5061 5060 0
-5061 -151 154 0
-5061 151 -154 0
5061 -5060 151 154 0
5061 -5060 -151 -154 0
-5061 152 -155 0
-5062 5061 0
-5062 -152 155 0
-5062 152 -155 0
5062 -5061 152 155 0
5062 -5061 -152 -155 0
-5062 153 -156 0
-5063 5062 0
-5063 -153 156 0
-5063 153 -156 0
5063 -5062 153 156 0
5063 -5062 -153 -156 0
-5063 154 -145 0
-5064 5063 0
-5064 -154 145 0
-5064 154 -145 0
5064 -5063 154 145 0
5064 -5063 -154 -145 0
-5064 155 -146 0
-5065 5064 0
-5065 -155 146 0
-5065 155 -146 0
5065 -5064 155 146 0
5065 -5064 -155 -146 0
-5065 156 -147 0
1 -5 0
-5066 -1 5 0
-5066 1 -5 0
5066 1 5 0
5066 -1 -5 0
-5066 2 -6 0
-5067 5066 0
-5067 -2 6 0
-5067 2 -6 0
5067 -5066 2 6 0
5067 -5066 -2 -6 0
-5067 3 -7 0
-5068 5067 0
-5068 -3 7 0
-5068 3 -7 0
5068 -5067 3 7 0
5068 -5067 -3 -7 0
-5068 4 -8 0
-5069 5068 0
-5069 -4 8 0
-5069 4 -8 0
5069 -5068 4 8 0
5069 -5068 -4 -8 0
-5069 5 -9 0
-5070 5069 0
-5070 -5 9 0
-5070 5 -9 0
5070 -5069 5 9 0
5070 -5069 -5 -9 0
-5070 6 -10 0
-5071 5070 0
-5071 -6 10 0
-5071 6 -10 0
5071 -5070 6 10 0
5071 -5070 -6 -10 0
-5071 7 -11 0
-5072 5071 0
-5072 -7 11 0
-5072 7 -11 0
5072 -5071 7 11 0
5072 -5071 -7 -11 0
-5072 8 -12 0
-5073 5072 0
-5073 -8 12 0
-5073 8 -12 0
5073 -5072 8 12 0
5073 -5072 -8 -12 0
-5073 9 -1 0
-5074 5073 0
-5074 -9 1 0
-5074 9 -1 0
5074 -5073 9 1 0
5074 -5073 -9 -1 0
-5074 10 -2 0
-5075 5074 0
-5075 -10 2 0
-5075 10 -2 0
5075 -5074 10 2 0
5075 -5074 -10 -2 0
-5075 11 -3 0
-5076 5075 0
-5076 -11 3 0
-5076 11 -3 0
5076 -5075 11 3 0
5076 -5075 -11 -3 0
-5076 12 -4 0
-5077 5076 0
-5077 -12 4 0
-5077 12 -4 0
5077 -5076 12 4 0
5077 -5076 -12 -4 0
-5077 145 -149 0
-5078 5077 0
-5078 -145 149 0
-5078 145 -149 0
5078 -5077 145 149 0
5078 -5077 -145 -149 0
-5078 146 -150 0
-5079 5078 0
-5079 -146 150 0
-5079 146 -150 0
5079 -5078 146 150 0
5079 -5078 -146 -150 0
-5079 147 -151 0
-5080 5079 0
-5080 -147 151 0
-5080 147 -151 0
5080 -5079 147 151 0
5080 -5079 -147 -151 0
-5080 148 -152 0
-5081 5080 0
-5081 -148 152 0
-5081 148 -152 0
5081 -5080 148 152 0
5081 -5080 -148 -152 0
-5081 149 -153 0
-5082 5081 0
-5082 -149 153 0
-5082 149 -153 0
5082 -5081 149 153 0
5082 -5081 -149 -153 0
-5082 150 -154 0
-5083 5082 0
-5083 -150 154 0
-5083 150 -154 0
5083 -5082 150 154 0
5083 -5082 -150 -154 0
-5083 151 -155 0
-5084 5083 0
-5084 -151 155 0
-5084 151 -155 0
5084 -5083 151 155 0
5084 -5083 -151 -155 0
-5084 152 -156 0
-5085 5084 0
-5085 -152 156 0
-5085 152 -156 0
5085 -5084 152 156 0
5085 -5084 -152 -156 0
-5085 153 -145 0
-5086 5085 0
-5086 -153 145 0
-5086 153 -145 0
5086 -5085 153 145 0
5086 -5085 -153 -145 0
-5086 154 -146 0
-5087 5086 0
-5087 -154 146 0
-5087 154 -146 0
5087 -5086 154 146 0
5087 -5086 -154 -146 0
-5087 155 -147 0
-5088 5087 0
-5088 -155 147 0
-5088 155 -147 0
5088 -5087 155 147 0
5088 -5087 -155 -147 0
-5088 156 -148 0
1 -6 0
-5089 -1 6 0
-5089 1 -6 0
5089 1 6 0
5089 -1 -6 0
-5089 2 -7 0
-5090 5089 0
-5090 -2 7 0
-5090 2 -7 0
5090 -5089 2 7 0
5090 -5089 -2 -7 0
-5090 3 -8 0
-5091 5090 0
-5091 -3 8 0
-5091 3 -8 0
5091 -5090 3 8 0
5091 -5090 -3 -8 0
-5091 4 -9 0
-5092 5091 0
-5092 -4 9 0
-5092 4 -9 0
5092 -5091 4 9 0
5092 -5091 -4 -9 0
-5092 5 -10 0
-5093 5092 0
-5093 -5 10 0
-5093 5 -10 0
5093 -5092 5 10 0
5093 -5092 -5 -10 0
-5093 6 -11 0
-5094 5093 0
-5094 -6 11 0
-5094 6 -11 0
5094 -5093 6 11 0
5094 -5093 -6 -11 0
-5094 7 -12 0
-5095 5094 0
-5095 -7 12 0
-5095 7 -12 0
5095 -5094 7 12 0
5095 -5094 -7 -12 0
-5095 8 -1 0
-5096 5095 0
-5096 -8 1 0
-5096 8 -1 0
5096 -5095 8 1 0
5096 -5095 -8 -1 0
-5096 9 -2 0
-5097 5096 0
-5097 -9 2 0
-5097 9 -2 0
5097 -5096 9 2 0
5097 -5096 -9 -2 0
-5097 10 -3 0
-5098 5097 0
-5098 -10 3 0
-5098 10 -3 0
5098 -5097 10 3 0
5098 -5097 -10 -3 0
-5098 11 -4 0
-5099 5098 0
-5099 -11 4 0
-5099 11 -4 0
5099 -5098 11 4 0
5099 -5098 -11 -4 0
-5099 12 -5 0
-5100 5099 0
-5100 -12 5 0
-5100 12 -5 0
5100 -5099 12 5 0
5100 -5099 -12 -5 0
-5100 145 -150 0
-5101 5100 0
-5101 -145 150 0
-5101 145 -150 0
5101 -5100 145 150 0
5101 -5100 -145 -150 0
-5101 146 -151 0
-5102 5101 0
-5102 -146 151 0
-5102 146 -151 0
5102 -5101 146 151 0
5102 -5101 -146 -151 0
-5102 147 -152 0
-5103 5102 0
-5103 -147 152 0
-5103 147 -152 0
5103 -5102 147 152 0
5103 -5102 -147 -152 0
-5103 148 -153 0
-5104 5103 0
-5104 -148 153 0
-5104 148 -153 0
5104 -5103 148 153 0
5104 -5103 -148 -153 0
-5104 149 -154 0
-5105 5104 0
-5105 -149 154 0
-5105 149 -154 0
5105 -5104 149 154 0
5105 -5104 -149 -154 0
-5105 150 -155 0
-5106 5105 0
-5106 -150 155 0
-5106 150 -155 0
5106 -5105 150 155 0
5106 -5105 -150 -155 0
-5106 151 -156 0
-5107 5106 0
-5107 -151 156 0
-5107 151 -156 0
5107 -5106 151 156 0
5107 -5106 -151 -156 0
-5107 152 -145 0
-5108 5107 0
-5108 -152 145 0
-5108 152 -145 0
5108 -5107 152 145 0
5108 -5107 -152 -145 0
-5108 153 -146 0
-5109 5108 0
-5109 -153 146 0
-5109 153 -146 0
5109 -5108 153 146 0
5109 -5108 -153 -146 0
-5109 154 -147 0
-5110 5109 0
-5110 -154 147 0
-5110 154 -147 0
5110 -5109 154 147 0
5110 -5109 -154 -147 0
-5110 155 -148 0
-5111 5110 0
-5111 -155 148 0
-5111 155 -148 0
5111 -5110 155 148 0
5111 -5110 -155 -148 0
-5111 156 -149 0
1 -7 0
-5112 -1 7 0
-5112 1 -7 0
5112 1 7 0
5112 -1 -7 0
-5112 2 -8 0
-5113 5112 0
-5113 -2 8 0
-5113 2 -8 0
5113 -5112 2 8 0
5113 -5112 -2 -8 0
-5113 3 -9 0
-5114 5113 0
-5114 -3 9 0
-5114 3 -9 0
5114 -5113 3 9 0
5114 -5113 -3 -9 0
-5114 4 -10 0
-5115 5114 0
-5115 -4 10 0
-5115 4 -10 0
5115 -5114 4 10 0
5115 -5114 -4 -10 0
-5115 5 -11 0
-5116 5115 0
-5116 -5 11 0
-5116 5 -11 0
5116 -5115 5 11 0
5116 -5115 -5 -11 0
-5116 6 -12 0
-5117 5116 0
-5117 -6 12 0
-5117 6 -12 0
5117 -5116 6 12 0
5117 -5116 -6 -12 0
-5117 7 -1 0
-5118 5117 0
-5118 -7 1 0
-5118 7 -1 0
5118 -5117 7 1 0
5118 -5117 -7 -1 0
-5118 8 -2 0
-5119 5118 0
-5119 -8 2 0
-5119 8 -2 0
5119 -5118 8 2 0
5119 -5118 -8 -2 0
-5119 9 -3 0
-5120 5119 0
-5120 -9 3 0
-5120 9 -3 0
5120 -5119 9 3 0
5120 -5119 -9 -3 0
-5120 10 -4 0
-5121 5120 0
-5121 -10 4 0
-5121 10 -4 0
5121 -5120 10 4 0
5121 -5120 -10 -4 0
-5121 11 -5 0
-5122 5121 0
-5122 -11 5 0
-5122 11 -5 0
5122 -5121 11 5 0
5122 -5121 -11 -5 0
-5122 12 -6 0
-5123 5122 0
-5123 -12 6 0
-5123 12 -6 0
5123 -5122 12 6 0
5123 -5122 -12 -6 0
-5123 145 -151 0
-5124 5123 0
-5124 -145 151 0
-5124 145 -151 0
5124 -5123 145 151 0
5124 -5123 -145 -151 0
-5124 146 -152 0
-5125 5124 0
-5125 -146 152 0
-5125 146 -152 0
5125 -5124 146 152 0
5125 -5124 -146 -152 0
-5125 147 -153 0
-5126 5125 0
-5126 -147 153 0
-5126 147 -153 0
5126 -5125 147 153 0
5126 -5125 -147 -153 0
-5126 148 -154 0
-5127 5126 0
-5127 -148 154 0
-5127 148 -154 0
5127 -5126 148 154 0
5127 -5126 -148 -154 0
-5127 149 -155 0
-5128 5127 0
-5128 -149 155 0
-5128 149 -155 0
5128 -5127 149 155 0
5128 -5127 -149 -155 0
-5128 150 -156 0
-5129 5128 0
-5129 -150 156 0
-5129 150 -156 0
5129 -5128 150 156 0
5129 -5128 -150 -156 0
-5129 151 -145 0
-5130 5129 0
-5130 -151 145 0
-5130 151 -145 0
5130 -5129 151 145 0
5130 -5129 -151 -145 0
-5130 152 -146 0
-5131 5130 0
-5131 -152 146 0
-5131 152 -146 0
5131 -5130 152 146 0
5131 -5130 -152 -146 0
-5131 153 -147 0
-5132 5131 0
-5132 -153 147 0
-5132 153 -147 0
5132 -5131 153 147 0
5132 -5131 -153 -147 0
-5132 154 -148 0
-5133 5132 0
-5133 -154 148 0
-5133 154 -148 0
5133 -5132 154 148 0
5133 -5132 -154 -148 0
-5133 155 -149 0
-5134 5133 0
-5134 -155 149 0
-5134 155 -149 0
5134 -5133 155 149 0
5134 -5133 -155 -149 0
-5134 156 -150 0
1 -8 0
-5135 -1 8 0
-5135 1 -8 0
5135 1 8 0
5135 -1 -8 0
-5135 2 -9 0
-5136 5135 0
-5136 -2 9 0
-5136 2 -9 0
5136 -5135 2 9 0
5136 -5135 -2 -9 0
-5136 3 -10 0
-5137 5136 0
-5137 -3 10 0
-5137 3 -10 0
5137 -5136 3 10 0
5137 -5136 -3 -10 0
-5137 4 -11 0
-5138 5137 0
-5138 -4 11 0
-5138 4 -11 0
5138 -5137 4 11 0
5138 -5137 -4 -11 0
-5138 5 -12 0
-5139 5138 0
-5139 -5 12 0
-5139 5 -12 0
5139 -5138 5 12 0
5139 -5138 -5 -12 0
-5139 6 -1 0
-5140 5139 0
-5140 -6 1 0
-5140 6 -1 0
5140 -5139 6 1 0
5140 -5139 -6 -1 0
-5140 7 -2 0
-5141 5140 0
-5141 -7 2 0
-5141 7 -2 0
5141 -5140 7 2 0
5141 -5140 -7 -2 0
-5141 8 -3 0
-5142 5141 0
-5142 -8 3 0
-5142 8 -3 0
5142 -5141 8 3 0
5142 -5141 -8 -3 0
-5142 9 -4 0
-5143 5142 0
-5143 -9 4 0
-5143 9 -4 0
5143 -5142 9 4 0
5143 -5142 -9 -4 0
-5143 10 -5 0
-5144 5143 0
-5144 -10 5 0
-5144 10 -5 0
5144 -5143 10 5 0
5144 -5143 -10 -5 0
-5144 11 -6 0
-5145 5144 0
-5145 -11 6 0
-5145 11 -6 0
5145 -5144 11 6 0
5145 -5144 -11 -6 0
-5145 12 -7 0
-5146 5145 0
-5146 -12 7 0
-5146 12 -7 0
5146 -5145 12 7 0
5146 -5145 -12 -7 0
-5146 145 -152 0
-5147 5146 0
-5147 -145 152 0
-5147 145 -152 0
5147 -5146 145 152 0
5147 -5146 -145 -152 0
-5147 146 -153 0
-5148 5147 0
-5148 -146 153 0
-5148 146 -153 0
5148 -5147 146 153 0
5148 -5147 -146 -153 0
-5148 147 -154 0
-5149 5148 0
-5149 -147 154 0
-5149 147 -154 0
5149 -5148 147 154 0
5149 -5148 -147 -154 0
-5149 148 -155 0
-5150 5149 0
-5150 -148 155 0
-5150 148 -155 0
5150 -5149 148 155 0
5150 -5149 -148 -155 0
-5150 149 -156 0
-5151 5150 0
-5151 -149 156 0
-5151 149 -156 0
5151 -5150 149 156 0
5151 -5150 -149 -156 0
-5151 150 -145 0
-5152 5151 0
-5152 -150 145 0
-5152 150 -145 0
5152 -5151 150 145 0
5152 -5151 -150 -145 0
-5152 151 -146 0
-5153 5152 0
-5153 -151 146 0
-5153 151 -146 0
5153 -5152 151 146 0
5153 -5152 -151 -146 0
-5153 152 -147 0
-5154 5153 0
-5154 -152 147 0
-5154 152 -147 0
5154 -5153 152 147 0
5154 -5153 -152 -147 0
-5154 153 -148 0
-5155 5154 0
-5155 -153 148 0
-5155 153 -148 0
5155 -5154 153 148 0
5155 -5154 -153 -148 0
-5155 154 -149 0
-5156 5155 0
-5156 -154 149 0
-5156 154 -149 0
5156 -5155 154 149 0
5156 -5155 -154 -149 0
-5156 155 -150 0
-5157 5156 0
-5157 -155 150 0
-5157 155 -150 0
5157 -5156 155 150 0
5157 -5156 -155 -150 0
-5157 156 -151 0
1 -9 0
-5158 -1 9 0
-5158 1 -9 0
5158 1 9 0
5158 -1 -9 0
-5158 2 -10 0
-5159 5158 0
-5159 -2 10 0
-5159 2 -10 0
5159 -5158 2 10 0
5159 -5158 -2 -10 0
-5159 3 -11 0
-5160 5159 0
-5160 -3 11 0
-5160 3 -11 0
5160 -5159 3 11 0
5160 -5159 -3 -11 0
-5160 4 -12 0
-5161 5160 0
-5161 -4 12 0
-5161 4 -12 0
5161 -5160 4 12 0
5161 -5160 -4 -12 0
-5161 5 -1 0
-5162 5161 0
-5162 -5 1 0
-5162 5 -1 0
5162 -5161 5 1 0
5162 -5161 -5 -1 0
-5162 6 -2 0
-5163 5162 0
-5163 -6 2 0
-5163 6 -2 0
5163 -5162 6 2 0
5163 -5162 -6 -2 0
-5163 7 -3 0
-5164 5163 0
-5164 -7 3 0
-5164 7 -3 0
5164 -5163 7 3 0
5164 -5163 -7 -3 0
-5164 8 -4 0
-5165 5164 0
-5165 -8 4 0
-5165 8 -4 0
5165 -5164 8 4 0
5165 -5164 -8 -4 0
-5165 9 -5 0
-5166 5165 0
-5166 -9 5 0
-5166 9 -5 0
5166 -5165 9 5 0
5166 -5165 -9 -5 0
-5166 10 -6 0
-5167 5166 0
-5167 -10 6 0
-5167 10 -6 0
5167 -5166 10 6 0
5167 -5166 -10 -6 0
-5167 11 -7 0
-5168 5167 0
-5168 -11 7 0
-5168 11 -7 0
5168 -5167 11 7 0
5168 -5167 -11 -7 0
-5168 12 -8 0
-5169 5168 0
-5169 -12 8 0
-5169 12 -8 0
5169 -5168 12 8 0
5169 -5168 -12 -8 0
-5169 145 -153 0
-5170 5169 0
-5170 -145 153 0
-5170 145 -153 0
5170 -5169 145 153 0
5170 -5169 -145 -153 0
-5170 146 -154 0
-5171 5170 0
-5171 -146 154 0
-5171 146 -154 0
5171 -5170 146 154 0
5171 -5170 -146 -154 0
-5171 147 -155 0
-5172 5171 0
-5172 -147 155 0
-5172 147 -155 0
5172 -5171 147 155 0
5172 -5171 -147 -155 0
-5172 148 -156 0
-5173 5172 0
-5173 -148 156 0
-5173 148 -156 0
5173 -5172 148 156 0
5173 -5172 -148 -156 0
-5173 149 -145 0
-5174 5173 0
-5174 -149 145 0
-5174 149 -145 0
5174 -5173 149 145 0
5174 -5173 -149 -145 0
-5174 150 -146 0
-5175 5174 0
-5175 -150 146 0
-5175 150 -146 0
5175 -5174 150 146 0
5175 -5174 -150 -146 0
-5175 151 -147 0
-5176 5175 0
-5176 -151 147 0
-5176 151 -147 0
5176 -5175 151 147 0
5176 -5175 -151 -147 0
-5176 152 -148 0
-5177 5176 0
-5177 -152 148 0
-5177 152 -148 0
5177 -5176 152 148 0
5177 -5176 -152 -148 0
-5177 153 -149 0
-5178 5177 0
-5178 -153 149 0
-5178 153 -149 0
5178 -5177 153 149 0
5178 -5177 -153 -149 0
-5178 154 -150 0
-5179 5178 0
-5179 -154 150 0
-5179 154 -150 0
5179 -5178 154 150 0
5179 -5178 -154 -150 0
-5179 155 -151 0
-5180 5179 0
-5180 -155 151 0
-5180 155 -151 0
5180 -5179 155 151 0
5180 -5179 -155 -151 0
-5180 156 -152 0
1 -10 0
-5181 -1 10 0
-5181 1 -10 0
5181 1 10 0
5181 -1 -10 0
-5181 2 -11 0
-5182 5181 0
-5182 -2 11 0
-5182 2 -11 0
5182 -5181 2 11 0
5182 -5181 -2 -11 0
-5182 3 -12 0
-5183 5182 0
-5183 -3 12 0
-5183 3 -12 0
5183 -5182 3 12 0
5183 -5182 -3 -12 0
-5183 4 -1 0
-5184 5183 0
-5184 -4 1 0
-5184 4 -1 0
5184 -5183 4 1 0
5184 -5183 -4 -1 0
-5184 5 -2 0
-5185 5184 0
-5185 -5 2 0
-5185 5 -2 0
5185 -5184 5 2 0
5185 -5184 -5 -2 0
-5185 6 -3 0
-5186 5185 0
-5186 -6 3 0
-5186 6 -3 0
5186 -5185 6 3 0
5186 -5185 -6 -3 0
-5186 7 -4 0
-5187 5186 0
-5187 -7 4 0
-5187 7 -4 0
5187 -5186 7 4 0
5187 -5186 -7 -4 0
-5187 8 -5 0
-5188 5187 0
-5188 -8 5 0
-5188 8 -5 0
5188 -5187 8 5 0
5188 -5187 -8 -5 0
-5188 9 -6 0
-5189 5188 0
-5189 -9 6 0
-5189 9 -6 0
5189 -5188 9 6 0
5189 -5188 -9 -6 0
-5189 10 -7 0
-5190 5189 0
-5190 -10 7 0
-5190 10 -7 0
5190 -5189 10 7 0
5190 -5189 -10 -7 0
-5190 11 -8 0
-5191 5190 0
-5191 -11 8 0
-5191 11 -8 0
5191 -5190 11 8 0
5191 -5190 -11 -8 0
-5191 12 -9 0
-5192 5191 0
-5192 -12 9 0
-5192 12 -9 0
5192 -5191 12 9 0
5192 -5191 -12 -9 0
-5192 145 -154 0
-5193 5192 0
-5193 -145 154 0
-5193 145 -154 0
5193 -5192 145 154 0
5193 -5192 -145 -154 0
-5193 146 -155 0
-5194 5193 0
-5194 -146 155 0
-5194 146 -155 0
5194 -5193 146 155 0
5194 -5193 -146 -155 0
-5194 147 -156 0
-5195 5194 0
-5195 -147 156 0
-5195 147 -156 0
5195 -5194 147 156 0
5195 -5194 -147 -156 0
-5195 148 -145 0
-5196 5195 0
-5196 -148 145 0
-5196 148 -145 0
5196 -5195 148 145 0
5196 -5195 -148 -145 0
-5196 149 -146 0
-5197 5196 0
-5197 -149 146 0
-5197 149 -146 0
5197 -5196 149 146 0
5197 -5196 -149 -146 0
-5197 150 -147 0
-5198 5197 0
-5198 -150 147 0
-5198 150 -147 0
5198 -5197 150 147 0
5198 -5197 -150 -147 0
-5198 151 -148 0
-5199 5198 0
-5199 -151 148 0
-5199 151 -148 0
5199 -5198 151 148 0
5199 -5198 -151 -148 0
-5199 152 -149 0
-5200 5199 0
-5200 -152 149 0
-5200 152 -149 0
5200 -5199 152 149 0
5200 -5199 -152 -149 0
-5200 153 -150 0
-5201 5200 0
-5201 -153 150 0
-5201 153 -150 0
5201 -5200 153 150 0
5201 -5200 -153 -150 0
-5201 154 -151 0
-5202 5201 0
-5202 -154 151 0
-5202 154 -151 0
5202 -5201 154 151 0
5202 -5201 -154 -151 0
-5202 155 -152 0
-5203 5202 0
-5203 -155 152 0
-5203 155 -152 0
5203 -5202 155 152 0
5203 -5202 -155 -152 0
-5203 156 -153 0
1 -11 0
-5204 -1 11 0
-5204 1 -11 0
5204 1 11 0
5204 -1 -11 0
-5204 2 -12 0
-5205 5204 0
-5205 -2 12 0
-5205 2 -12 0
5205 -5204 2 12 0
5205 -5204 -2 -12 0
-5205 3 -1 0
-5206 5205 0
-5206 -3 1 0
-5206 3 -1 0
5206 -5205 3 1 0
5206 -5205 -3 -1 0
-5206 4 -2 0
-5207 5206 0
-5207 -4 2 0
-5207 4 -2 0
5207 -5206 4 2 0
5207 -5206 -4 -2 0
-5207 5 -3 0
-5208 5207 0
-5208 -5 3 0
-5208 5 -3 0
5208 -5207 5 3 0
5208 -5207 -5 -3 0
-5208 6 -4 0
-5209 5208 0
-5209 -6 4 0
-5209 6 -4 0
5209 -5208 6 4 0
5209 -5208 -6 -4 0
-5209 7 -5 0
-5210 5209 0
-5210 -7 5 0
-5210 7 -5 0
5210 -5209 7 5 0
5210 -5209 -7 -5 0
-5210 8 -6 0
-5211 5210 0
-5211 -8 6 0
-5211 8 -6 0
5211 -5210 8 6 0
5211 -5210 -8 -6 0
-5211 9 -7 0
-5212 5211 0
-5212 -9 7 0
-5212 9 -7 0
5212 -5211 9 7 0
5212 -5211 -9 -7 0
-5212 10 -8 0
-5213 5212 0
-5213 -10 8 0
-5213 10 -8 0
5213 -5212 10 8 0
5213 -5212 -10 -8 0
-5213 11 -9 0
-5214 5213 0
-5214 -11 9 0
-5214 11 -9 0
5214 -5213 11 9 0
5214 -5213 -11 -9 0
-5214 12 -10 0
-5215 5214 0
-5215 -12 10 0
-5215 12 -10 0
5215 -5214 12 10 0
5215 -5214 -12 -10 0
-5215 145 -155 0
-5216 5215 0
-5216 -145 155 0
-5216 145 -155 0
5216 -5215 145 155 0
5216 -5215 -145 -155 0
-5216 146 -156 0
-5217 5216 0
-5217 -146 156 0
-5217 146 -156 0
5217 -5216 146 156 0
5217 -5216 -146 -156 0
-5217 147 -145 0
-5218 5217 0
-5218 -147 145 0
-5218 147 -145 0
5218 -5217 147 145 0
5218 -5217 -147 -145 0
-5218 148 -146 0
-5219 5218 0
-5219 -148 146 0
-5219 148 -146 0
5219 -5218 148 146 0
5219 -5218 -148 -146 0
-5219 149 -147 0
-5220 5219 0
-5220 -149 147 0
-5220 149 -147 0
5220 -5219 149 147 0
5220 -5219 -149 -147 0
-5220 150 -148 0
-5221 5220 0
-5221 -150 148 0
-5221 150 -148 0
5221 -5220 150 148 0
5221 -5220 -150 -148 0
-5221 151 -149 0
-5222 5221 0
-5222 -151 149 0
-5222 151 -149 0
5222 -5221 151 149 0
5222 -5221 -151 -149 0
-5222 152 -150 0
-5223 5222 0
-5223 -152 150 0
-5223 152 -150 0
5223 -5222 152 150 0
5223 -5222 -152 -150 0
-5223 153 -151 0
-5224 5223 0
-5224 -153 151 0
-5224 153 -151 0
5224 -5223 153 151 0
5224 -5223 -153 -151 0
-5224 154 -152 0
-5225 5224 0
-5225 -154 152 0
-5225 154 -152 0
5225 -5224 154 152 0
5225 -5224 -154 -152 0
-5225 155 -153 0
-5226 5225 0
-5226 -155 153 0
-5226 155 -153 0
5226 -5225 155 153 0
5226 -5225 -155 -153 0
-5226 156 -154 0
1 -12 0
-5227 -1 12 0
-5227 1 -12 0
5227 1 12 0
5227 -1 -12 0
-5227 2 -1 0
-5228 5227 0
-5228 -2 1 0
-5228 2 -1 0
5228 -5227 2 1 0
5228 -5227 -2 -1 0
-5228 3 -2 0
-5229 5228 0
-5229 -3 2 0
-5229 3 -2 0
5229 -5228 3 2 0
5229 -5228 -3 -2 0
-5229 4 -3 0
-5230 5229 0
-5230 -4 3 0
-5230 4 -3 0
5230 -5229 4 3 0
5230 -5229 -4 -3 0
-5230 5 -4 0
-5231 5230 0
-5231 -5 4 0
-5231 5 -4 0
5231 -5230 5 4 0
5231 -5230 -5 -4 0
-5231 6 -5 0
-5232 5231 0
-5232 -6 5 0
-5232 6 -5 0
5232 -5231 6 5 0
5232 -5231 -6 -5 0
-5232 7 -6 0
-5233 5232 0
-5233 -7 6 0
-5233 7 -6 0
5233 -5232 7 6 0
5233 -5232 -7 -6 0
-5233 8 -7 0
-5234 5233 0
-5234 -8 7 0
-5234 8 -7 0
5234 -5233 8 7 0
5234 -5233 -8 -7 0
-5234 9 -8 0
-5235 5234 0
-5235 -9 8 0
-5235 9 -8 0
5235 -5234 9 8 0
5235 -5234 -9 -8 0
-5235 10 -9 0
-5236 5235 0
-5236 -10 9 0
-5236 10 -9 0
5236 -5235 10 9 0
5236 -5235 -10 -9 0
-5236 11 -10 0
-5237 5236 0
-5237 -11 10 0
-5237 11 -10 0
5237 -5236 11 10 0
5237 -5236 -11 -10 0
-5237 12 -11 0
-5238 5237 0
-5238 -12 11 0
-5238 12 -11 0
5238 -5237 12 11 0
5238 -5237 -12 -11 0
-5238 145 -156 0
-5239 5238 0
-5239 -145 156 0
-5239 145 -156 0
5239 -5238 145 156 0
5239 -5238 -145 -156 0
-5239 146 -145 0
-5240 5239 0
-5240 -146 145 0
-5240 146 -145 0
5240 -5239 146 145 0
5240 -5239 -146 -145 0
-5240 147 -146 0
-5241 5240 0
-5241 -147 146 0
-5241 147 -146 0
5241 -5240 147 146 0
5241 -5240 -147 -146 0
-5241 148 -147 0
-5242 5241 0
-5242 -148 147 0
-5242 148 -147 0
5242 -5241 148 147 0
5242 -5241 -148 -147 0
-5242 149 -148 0
-5243 5242 0
-5243 -149 148 0
-5243 149 -148 0
5243 -5242 149 148 0
5243 -5242 -149 -148 0
-5243 150 -149 0
-5244 5243 0
-5244 -150 149 0
-5244 150 -149 0
5244 -5243 150 149 0
5244 -5243 -150 -149 0
-5244 151 -150 0
-5245 5244 0
-5245 -151 150 0
-5245 151 -150 0
5245 -5244 151 150 0
5245 -5244 -151 -150 0
-5245 152 -151 0
-5246 5245 0
-5246 -152 151 0
-5246 152 -151 0
5246 -5245 152 151 0
5246 -5245 -152 -151 0
-5246 153 -152 0
-5247 5246 0
-5247 -153 152 0
-5247 153 -152 0
5247 -5246 153 152 0
5247 -5246 -153 -152 0
-5247 154 -153 0
-5248 5247 0
-5248 -154 153 0
-5248 154 -153 0
5248 -5247 154 153 0
5248 -5247 -154 -153 0
-5248 155 -154 0
-5249 5248 0
-5249 -155 154 0
-5249 155 -154 0
5249 -5248 155 154 0
5249 -5248 -155 -154 0
-5249 156 -155 0
-1642 1537 0
-1643 1538 0
-1644 1539 0
-1645 1540 0
-1646 1541 0
-1647 1542 0
-1648 1543 0
-1649 1544 0
-1650 1545 0
-1651 1546 0
-1652 1547 0
-1653 1548 0
-1654 1549 0
-1655 1550 0
-1656 1551 0
-1657 1552 0
-1658 1553 0
-1747 1537 0
-1748 1538 0
-1749 1539 0
-1750 1540 0
-1751 1541 0
-1752 1542 0
-1753 1543 0
-1754 1544 0
-1755 1545 0
-1756 1546 0
-1757 1547 0
-1758 1548 0
-1759 1549 0
-1760 1550 0
-1761 1551 0
-1762 1552 0
-1763 1553 0
-1852 1537 0
-1853 1538 0
-1854 1539 0
-1855 1540 0
-1856 1541 0
-1857 1542 0
-1858 1543 0
-1859 1544 0
-1860 1545 0
-1861 1546 0
-1862 1547 0
-1863 1548 0
-1864 1549 0
-1865 1550 0
-1866 1551 0
-1867 1552 0
-1868 1553 0
-1957 1537 0
-1958 1538 0
-1959 1539 0
-1960 1540 0
-1961 1541 0
-1962 1542 0
-1963 1543 0
-1964 1544 0
-1965 1545 0
-1966 1546 0
-1967 1547 0
-1968 1548 0
-1969 1549 0
-1970 1550 0
-1971 1551 0
-1972 1552 0
-1973 1553 0
-2062 1537 0
-2063 1538 0
-2064 1539 0
-2065 1540 0
-2066 1541 0
-2067 1542 0
-2068 1543 0
-2069 1544 0
-2070 1545 0
-2071 1546 0
-2072 1547 0
-2073 1548 0
-2074 1549 0
-2075 1550 0
-2076 1551 0
-2077 1552 0
-2078 1553 0
-2167 1537 0
-2168 1538 0
-2169 1539 0
-2170 1540 0
-2171 1541 0
-2172 1542 0
-2173 1543 0
-2174 1544 0
-2175 1545 0
-2176 1546 0
-2177 1547 0
-2178 1548 0
-2179 1549 0
-2180 1550 0
-2181 1551 0
-2182 1552 0
-2183 1553 0
-2272 1537 0
-2273 1538 0
-2274 1539 0
-2275 1540 0
-2276 1541 0
-2277 1542 0
-2278 1543 0
-2279 1544 0
-2280 1545 0
-2281 1546 0
-2282 1547 0
-2283 1548 0
-2284 1549 0
-2285 1550 0
-2286 1551 0
-2287 1552 0
-2288 1553 0
-2377 1537 0
-2378 1538 0
-2379 1539 0
-2380 1540 0
-2381 1541 0
-2382 1542 0
-2383 1543 0
-2384 1544 0
-2385 1545 0
-2386 1546 0
-2387 1547 0
-2388 1548 0
-2389 1549 0
-2390 1550 0
-2391 1551 0
-2392 1552 0
-2393 1553 0
-2482 1537 0
-2483 1538 0
-2484 1539 0
-2485 1540 0
-2486 1541 0
-2487 1542 0
-2488 1543 0
-2489 1544 0
-2490 1545 0
-2491 1546 0
-2492 1547 0
-2493 1548 0
-2494 1549 0
-2495 1550 0
-2496 1551 0
-2497 1552 0
-2498 1553 0
-2587 1537 0
-2588 1538 0
-2589 1539 0
-2590 1540 0
-2591 1541 0
-2592 1542 0
-2593 1543 0
-2594 1544 0
-2595 1545 0
-2596 1546 0
-2597 1547 0
-2598 1548 0
-2599 1549 0
-2600 1550 0
-2601 1551 0
-2602 1552 0
-2603 1553 0
-2692 1537 0
-2693 1538 0
-2694 1539 0
-2695 1540 0
-2696 1541 0
-2697 1542 0
-2698 1543 0
-2699 1544 0
-2700 1545 0
-2701 1546 0
-2702 1547 0
-2703 1548 0
-2704 1549 0
-2705 1550 0
-2706 1551 0
-2707 1552 0
-2708 1553 0
1537 -2890 0
