p cnf 4605 11376
-289 10 121 0
-289 -10 -121 0
289 -10 121 0
289 10 -121 0
-290 289 133 0
-290 -289 -133 0
290 -289 133 0
290 289 -133 0
-291 290 150 0
-291 -290 -150 0
291 -290 150 0
291 290 -150 0
-292 291 155 0
-292 -291 -155 0
292 -291 155 0
292 291 -155 0
-293 292 253 0
-293 -292 -253 0
293 -292 253 0
293 292 -253 0
-293 0
-294 11 122 0
-294 -11 -122 0
294 -11 122 0
294 11 -122 0
-295 294 134 0
-295 -294 -134 0
295 -294 134 0
295 294 -134 0
-296 295 151 0
-296 -295 -151 0
296 -295 151 0
296 295 -151 0
-297 296 156 0
-297 -296 -156 0
297 -296 156 0
297 296 -156 0
-298 297 254 0
-298 -297 -254 0
298 -297 254 0
298 297 -254 0
-298 0
-299 12 123 0
-299 -12 -123 0
299 -12 123 0
299 12 -123 0
-300 299 135 0
-300 -299 -135 0
300 -299 135 0
300 299 -135 0
-301 300 145 0
-301 -300 -145 0
301 -300 145 0
301 300 -145 0
-302 301 152 0
-302 -301 -152 0
302 -301 152 0
302 301 -152 0
-303 302 255 0
-303 -302 -255 0
303 -302 255 0
303 302 -255 0
-303 0
-304 1 124 0
-304 -1 -124 0
304 -1 124 0
304 1 -124 0
-305 304 136 0
-305 -304 -136 0
305 -304 136 0
305 304 -136 0
-306 305 146 0
-306 -305 -146 0
306 -305 146 0
306 305 -146 0
-307 306 153 0
-307 -306 -153 0
307 -306 153 0
307 306 -153 0
-308 307 256 0
-308 -307 -256 0
308 -307 256 0
308 307 -256 0
-308 0
-309 2 125 0
-309 -2 -125 0
309 -2 125 0
309 2 -125 0
-310 309 137 0
-310 -309 -137 0
310 -309 137 0
310 309 -137 0
-311 310 147 0
-311 -310 -147 0
311 -310 147 0
311 310 -147 0
-312 311 154 0
-312 -311 -154 0
312 -311 154 0
312 311 -154 0
-313 312 257 0
-313 -312 -257 0
313 -312 257 0
313 312 -257 0
-313 0
-314 3 126 0
-314 -3 -126 0
314 -3 126 0
314 3 -126 0
-315 314 138 0
-315 -314 -138 0
315 -314 138 0
315 314 -138 0
-316 315 148 0
-316 -315 -148 0
316 -315 148 0
316 315 -148 0
-317 316 155 0
-317 -316 -155 0
317 -316 155 0
317 316 -155 0
-318 317 258 0
-318 -317 -258 0
318 -317 258 0
318 317 -258 0
-318 0
-319 4 127 0
-319 -4 -127 0
319 -4 127 0
319 4 -127 0
-320 319 139 0
-320 -319 -139 0
320 -319 139 0
320 319 -139 0
-321 320 149 0
-321 -320 -149 0
321 -320 149 0
321 320 -149 0
-322 321 156 0
-322 -321 -156 0
322 -321 156 0
322 321 -156 0
-323 322 259 0
-323 -322 -259 0
323 -322 259 0
323 322 -259 0
-323 0
-324 5 128 0
-324 -5 -128 0
324 -5 128 0
324 5 -128 0
-325 324 140 0
-325 -324 -140 0
325 -324 140 0
325 324 -140 0
-326 325 145 0
-326 -325 -145 0
326 -325 145 0
326 325 -145 0
-327 326 150 0
-327 -326 -150 0
327 -326 150 0
327 326 -150 0
-328 327 260 0
-328 -327 -260 0
328 -327 260 0
328 327 -260 0
-328 0
-329 6 129 0
-329 -6 -129 0
329 -6 129 0
329 6 -129 0
-330 329 141 0
-330 -329 -141 0
330 -329 141 0
330 329 -141 0
-331 330 146 0
-331 -330 -146 0
331 -330 146 0
331 330 -146 0
-332 331 151 0
-332 -331 -151 0
332 -331 151 0
332 331 -151 0
-333 332 261 0
-333 -332 -261 0
333 -332 261 0
333 332 -261 0
-333 0
-334 7 130 0
-334 -7 -130 0
334 -7 130 0
334 7 -130 0
-335 334 142 0
-335 -334 -142 0
335 -334 142 0
335 334 -142 0
-336 335 147 0
-336 -335 -147 0
336 -335 147 0
336 335 -147 0
-337 336 152 0
-337 -336 -152 0
337 -336 152 0
337 336 -152 0
-338 337 262 0
-338 -337 -262 0
338 -337 262 0
338 337 -262 0
-338 0
-339 8 131 0
-339 -8 -131 0
339 -8 131 0
339 8 -131 0
-340 339 143 0
-340 -339 -143 0
340 -339 143 0
340 339 -143 0
-341 340 148 0
-341 -340 -148 0
341 -340 148 0
341 340 -148 0
-342 341 153 0
-342 -341 -153 0
342 -341 153 0
342 341 -153 0
-343 342 263 0
-343 -342 -263 0
343 -342 263 0
343 342 -263 0
-343 0
-344 9 132 0
-344 -9 -132 0
344 -9 132 0
344 9 -132 0
-345 344 144 0
-345 -344 -144 0
345 -344 144 0
345 344 -144 0
-346 345 149 0
-346 -345 -149 0
346 -345 149 0
346 345 -149 0
-347 346 154 0
-347 -346 -154 0
347 -346 154 0
347 346 -154 0
-348 347 264 0
-348 -347 -264 0
348 -347 264 0
348 347 -264 0
-348 0
-349 1 22 0
-349 -1 -22 0
349 -1 22 0
349 1 -22 0
-350 349 133 0
-350 -349 -133 0
350 -349 133 0
350 349 -133 0
-351 350 162 0
-351 -350 -162 0
351 -350 162 0
351 350 -162 0
-352 351 167 0
-352 -351 -167 0
352 -351 167 0
352 351 -167 0
-353 352 265 0
-353 -352 -265 0
353 -352 265 0
353 352 -265 0
-353 0
-354 2 23 0
-354 -2 -23 0
354 -2 23 0
354 2 -23 0
-355 354 134 0
-355 -354 -134 0
355 -354 134 0
355 354 -134 0
-356 355 163 0
-356 -355 -163 0
356 -355 163 0
356 355 -163 0
-357 356 168 0
-357 -356 -168 0
357 -356 168 0
357 356 -168 0
-358 357 266 0
-358 -357 -266 0
358 -357 266 0
358 357 -266 0
-358 0
-359 3 24 0
-359 -3 -24 0
359 -3 24 0
359 3 -24 0
-360 359 135 0
-360 -359 -135 0
360 -359 135 0
360 359 -135 0
-361 360 157 0
-361 -360 -157 0
361 -360 157 0
361 360 -157 0
-362 361 164 0
-362 -361 -164 0
362 -361 164 0
362 361 -164 0
-363 362 267 0
-363 -362 -267 0
363 -362 267 0
363 362 -267 0
-363 0
-364 4 13 0
-364 -4 -13 0
364 -4 13 0
364 4 -13 0
-365 364 136 0
-365 -364 -136 0
365 -364 136 0
365 364 -136 0
-366 365 158 0
-366 -365 -158 0
366 -365 158 0
366 365 -158 0
-367 366 165 0
-367 -366 -165 0
367 -366 165 0
367 366 -165 0
-368 367 268 0
-368 -367 -268 0
368 -367 268 0
368 367 -268 0
-368 0
-369 5 14 0
-369 -5 -14 0
369 -5 14 0
369 5 -14 0
-370 369 137 0
-370 -369 -137 0
370 -369 137 0
370 369 -137 0
-371 370 159 0
-371 -370 -159 0
371 -370 159 0
371 370 -159 0
-372 371 166 0
-372 -371 -166 0
372 -371 166 0
372 371 -166 0
-373 372 269 0
-373 -372 -269 0
373 -372 269 0
373 372 -269 0
-373 0
-374 6 15 0
-374 -6 -15 0
374 -6 15 0
374 6 -15 0
-375 374 138 0
-375 -374 -138 0
375 -374 138 0
375 374 -138 0
-376 375 160 0
-376 -375 -160 0
376 -375 160 0
376 375 -160 0
-377 376 167 0
-377 -376 -167 0
377 -376 167 0
377 376 -167 0
-378 377 270 0
-378 -377 -270 0
378 -377 270 0
378 377 -270 0
-378 0
-379 7 16 0
-379 -7 -16 0
379 -7 16 0
379 7 -16 0
-380 379 139 0
-380 -379 -139 0
380 -379 139 0
380 379 -139 0
-381 380 161 0
-381 -380 -161 0
381 -380 161 0
381 380 -161 0
-382 381 168 0
-382 -381 -168 0
382 -381 168 0
382 381 -168 0
-383 382 271 0
-383 -382 -271 0
383 -382 271 0
383 382 -271 0
-383 0
-384 8 17 0
-384 -8 -17 0
384 -8 17 0
384 8 -17 0
-385 384 140 0
-385 -384 -140 0
385 -384 140 0
385 384 -140 0
-386 385 157 0
-386 -385 -157 0
386 -385 157 0
386 385 -157 0
-387 386 162 0
-387 -386 -162 0
387 -386 162 0
387 386 -162 0
-388 387 272 0
-388 -387 -272 0
388 -387 272 0
388 387 -272 0
-388 0
-389 9 18 0
-389 -9 -18 0
389 -9 18 0
389 9 -18 0
-390 389 141 0
-390 -389 -141 0
390 -389 141 0
390 389 -141 0
-391 390 158 0
-391 -390 -158 0
391 -390 158 0
391 390 -158 0
-392 391 163 0
-392 -391 -163 0
392 -391 163 0
392 391 -163 0
-393 392 273 0
-393 -392 -273 0
393 -392 273 0
393 392 -273 0
-393 0
-394 10 19 0
-394 -10 -19 0
394 -10 19 0
394 10 -19 0
-395 394 142 0
-395 -394 -142 0
395 -394 142 0
395 394 -142 0
-396 395 159 0
-396 -395 -159 0
396 -395 159 0
396 395 -159 0
-397 396 164 0
-397 -396 -164 0
397 -396 164 0
397 396 -164 0
-398 397 274 0
-398 -397 -274 0
398 -397 274 0
398 397 -274 0
-398 0
-399 11 20 0
-399 -11 -20 0
399 -11 20 0
399 11 -20 0
-400 399 143 0
-400 -399 -143 0
400 -399 143 0
400 399 -143 0
-401 400 160 0
-401 -400 -160 0
401 -400 160 0
401 400 -160 0
-402 401 165 0
-402 -401 -165 0
402 -401 165 0
402 401 -165 0
-403 402 275 0
-403 -402 -275 0
403 -402 275 0
403 402 -275 0
-403 0
-404 12 21 0
-404 -12 -21 0
404 -12 21 0
404 12 -21 0
-405 404 144 0
-405 -404 -144 0
405 -404 144 0
405 404 -144 0
-406 405 161 0
-406 -405 -161 0
406 -405 161 0
406 405 -161 0
-407 406 166 0
-407 -406 -166 0
407 -406 166 0
407 406 -166 0
-408 407 276 0
-408 -407 -276 0
408 -407 276 0
408 407 -276 0
-408 0
-409 1 13 0
-409 -1 -13 0
409 -1 13 0
409 1 -13 0
-410 409 34 0
-410 -409 -34 0
410 -409 34 0
410 409 -34 0
-411 410 174 0
-411 -410 -174 0
411 -410 174 0
411 410 -174 0
-412 411 179 0
-412 -411 -179 0
412 -411 179 0
412 411 -179 0
-413 412 277 0
-413 -412 -277 0
413 -412 277 0
413 412 -277 0
-413 0
-414 2 14 0
-414 -2 -14 0
414 -2 14 0
414 2 -14 0
-415 414 35 0
-415 -414 -35 0
415 -414 35 0
415 414 -35 0
-416 415 175 0
-416 -415 -175 0
416 -415 175 0
416 415 -175 0
-417 416 180 0
-417 -416 -180 0
417 -416 180 0
417 416 -180 0
-418 417 278 0
-418 -417 -278 0
418 -417 278 0
418 417 -278 0
-418 0
-419 3 15 0
-419 -3 -15 0
419 -3 15 0
419 3 -15 0
-420 419 36 0
-420 -419 -36 0
420 -419 36 0
420 419 -36 0
-421 420 169 0
-421 -420 -169 0
421 -420 169 0
421 420 -169 0
-422 421 176 0
-422 -421 -176 0
422 -421 176 0
422 421 -176 0
-423 422 279 0
-423 -422 -279 0
423 -422 279 0
423 422 -279 0
-423 0
-424 4 16 0
-424 -4 -16 0
424 -4 16 0
424 4 -16 0
-425 424 25 0
-425 -424 -25 0
425 -424 25 0
425 424 -25 0
-426 425 170 0
-426 -425 -170 0
426 -425 170 0
426 425 -170 0
-427 426 177 0
-427 -426 -177 0
427 -426 177 0
427 426 -177 0
-428 427 280 0
-428 -427 -280 0
428 -427 280 0
428 427 -280 0
-428 0
-429 5 17 0
-429 -5 -17 0
429 -5 17 0
429 5 -17 0
-430 429 26 0
-430 -429 -26 0
430 -429 26 0
430 429 -26 0
-431 430 171 0
-431 -430 -171 0
431 -430 171 0
431 430 -171 0
-432 431 178 0
-432 -431 -178 0
432 -431 178 0
432 431 -178 0
-433 432 281 0
-433 -432 -281 0
433 -432 281 0
433 432 -281 0
-433 0
-434 6 18 0
-434 -6 -18 0
434 -6 18 0
434 6 -18 0
-435 434 27 0
-435 -434 -27 0
435 -434 27 0
435 434 -27 0
-436 435 172 0
-436 -435 -172 0
436 -435 172 0
436 435 -172 0
-437 436 179 0
-437 -436 -179 0
437 -436 179 0
437 436 -179 0
-438 437 282 0
-438 -437 -282 0
438 -437 282 0
438 437 -282 0
-438 0
-439 7 19 0
-439 -7 -19 0
439 -7 19 0
439 7 -19 0
-440 439 28 0
-440 -439 -28 0
440 -439 28 0
440 439 -28 0
-441 440 173 0
-441 -440 -173 0
441 -440 173 0
441 440 -173 0
-442 441 180 0
-442 -441 -180 0
442 -441 180 0
442 441 -180 0
-443 442 283 0
-443 -442 -283 0
443 -442 283 0
443 442 -283 0
-443 0
-444 8 20 0
-444 -8 -20 0
444 -8 20 0
444 8 -20 0
-445 444 29 0
-445 -444 -29 0
445 -444 29 0
445 444 -29 0
-446 445 169 0
-446 -445 -169 0
446 -445 169 0
446 445 -169 0
-447 446 174 0
-447 -446 -174 0
447 -446 174 0
447 446 -174 0
-448 447 284 0
-448 -447 -284 0
448 -447 284 0
448 447 -284 0
-448 0
-449 9 21 0
-449 -9 -21 0
449 -9 21 0
449 9 -21 0
-450 449 30 0
-450 -449 -30 0
450 -449 30 0
450 449 -30 0
-451 450 170 0
-451 -450 -170 0
451 -450 170 0
451 450 -170 0
-452 451 175 0
-452 -451 -175 0
452 -451 175 0
452 451 -175 0
-453 452 285 0
-453 -452 -285 0
453 -452 285 0
453 452 -285 0
-453 0
-454 10 22 0
-454 -10 -22 0
454 -10 22 0
454 10 -22 0
-455 454 31 0
-455 -454 -31 0
455 -454 31 0
455 454 -31 0
-456 455 171 0
-456 -455 -171 0
456 -455 171 0
456 455 -171 0
-457 456 176 0
-457 -456 -176 0
457 -456 176 0
457 456 -176 0
-458 457 286 0
-458 -457 -286 0
458 -457 286 0
458 457 -286 0
-458 0
-459 11 23 0
-459 -11 -23 0
459 -11 23 0
459 11 -23 0
-460 459 32 0
-460 -459 -32 0
460 -459 32 0
460 459 -32 0
-461 460 172 0
-461 -460 -172 0
461 -460 172 0
461 460 -172 0
-462 461 177 0
-462 -461 -177 0
462 -461 177 0
462 461 -177 0
-463 462 287 0
-463 -462 -287 0
463 -462 287 0
463 462 -287 0
-463 0
-464 12 24 0
-464 -12 -24 0
464 -12 24 0
464 12 -24 0
-465 464 33 0
-465 -464 -33 0
465 -464 33 0
465 464 -33 0
-466 465 173 0
-466 -465 -173 0
466 -465 173 0
466 465 -173 0
-467 466 178 0
-467 -466 -178 0
467 -466 178 0
467 466 -178 0
-468 467 288 0
-468 -467 -288 0
468 -467 288 0
468 467 -288 0
-468 0
-469 13 25 0
-469 -13 -25 0
469 -13 25 0
469 13 -25 0
-470 469 46 0
-470 -469 -46 0
470 -469 46 0
470 469 -46 0
-471 470 145 0
-471 -470 -145 0
471 -470 145 0
471 470 -145 0
-472 471 186 0
-472 -471 -186 0
472 -471 186 0
472 471 -186 0
-473 472 191 0
-473 -472 -191 0
473 -472 191 0
473 472 -191 0
-473 0
-474 14 26 0
-474 -14 -26 0
474 -14 26 0
474 14 -26 0
-475 474 47 0
-475 -474 -47 0
475 -474 47 0
475 474 -47 0
-476 475 146 0
-476 -475 -146 0
476 -475 146 0
476 475 -146 0
-477 476 187 0
-477 -476 -187 0
477 -476 187 0
477 476 -187 0
-478 477 192 0
-478 -477 -192 0
478 -477 192 0
478 477 -192 0
-478 0
-479 15 27 0
-479 -15 -27 0
479 -15 27 0
479 15 -27 0
-480 479 48 0
-480 -479 -48 0
480 -479 48 0
480 479 -48 0
-481 480 147 0
-481 -480 -147 0
481 -480 147 0
481 480 -147 0
-482 481 181 0
-482 -481 -181 0
482 -481 181 0
482 481 -181 0
-483 482 188 0
-483 -482 -188 0
483 -482 188 0
483 482 -188 0
-483 0
-484 16 28 0
-484 -16 -28 0
484 -16 28 0
484 16 -28 0
-485 484 37 0
-485 -484 -37 0
485 -484 37 0
485 484 -37 0
-486 485 148 0
-486 -485 -148 0
486 -485 148 0
486 485 -148 0
-487 486 182 0
-487 -486 -182 0
487 -486 182 0
487 486 -182 0
-488 487 189 0
-488 -487 -189 0
488 -487 189 0
488 487 -189 0
-488 0
-489 17 29 0
-489 -17 -29 0
489 -17 29 0
489 17 -29 0
-490 489 38 0
-490 -489 -38 0
490 -489 38 0
490 489 -38 0
-491 490 149 0
-491 -490 -149 0
491 -490 149 0
491 490 -149 0
-492 491 183 0
-492 -491 -183 0
492 -491 183 0
492 491 -183 0
-493 492 190 0
-493 -492 -190 0
493 -492 190 0
493 492 -190 0
-493 0
-494 18 30 0
-494 -18 -30 0
494 -18 30 0
494 18 -30 0
-495 494 39 0
-495 -494 -39 0
495 -494 39 0
495 494 -39 0
-496 495 150 0
-496 -495 -150 0
496 -495 150 0
496 495 -150 0
-497 496 184 0
-497 -496 -184 0
497 -496 184 0
497 496 -184 0
-498 497 191 0
-498 -497 -191 0
498 -497 191 0
498 497 -191 0
-498 0
-499 19 31 0
-499 -19 -31 0
499 -19 31 0
499 19 -31 0
-500 499 40 0
-500 -499 -40 0
500 -499 40 0
500 499 -40 0
-501 500 151 0
-501 -500 -151 0
501 -500 151 0
501 500 -151 0
-502 501 185 0
-502 -501 -185 0
502 -501 185 0
502 501 -185 0
-503 502 192 0
-503 -502 -192 0
503 -502 192 0
503 502 -192 0
-503 0
-504 20 32 0
-504 -20 -32 0
504 -20 32 0
504 20 -32 0
-505 504 41 0
-505 -504 -41 0
505 -504 41 0
505 504 -41 0
-506 505 152 0
-506 -505 -152 0
506 -505 152 0
506 505 -152 0
-507 506 181 0
-507 -506 -181 0
507 -506 181 0
507 506 -181 0
-508 507 186 0
-508 -507 -186 0
508 -507 186 0
508 507 -186 0
-508 0
-509 21 33 0
-509 -21 -33 0
509 -21 33 0
509 21 -33 0
-510 509 42 0
-510 -509 -42 0
510 -509 42 0
510 509 -42 0
-511 510 153 0
-511 -510 -153 0
511 -510 153 0
511 510 -153 0
-512 511 182 0
-512 -511 -182 0
512 -511 182 0
512 511 -182 0
-513 512 187 0
-513 -512 -187 0
513 -512 187 0
513 512 -187 0
-513 0
-514 22 34 0
-514 -22 -34 0
514 -22 34 0
514 22 -34 0
-515 514 43 0
-515 -514 -43 0
515 -514 43 0
515 514 -43 0
-516 515 154 0
-516 -515 -154 0
516 -515 154 0
516 515 -154 0
-517 516 183 0
-517 -516 -183 0
517 -516 183 0
517 516 -183 0
-518 517 188 0
-518 -517 -188 0
518 -517 188 0
518 517 -188 0
-518 0
-519 23 35 0
-519 -23 -35 0
519 -23 35 0
519 23 -35 0
-520 519 44 0
-520 -519 -44 0
520 -519 44 0
520 519 -44 0
-521 520 155 0
-521 -520 -155 0
521 -520 155 0
521 520 -155 0
-522 521 184 0
-522 -521 -184 0
522 -521 184 0
522 521 -184 0
-523 522 189 0
-523 -522 -189 0
523 -522 189 0
523 522 -189 0
-523 0
-524 24 36 0
-524 -24 -36 0
524 -24 36 0
524 24 -36 0
-525 524 45 0
-525 -524 -45 0
525 -524 45 0
525 524 -45 0
-526 525 156 0
-526 -525 -156 0
526 -525 156 0
526 525 -156 0
-527 526 185 0
-527 -526 -185 0
527 -526 185 0
527 526 -185 0
-528 527 190 0
-528 -527 -190 0
528 -527 190 0
528 527 -190 0
-528 0
-529 25 37 0
-529 -25 -37 0
529 -25 37 0
529 25 -37 0
-530 529 58 0
-530 -529 -58 0
530 -529 58 0
530 529 -58 0
-531 530 157 0
-531 -530 -157 0
531 -530 157 0
531 530 -157 0
-532 531 198 0
-532 -531 -198 0
532 -531 198 0
532 531 -198 0
-533 532 203 0
-533 -532 -203 0
533 -532 203 0
533 532 -203 0
-533 0
-534 26 38 0
-534 -26 -38 0
534 -26 38 0
534 26 -38 0
-535 534 59 0
-535 -534 -59 0
535 -534 59 0
535 534 -59 0
-536 535 158 0
-536 -535 -158 0
536 -535 158 0
536 535 -158 0
-537 536 199 0
-537 -536 -199 0
537 -536 199 0
537 536 -199 0
-538 537 204 0
-538 -537 -204 0
538 -537 204 0
538 537 -204 0
-538 0
-539 27 39 0
-539 -27 -39 0
539 -27 39 0
539 27 -39 0
-540 539 60 0
-540 -539 -60 0
540 -539 60 0
540 539 -60 0
-541 540 159 0
-541 -540 -159 0
541 -540 159 0
541 540 -159 0
-542 541 193 0
-542 -541 -193 0
542 -541 193 0
542 541 -193 0
-543 542 200 0
-543 -542 -200 0
543 -542 200 0
543 542 -200 0
-543 0
-544 28 40 0
-544 -28 -40 0
544 -28 40 0
544 28 -40 0
-545 544 49 0
-545 -544 -49 0
545 -544 49 0
545 544 -49 0
-546 545 160 0
-546 -545 -160 0
546 -545 160 0
546 545 -160 0
-547 546 194 0
-547 -546 -194 0
547 -546 194 0
547 546 -194 0
-548 547 201 0
-548 -547 -201 0
548 -547 201 0
548 547 -201 0
-548 0
-549 29 41 0
-549 -29 -41 0
549 -29 41 0
549 29 -41 0
-550 549 50 0
-550 -549 -50 0
550 -549 50 0
550 549 -50 0
-551 550 161 0
-551 -550 -161 0
551 -550 161 0
551 550 -161 0
-552 551 195 0
-552 -551 -195 0
552 -551 195 0
552 551 -195 0
-553 552 202 0
-553 -552 -202 0
553 -552 202 0
553 552 -202 0
-553 0
-554 30 42 0
-554 -30 -42 0
554 -30 42 0
554 30 -42 0
-555 554 51 0
-555 -554 -51 0
555 -554 51 0
555 554 -51 0
-556 555 162 0
-556 -555 -162 0
556 -555 162 0
556 555 -162 0
-557 556 196 0
-557 -556 -196 0
557 -556 196 0
557 556 -196 0
-558 557 203 0
-558 -557 -203 0
558 -557 203 0
558 557 -203 0
-558 0
-559 31 43 0
-559 -31 -43 0
559 -31 43 0
559 31 -43 0
-560 559 52 0
-560 -559 -52 0
560 -559 52 0
560 559 -52 0
-561 560 163 0
-561 -560 -163 0
561 -560 163 0
561 560 -163 0
-562 561 197 0
-562 -561 -197 0
562 -561 197 0
562 561 -197 0
-563 562 204 0
-563 -562 -204 0
563 -562 204 0
563 562 -204 0
-563 0
-564 32 44 0
-564 -32 -44 0
564 -32 44 0
564 32 -44 0
-565 564 53 0
-565 -564 -53 0
565 -564 53 0
565 564 -53 0
-566 565 164 0
-566 -565 -164 0
566 -565 164 0
566 565 -164 0
-567 566 193 0
-567 -566 -193 0
567 -566 193 0
567 566 -193 0
-568 567 198 0
-568 -567 -198 0
568 -567 198 0
568 567 -198 0
-568 0
-569 33 45 0
-569 -33 -45 0
569 -33 45 0
569 33 -45 0
-570 569 54 0
-570 -569 -54 0
570 -569 54 0
570 569 -54 0
-571 570 165 0
-571 -570 -165 0
571 -570 165 0
571 570 -165 0
-572 571 194 0
-572 -571 -194 0
572 -571 194 0
572 571 -194 0
-573 572 199 0
-573 -572 -199 0
573 -572 199 0
573 572 -199 0
-573 0
-574 34 46 0
-574 -34 -46 0
574 -34 46 0
574 34 -46 0
-575 574 55 0
-575 -574 -55 0
575 -574 55 0
575 574 -55 0
-576 575 166 0
-576 -575 -166 0
576 -575 166 0
576 575 -166 0
-577 576 195 0
-577 -576 -195 0
577 -576 195 0
577 576 -195 0
-578 577 200 0
-578 -577 -200 0
578 -577 200 0
578 577 -200 0
-578 0
-579 35 47 0
-579 -35 -47 0
579 -35 47 0
579 35 -47 0
-580 579 56 0
-580 -579 -56 0
580 -579 56 0
580 579 -56 0
-581 580 167 0
-581 -580 -167 0
581 -580 167 0
581 580 -167 0
-582 581 196 0
-582 -581 -196 0
582 -581 196 0
582 581 -196 0
-583 582 201 0
-583 -582 -201 0
583 -582 201 0
583 582 -201 0
-583 0
-584 36 48 0
-584 -36 -48 0
584 -36 48 0
584 36 -48 0
-585 584 57 0
-585 -584 -57 0
585 -584 57 0
585 584 -57 0
-586 585 168 0
-586 -585 -168 0
586 -585 168 0
586 585 -168 0
-587 586 197 0
-587 -586 -197 0
587 -586 197 0
587 586 -197 0
-588 587 202 0
-588 -587 -202 0
588 -587 202 0
588 587 -202 0
-588 0
-589 37 49 0
-589 -37 -49 0
589 -37 49 0
589 37 -49 0
-590 589 70 0
-590 -589 -70 0
590 -589 70 0
590 589 -70 0
-591 590 169 0
-591 -590 -169 0
591 -590 169 0
591 590 -169 0
-592 591 210 0
-592 -591 -210 0
592 -591 210 0
592 591 -210 0
-593 592 215 0
-593 -592 -215 0
593 -592 215 0
593 592 -215 0
-593 0
-594 38 50 0
-594 -38 -50 0
594 -38 50 0
594 38 -50 0
-595 594 71 0
-595 -594 -71 0
595 -594 71 0
595 594 -71 0
-596 595 170 0
-596 -595 -170 0
596 -595 170 0
596 595 -170 0
-597 596 211 0
-597 -596 -211 0
597 -596 211 0
597 596 -211 0
-598 597 216 0
-598 -597 -216 0
598 -597 216 0
598 597 -216 0
-598 0
-599 39 51 0
-599 -39 -51 0
599 -39 51 0
599 39 -51 0
-600 599 72 0
-600 -599 -72 0
600 -599 72 0
600 599 -72 0
-601 600 171 0
-601 -600 -171 0
601 -600 171 0
601 600 -171 0
-602 601 205 0
-602 -601 -205 0
602 -601 205 0
602 601 -205 0
-603 602 212 0
-603 -602 -212 0
603 -602 212 0
603 602 -212 0
-603 0
-604 40 52 0
-604 -40 -52 0
604 -40 52 0
604 40 -52 0
-605 604 61 0
-605 -604 -61 0
605 -604 61 0
605 604 -61 0
-606 605 172 0
-606 -605 -172 0
606 -605 172 0
606 605 -172 0
-607 606 206 0
-607 -606 -206 0
607 -606 206 0
607 606 -206 0
-608 607 213 0
-608 -607 -213 0
608 -607 213 0
608 607 -213 0
-608 0
-609 41 53 0
-609 -41 -53 0
609 -41 53 0
609 41 -53 0
-610 609 62 0
-610 -609 -62 0
610 -609 62 0
610 609 -62 0
-611 610 173 0
-611 -610 -173 0
611 -610 173 0
611 610 -173 0
-612 611 207 0
-612 -611 -207 0
612 -611 207 0
612 611 -207 0
-613 612 214 0
-613 -612 -214 0
613 -612 214 0
613 612 -214 0
-613 0
-614 42 54 0
-614 -42 -54 0
614 -42 54 0
614 42 -54 0
-615 614 63 0
-615 -614 -63 0
615 -614 63 0
615 614 -63 0
-616 615 174 0
-616 -615 -174 0
616 -615 174 0
616 615 -174 0
-617 616 208 0
-617 -616 -208 0
617 -616 208 0
617 616 -208 0
-618 617 215 0
-618 -617 -215 0
618 -617 215 0
618 617 -215 0
-618 0
-619 43 55 0
-619 -43 -55 0
619 -43 55 0
619 43 -55 0
-620 619 64 0
-620 -619 -64 0
620 -619 64 0
620 619 -64 0
-621 620 175 0
-621 -620 -175 0
621 -620 175 0
621 620 -175 0
-622 621 209 0
-622 -621 -209 0
622 -621 209 0
622 621 -209 0
-623 622 216 0
-623 -622 -216 0
623 -622 216 0
623 622 -216 0
-623 0
-624 44 56 0
-624 -44 -56 0
624 -44 56 0
624 44 -56 0
-625 624 65 0
-625 -624 -65 0
625 -624 65 0
625 624 -65 0
-626 625 176 0
-626 -625 -176 0
626 -625 176 0
626 625 -176 0
-627 626 205 0
-627 -626 -205 0
627 -626 205 0
627 626 -205 0
-628 627 210 0
-628 -627 -210 0
628 -627 210 0
628 627 -210 0
-628 0
-629 45 57 0
-629 -45 -57 0
629 -45 57 0
629 45 -57 0
-630 629 66 0
-630 -629 -66 0
630 -629 66 0
630 629 -66 0
-631 630 177 0
-631 -630 -177 0
631 -630 177 0
631 630 -177 0
-632 631 206 0
-632 -631 -206 0
632 -631 206 0
632 631 -206 0
-633 632 211 0
-633 -632 -211 0
633 -632 211 0
633 632 -211 0
-633 0
-634 46 58 0
-634 -46 -58 0
634 -46 58 0
634 46 -58 0
-635 634 67 0
-635 -634 -67 0
635 -634 67 0
635 634 -67 0
-636 635 178 0
-636 -635 -178 0
636 -635 178 0
636 635 -178 0
-637 636 207 0
-637 -636 -207 0
637 -636 207 0
637 636 -207 0
-638 637 212 0
-638 -637 -212 0
638 -637 212 0
638 637 -212 0
-638 0
-639 47 59 0
-639 -47 -59 0
639 -47 59 0
639 47 -59 0
-640 639 68 0
-640 -639 -68 0
640 -639 68 0
640 639 -68 0
-641 640 179 0
-641 -640 -179 0
641 -640 179 0
641 640 -179 0
-642 641 208 0
-642 -641 -208 0
642 -641 208 0
642 641 -208 0
-643 642 213 0
-643 -642 -213 0
643 -642 213 0
643 642 -213 0
-643 0
-644 48 60 0
-644 -48 -60 0
644 -48 60 0
644 48 -60 0
-645 644 69 0
-645 -644 -69 0
645 -644 69 0
645 644 -69 0
-646 645 180 0
-646 -645 -180 0
646 -645 180 0
646 645 -180 0
-647 646 209 0
-647 -646 -209 0
647 -646 209 0
647 646 -209 0
-648 647 214 0
-648 -647 -214 0
648 -647 214 0
648 647 -214 0
-648 0
-649 49 61 0
-649 -49 -61 0
649 -49 61 0
649 49 -61 0
-650 649 82 0
-650 -649 -82 0
650 -649 82 0
650 649 -82 0
-651 650 181 0
-651 -650 -181 0
651 -650 181 0
651 650 -181 0
-652 651 222 0
-652 -651 -222 0
652 -651 222 0
652 651 -222 0
-653 652 227 0
-653 -652 -227 0
653 -652 227 0
653 652 -227 0
-653 0
-654 50 62 0
-654 -50 -62 0
654 -50 62 0
654 50 -62 0
-655 654 83 0
-655 -654 -83 0
655 -654 83 0
655 654 -83 0
-656 655 182 0
-656 -655 -182 0
656 -655 182 0
656 655 -182 0
-657 656 223 0
-657 -656 -223 0
657 -656 223 0
657 656 -223 0
-658 657 228 0
-658 -657 -228 0
658 -657 228 0
658 657 -228 0
-658 0
-659 51 63 0
-659 -51 -63 0
659 -51 63 0
659 51 -63 0
-660 659 84 0
-660 -659 -84 0
660 -659 84 0
660 659 -84 0
-661 660 183 0
-661 -660 -183 0
661 -660 183 0
661 660 -183 0
-662 661 217 0
-662 -661 -217 0
662 -661 217 0
662 661 -217 0
-663 662 224 0
-663 -662 -224 0
663 -662 224 0
663 662 -224 0
-663 0
-664 52 64 0
-664 -52 -64 0
664 -52 64 0
664 52 -64 0
-665 664 73 0
-665 -664 -73 0
665 -664 73 0
665 664 -73 0
-666 665 184 0
-666 -665 -184 0
666 -665 184 0
666 665 -184 0
-667 666 218 0
-667 -666 -218 0
667 -666 218 0
667 666 -218 0
-668 667 225 0
-668 -667 -225 0
668 -667 225 0
668 667 -225 0
-668 0
-669 53 65 0
-669 -53 -65 0
669 -53 65 0
669 53 -65 0
-670 669 74 0
-670 -669 -74 0
670 -669 74 0
670 669 -74 0
-671 670 185 0
-671 -670 -185 0
671 -670 185 0
671 670 -185 0
-672 671 219 0
-672 -671 -219 0
672 -671 219 0
672 671 -219 0
-673 672 226 0
-673 -672 -226 0
673 -672 226 0
673 672 -226 0
-673 0
-674 54 66 0
-674 -54 -66 0
674 -54 66 0
674 54 -66 0
-675 674 75 0
-675 -674 -75 0
675 -674 75 0
675 674 -75 0
-676 675 186 0
-676 -675 -186 0
676 -675 186 0
676 675 -186 0
-677 676 220 0
-677 -676 -220 0
677 -676 220 0
677 676 -220 0
-678 677 227 0
-678 -677 -227 0
678 -677 227 0
678 677 -227 0
-678 0
-679 55 67 0
-679 -55 -67 0
679 -55 67 0
679 55 -67 0
-680 679 76 0
-680 -679 -76 0
680 -679 76 0
680 679 -76 0
-681 680 187 0
-681 -680 -187 0
681 -680 187 0
681 680 -187 0
-682 681 221 0
-682 -681 -221 0
682 -681 221 0
682 681 -221 0
-683 682 228 0
-683 -682 -228 0
683 -682 228 0
683 682 -228 0
-683 0
-684 56 68 0
-684 -56 -68 0
684 -56 68 0
684 56 -68 0
-685 684 77 0
-685 -684 -77 0
685 -684 77 0
685 684 -77 0
-686 685 188 0
-686 -685 -188 0
686 -685 188 0
686 685 -188 0
-687 686 217 0
-687 -686 -217 0
687 -686 217 0
687 686 -217 0
-688 687 222 0
-688 -687 -222 0
688 -687 222 0
688 687 -222 0
-688 0
-689 57 69 0
-689 -57 -69 0
689 -57 69 0
689 57 -69 0
-690 689 78 0
-690 -689 -78 0
690 -689 78 0
690 689 -78 0
-691 690 189 0
-691 -690 -189 0
691 -690 189 0
691 690 -189 0
-692 691 218 0
-692 -691 -218 0
692 -691 218 0
692 691 -218 0
-693 692 223 0
-693 -692 -223 0
693 -692 223 0
693 692 -223 0
-693 0
-694 58 70 0
-694 -58 -70 0
694 -58 70 0
694 58 -70 0
-695 694 79 0
-695 -694 -79 0
695 -694 79 0
695 694 -79 0
-696 695 190 0
-696 -695 -190 0
696 -695 190 0
696 695 -190 0
-697 696 219 0
-697 -696 -219 0
697 -696 219 0
697 696 -219 0
-698 697 224 0
-698 -697 -224 0
698 -697 224 0
698 697 -224 0
-698 0
-699 59 71 0
-699 -59 -71 0
699 -59 71 0
699 59 -71 0
-700 699 80 0
-700 -699 -80 0
700 -699 80 0
700 699 -80 0
-701 700 191 0
-701 -700 -191 0
701 -700 191 0
701 700 -191 0
-702 701 220 0
-702 -701 -220 0
702 -701 220 0
702 701 -220 0
-703 702 225 0
-703 -702 -225 0
703 -702 225 0
703 702 -225 0
-703 0
-704 60 72 0
-704 -60 -72 0
704 -60 72 0
704 60 -72 0
-705 704 81 0
-705 -704 -81 0
705 -704 81 0
705 704 -81 0
-706 705 192 0
-706 -705 -192 0
706 -705 192 0
706 705 -192 0
-707 706 221 0
-707 -706 -221 0
707 -706 221 0
707 706 -221 0
-708 707 226 0
-708 -707 -226 0
708 -707 226 0
708 707 -226 0
-708 0
-709 61 73 0
-709 -61 -73 0
709 -61 73 0
709 61 -73 0
-710 709 94 0
-710 -709 -94 0
710 -709 94 0
710 709 -94 0
-711 710 193 0
-711 -710 -193 0
711 -710 193 0
711 710 -193 0
-712 711 234 0
-712 -711 -234 0
712 -711 234 0
712 711 -234 0
-713 712 239 0
-713 -712 -239 0
713 -712 239 0
713 712 -239 0
-713 0
-714 62 74 0
-714 -62 -74 0
714 -62 74 0
714 62 -74 0
-715 714 95 0
-715 -714 -95 0
715 -714 95 0
715 714 -95 0
-716 715 194 0
-716 -715 -194 0
716 -715 194 0
716 715 -194 0
-717 716 235 0
-717 -716 -235 0
717 -716 235 0
717 716 -235 0
-718 717 240 0
-718 -717 -240 0
718 -717 240 0
718 717 -240 0
-718 0
-719 63 75 0
-719 -63 -75 0
719 -63 75 0
719 63 -75 0
-720 719 96 0
-720 -719 -96 0
720 -719 96 0
720 719 -96 0
-721 720 195 0
-721 -720 -195 0
721 -720 195 0
721 720 -195 0
-722 721 229 0
-722 -721 -229 0
722 -721 229 0
722 721 -229 0
-723 722 236 0
-723 -722 -236 0
723 -722 236 0
723 722 -236 0
-723 0
-724 64 76 0
-724 -64 -76 0
724 -64 76 0
724 64 -76 0
-725 724 85 0
-725 -724 -85 0
725 -724 85 0
725 724 -85 0
-726 725 196 0
-726 -725 -196 0
726 -725 196 0
726 725 -196 0
-727 726 230 0
-727 -726 -230 0
727 -726 230 0
727 726 -230 0
-728 727 237 0
-728 -727 -237 0
728 -727 237 0
728 727 -237 0
-728 0
-729 65 77 0
-729 -65 -77 0
729 -65 77 0
729 65 -77 0
-730 729 86 0
-730 -729 -86 0
730 -729 86 0
730 729 -86 0
-731 730 197 0
-731 -730 -197 0
731 -730 197 0
731 730 -197 0
-732 731 231 0
-732 -731 -231 0
732 -731 231 0
732 731 -231 0
-733 732 238 0
-733 -732 -238 0
733 -732 238 0
733 732 -238 0
-733 0
-734 66 78 0
-734 -66 -78 0
734 -66 78 0
734 66 -78 0
-735 734 87 0
-735 -734 -87 0
735 -734 87 0
735 734 -87 0
-736 735 198 0
-736 -735 -198 0
736 -735 198 0
736 735 -198 0
-737 736 232 0
-737 -736 -232 0
737 -736 232 0
737 736 -232 0
-738 737 239 0
-738 -737 -239 0
738 -737 239 0
738 737 -239 0
-738 0
-739 67 79 0
-739 -67 -79 0
739 -67 79 0
739 67 -79 0
-740 739 88 0
-740 -739 -88 0
740 -739 88 0
740 739 -88 0
-741 740 199 0
-741 -740 -199 0
741 -740 199 0
741 740 -199 0
-742 741 233 0
-742 -741 -233 0
742 -741 233 0
742 741 -233 0
-743 742 240 0
-743 -742 -240 0
743 -742 240 0
743 742 -240 0
-743 0
-744 68 80 0
-744 -68 -80 0
744 -68 80 0
744 68 -80 0
-745 744 89 0
-745 -744 -89 0
745 -744 89 0
745 744 -89 0
-746 745 200 0
-746 -745 -200 0
746 -745 200 0
746 745 -200 0
-747 746 229 0
-747 -746 -229 0
747 -746 229 0
747 746 -229 0
-748 747 234 0
-748 -747 -234 0
748 -747 234 0
748 747 -234 0
-748 0
-749 69 81 0
-749 -69 -81 0
749 -69 81 0
749 69 -81 0
-750 749 90 0
-750 -749 -90 0
750 -749 90 0
750 749 -90 0
-751 750 201 0
-751 -750 -201 0
751 -750 201 0
751 750 -201 0
-752 751 230 0
-752 -751 -230 0
752 -751 230 0
752 751 -230 0
-753 752 235 0
-753 -752 -235 0
753 -752 235 0
753 752 -235 0
-753 0
-754 70 82 0
-754 -70 -82 0
754 -70 82 0
754 70 -82 0
-755 754 91 0
-755 -754 -91 0
755 -754 91 0
755 754 -91 0
-756 755 202 0
-756 -755 -202 0
756 -755 202 0
756 755 -202 0
-757 756 231 0
-757 -756 -231 0
757 -756 231 0
757 756 -231 0
-758 757 236 0
-758 -757 -236 0
758 -757 236 0
758 757 -236 0
-758 0
-759 71 83 0
-759 -71 -83 0
759 -71 83 0
759 71 -83 0
-760 759 92 0
-760 -759 -92 0
760 -759 92 0
760 759 -92 0
-761 760 203 0
-761 -760 -203 0
761 -760 203 0
761 760 -203 0
-762 761 232 0
-762 -761 -232 0
762 -761 232 0
762 761 -232 0
-763 762 237 0
-763 -762 -237 0
763 -762 237 0
763 762 -237 0
-763 0
-764 72 84 0
-764 -72 -84 0
764 -72 84 0
764 72 -84 0
-765 764 93 0
-765 -764 -93 0
765 -764 93 0
765 764 -93 0
-766 765 204 0
-766 -765 -204 0
766 -765 204 0
766 765 -204 0
-767 766 233 0
-767 -766 -233 0
767 -766 233 0
767 766 -233 0
-768 767 238 0
-768 -767 -238 0
768 -767 238 0
768 767 -238 0
-768 0
-769 73 85 0
-769 -73 -85 0
769 -73 85 0
769 73 -85 0
-770 769 106 0
-770 -769 -106 0
770 -769 106 0
770 769 -106 0
-771 770 205 0
-771 -770 -205 0
771 -770 205 0
771 770 -205 0
-772 771 246 0
-772 -771 -246 0
772 -771 246 0
772 771 -246 0
-773 772 251 0
-773 -772 -251 0
773 -772 251 0
773 772 -251 0
-773 0
-774 74 86 0
-774 -74 -86 0
774 -74 86 0
774 74 -86 0
-775 774 107 0
-775 -774 -107 0
775 -774 107 0
775 774 -107 0
-776 775 206 0
-776 -775 -206 0
776 -775 206 0
776 775 -206 0
-777 776 247 0
-777 -776 -247 0
777 -776 247 0
777 776 -247 0
-778 777 252 0
-778 -777 -252 0
778 -777 252 0
778 777 -252 0
-778 0
-779 75 87 0
-779 -75 -87 0
779 -75 87 0
779 75 -87 0
-780 779 108 0
-780 -779 -108 0
780 -779 108 0
780 779 -108 0
-781 780 207 0
-781 -780 -207 0
781 -780 207 0
781 780 -207 0
-782 781 241 0
-782 -781 -241 0
782 -781 241 0
782 781 -241 0
-783 782 248 0
-783 -782 -248 0
783 -782 248 0
783 782 -248 0
-783 0
-784 76 88 0
-784 -76 -88 0
784 -76 88 0
784 76 -88 0
-785 784 97 0
-785 -784 -97 0
785 -784 97 0
785 784 -97 0
-786 785 208 0
-786 -785 -208 0
786 -785 208 0
786 785 -208 0
-787 786 242 0
-787 -786 -242 0
787 -786 242 0
787 786 -242 0
-788 787 249 0
-788 -787 -249 0
788 -787 249 0
788 787 -249 0
-788 0
-789 77 89 0
-789 -77 -89 0
789 -77 89 0
789 77 -89 0
-790 789 98 0
-790 -789 -98 0
790 -789 98 0
790 789 -98 0
-791 790 209 0
-791 -790 -209 0
791 -790 209 0
791 790 -209 0
-792 791 243 0
-792 -791 -243 0
792 -791 243 0
792 791 -243 0
-793 792 250 0
-793 -792 -250 0
793 -792 250 0
793 792 -250 0
-793 0
-794 78 90 0
-794 -78 -90 0
794 -78 90 0
794 78 -90 0
-795 794 99 0
-795 -794 -99 0
795 -794 99 0
795 794 -99 0
-796 795 210 0
-796 -795 -210 0
796 -795 210 0
796 795 -210 0
-797 796 244 0
-797 -796 -244 0
797 -796 244 0
797 796 -244 0
-798 797 251 0
-798 -797 -251 0
798 -797 251 0
798 797 -251 0
-798 0
-799 79 91 0
-799 -79 -91 0
799 -79 91 0
799 79 -91 0
-800 799 100 0
-800 -799 -100 0
800 -799 100 0
800 799 -100 0
-801 800 211 0
-801 -800 -211 0
801 -800 211 0
801 800 -211 0
-802 801 245 0
-802 -801 -245 0
802 -801 245 0
802 801 -245 0
-803 802 252 0
-803 -802 -252 0
803 -802 252 0
803 802 -252 0
-803 0
-804 80 92 0
-804 -80 -92 0
804 -80 92 0
804 80 -92 0
-805 804 101 0
-805 -804 -101 0
805 -804 101 0
805 804 -101 0
-806 805 212 0
-806 -805 -212 0
806 -805 212 0
806 805 -212 0
-807 806 241 0
-807 -806 -241 0
807 -806 241 0
807 806 -241 0
-808 807 246 0
-808 -807 -246 0
808 -807 246 0
808 807 -246 0
-808 0
-809 81 93 0
-809 -81 -93 0
809 -81 93 0
809 81 -93 0
-810 809 102 0
-810 -809 -102 0
810 -809 102 0
810 809 -102 0
-811 810 213 0
-811 -810 -213 0
811 -810 213 0
811 810 -213 0
-812 811 242 0
-812 -811 -242 0
812 -811 242 0
812 811 -242 0
-813 812 247 0
-813 -812 -247 0
813 -812 247 0
813 812 -247 0
-813 0
-814 82 94 0
-814 -82 -94 0
814 -82 94 0
814 82 -94 0
-815 814 103 0
-815 -814 -103 0
815 -814 103 0
815 814 -103 0
-816 815 214 0
-816 -815 -214 0
816 -815 214 0
816 815 -214 0
-817 816 243 0
-817 -816 -243 0
817 -816 243 0
817 816 -243 0
-818 817 248 0
-818 -817 -248 0
818 -817 248 0
818 817 -248 0
-818 0
-819 83 95 0
-819 -83 -95 0
819 -83 95 0
819 83 -95 0
-820 819 104 0
-820 -819 -104 0
820 -819 104 0
820 819 -104 0
-821 820 215 0
-821 -820 -215 0
821 -820 215 0
821 820 -215 0
-822 821 244 0
-822 -821 -244 0
822 -821 244 0
822 821 -244 0
-823 822 249 0
-823 -822 -249 0
823 -822 249 0
823 822 -249 0
-823 0
-824 84 96 0
-824 -84 -96 0
824 -84 96 0
824 84 -96 0
-825 824 105 0
-825 -824 -105 0
825 -824 105 0
825 824 -105 0
-826 825 216 0
-826 -825 -216 0
826 -825 216 0
826 825 -216 0
-827 826 245 0
-827 -826 -245 0
827 -826 245 0
827 826 -245 0
-828 827 250 0
-828 -827 -250 0
828 -827 250 0
828 827 -250 0
-828 0
-829 85 97 0
-829 -85 -97 0
829 -85 97 0
829 85 -97 0
-830 829 118 0
-830 -829 -118 0
830 -829 118 0
830 829 -118 0
-831 830 217 0
-831 -830 -217 0
831 -830 217 0
831 830 -217 0
-832 831 258 0
-832 -831 -258 0
832 -831 258 0
832 831 -258 0
-833 832 263 0
-833 -832 -263 0
833 -832 263 0
833 832 -263 0
-833 0
-834 86 98 0
-834 -86 -98 0
834 -86 98 0
834 86 -98 0
-835 834 119 0
-835 -834 -119 0
835 -834 119 0
835 834 -119 0
-836 835 218 0
-836 -835 -218 0
836 -835 218 0
836 835 -218 0
-837 836 259 0
-837 -836 -259 0
837 -836 259 0
837 836 -259 0
-838 837 264 0
-838 -837 -264 0
838 -837 264 0
838 837 -264 0
-838 0
-839 87 99 0
-839 -87 -99 0
839 -87 99 0
839 87 -99 0
-840 839 120 0
-840 -839 -120 0
840 -839 120 0
840 839 -120 0
-841 840 219 0
-841 -840 -219 0
841 -840 219 0
841 840 -219 0
-842 841 253 0
-842 -841 -253 0
842 -841 253 0
842 841 -253 0
-843 842 260 0
-843 -842 -260 0
843 -842 260 0
843 842 -260 0
-843 0
-844 88 100 0
-844 -88 -100 0
844 -88 100 0
844 88 -100 0
-845 844 109 0
-845 -844 -109 0
845 -844 109 0
845 844 -109 0
-846 845 220 0
-846 -845 -220 0
846 -845 220 0
846 845 -220 0
-847 846 254 0
-847 -846 -254 0
847 -846 254 0
847 846 -254 0
-848 847 261 0
-848 -847 -261 0
848 -847 261 0
848 847 -261 0
-848 0
-849 89 101 0
-849 -89 -101 0
849 -89 101 0
849 89 -101 0
-850 849 110 0
-850 -849 -110 0
850 -849 110 0
850 849 -110 0
-851 850 221 0
-851 -850 -221 0
851 -850 221 0
851 850 -221 0
-852 851 255 0
-852 -851 -255 0
852 -851 255 0
852 851 -255 0
-853 852 262 0
-853 -852 -262 0
853 -852 262 0
853 852 -262 0
-853 0
-854 90 102 0
-854 -90 -102 0
854 -90 102 0
854 90 -102 0
-855 854 111 0
-855 -854 -111 0
855 -854 111 0
855 854 -111 0
-856 855 222 0
-856 -855 -222 0
856 -855 222 0
856 855 -222 0
-857 856 256 0
-857 -856 -256 0
857 -856 256 0
857 856 -256 0
-858 857 263 0
-858 -857 -263 0
858 -857 263 0
858 857 -263 0
-858 0
-859 91 103 0
-859 -91 -103 0
859 -91 103 0
859 91 -103 0
-860 859 112 0
-860 -859 -112 0
860 -859 112 0
860 859 -112 0
-861 860 223 0
-861 -860 -223 0
861 -860 223 0
861 860 -223 0
-862 861 257 0
-862 -861 -257 0
862 -861 257 0
862 861 -257 0
-863 862 264 0
-863 -862 -264 0
863 -862 264 0
863 862 -264 0
-863 0
-864 92 104 0
-864 -92 -104 0
864 -92 104 0
864 92 -104 0
-865 864 113 0
-865 -864 -113 0
865 -864 113 0
865 864 -113 0
-866 865 224 0
-866 -865 -224 0
866 -865 224 0
866 865 -224 0
-867 866 253 0
-867 -866 -253 0
867 -866 253 0
867 866 -253 0
-868 867 258 0
-868 -867 -258 0
868 -867 258 0
868 867 -258 0
-868 0
-869 93 105 0
-869 -93 -105 0
869 -93 105 0
869 93 -105 0
-870 869 114 0
-870 -869 -114 0
870 -869 114 0
870 869 -114 0
-871 870 225 0
-871 -870 -225 0
871 -870 225 0
871 870 -225 0
-872 871 254 0
-872 -871 -254 0
872 -871 254 0
872 871 -254 0
-873 872 259 0
-873 -872 -259 0
873 -872 259 0
873 872 -259 0
-873 0
-874 94 106 0
-874 -94 -106 0
874 -94 106 0
874 94 -106 0
-875 874 115 0
-875 -874 -115 0
875 -874 115 0
875 874 -115 0
-876 875 226 0
-876 -875 -226 0
876 -875 226 0
876 875 -226 0
-877 876 255 0
-877 -876 -255 0
877 -876 255 0
877 876 -255 0
-878 877 260 0
-878 -877 -260 0
878 -877 260 0
878 877 -260 0
-878 0
-879 95 107 0
-879 -95 -107 0
879 -95 107 0
879 95 -107 0
-880 879 116 0
-880 -879 -116 0
880 -879 116 0
880 879 -116 0
-881 880 227 0
-881 -880 -227 0
881 -880 227 0
881 880 -227 0
-882 881 256 0
-882 -881 -256 0
882 -881 256 0
882 881 -256 0
-883 882 261 0
-883 -882 -261 0
883 -882 261 0
883 882 -261 0
-883 0
-884 96 108 0
-884 -96 -108 0
884 -96 108 0
884 96 -108 0
-885 884 117 0
-885 -884 -117 0
885 -884 117 0
885 884 -117 0
-886 885 228 0
-886 -885 -228 0
886 -885 228 0
886 885 -228 0
-887 886 257 0
-887 -886 -257 0
887 -886 257 0
887 886 -257 0
-888 887 262 0
-888 -887 -262 0
888 -887 262 0
888 887 -262 0
-888 0
-889 97 109 0
-889 -97 -109 0
889 -97 109 0
889 97 -109 0
-890 889 130 0
-890 -889 -130 0
890 -889 130 0
890 889 -130 0
-891 890 229 0
-891 -890 -229 0
891 -890 229 0
891 890 -229 0
-892 891 270 0
-892 -891 -270 0
892 -891 270 0
892 891 -270 0
-893 892 275 0
-893 -892 -275 0
893 -892 275 0
893 892 -275 0
-893 0
-894 98 110 0
-894 -98 -110 0
894 -98 110 0
894 98 -110 0
-895 894 131 0
-895 -894 -131 0
895 -894 131 0
895 894 -131 0
-896 895 230 0
-896 -895 -230 0
896 -895 230 0
896 895 -230 0
-897 896 271 0
-897 -896 -271 0
897 -896 271 0
897 896 -271 0
-898 897 276 0
-898 -897 -276 0
898 -897 276 0
898 897 -276 0
-898 0
-899 99 111 0
-899 -99 -111 0
899 -99 111 0
899 99 -111 0
-900 899 132 0
-900 -899 -132 0
900 -899 132 0
900 899 -132 0
-901 900 231 0
-901 -900 -231 0
901 -900 231 0
901 900 -231 0
-902 901 265 0
-902 -901 -265 0
902 -901 265 0
902 901 -265 0
-903 902 272 0
-903 -902 -272 0
903 -902 272 0
903 902 -272 0
-903 0
-904 100 112 0
-904 -100 -112 0
904 -100 112 0
904 100 -112 0
-905 904 121 0
-905 -904 -121 0
905 -904 121 0
905 904 -121 0
-906 905 232 0
-906 -905 -232 0
906 -905 232 0
906 905 -232 0
-907 906 266 0
-907 -906 -266 0
907 -906 266 0
907 906 -266 0
-908 907 273 0
-908 -907 -273 0
908 -907 273 0
908 907 -273 0
-908 0
-909 101 113 0
-909 -101 -113 0
909 -101 113 0
909 101 -113 0
-910 909 122 0
-910 -909 -122 0
910 -909 122 0
910 909 -122 0
-911 910 233 0
-911 -910 -233 0
911 -910 233 0
911 910 -233 0
-912 911 267 0
-912 -911 -267 0
912 -911 267 0
912 911 -267 0
-913 912 274 0
-913 -912 -274 0
913 -912 274 0
913 912 -274 0
-913 0
-914 102 114 0
-914 -102 -114 0
914 -102 114 0
914 102 -114 0
-915 914 123 0
-915 -914 -123 0
915 -914 123 0
915 914 -123 0
-916 915 234 0
-916 -915 -234 0
916 -915 234 0
916 915 -234 0
-917 916 268 0
-917 -916 -268 0
917 -916 268 0
917 916 -268 0
-918 917 275 0
-918 -917 -275 0
918 -917 275 0
918 917 -275 0
-918 0
-919 103 115 0
-919 -103 -115 0
919 -103 115 0
919 103 -115 0
-920 919 124 0
-920 -919 -124 0
920 -919 124 0
920 919 -124 0
-921 920 235 0
-921 -920 -235 0
921 -920 235 0
921 920 -235 0
-922 921 269 0
-922 -921 -269 0
922 -921 269 0
922 921 -269 0
-923 922 276 0
-923 -922 -276 0
923 -922 276 0
923 922 -276 0
-923 0
-924 104 116 0
-924 -104 -116 0
924 -104 116 0
924 104 -116 0
-925 924 125 0
-925 -924 -125 0
925 -924 125 0
925 924 -125 0
-926 925 236 0
-926 -925 -236 0
926 -925 236 0
926 925 -236 0
-927 926 265 0
-927 -926 -265 0
927 -926 265 0
927 926 -265 0
-928 927 270 0
-928 -927 -270 0
928 -927 270 0
928 927 -270 0
-928 0
-929 105 117 0
-929 -105 -117 0
929 -105 117 0
929 105 -117 0
-930 929 126 0
-930 -929 -126 0
930 -929 126 0
930 929 -126 0
-931 930 237 0
-931 -930 -237 0
931 -930 237 0
931 930 -237 0
-932 931 266 0
-932 -931 -266 0
932 -931 266 0
932 931 -266 0
-933 932 271 0
-933 -932 -271 0
933 -932 271 0
933 932 -271 0
-933 0
-934 106 118 0
-934 -106 -118 0
934 -106 118 0
934 106 -118 0
-935 934 127 0
-935 -934 -127 0
935 -934 127 0
935 934 -127 0
-936 935 238 0
-936 -935 -238 0
936 -935 238 0
936 935 -238 0
-937 936 267 0
-937 -936 -267 0
937 -936 267 0
937 936 -267 0
-938 937 272 0
-938 -937 -272 0
938 -937 272 0
938 937 -272 0
-938 0
-939 107 119 0
-939 -107 -119 0
939 -107 119 0
939 107 -119 0
-940 939 128 0
-940 -939 -128 0
940 -939 128 0
940 939 -128 0
-941 940 239 0
-941 -940 -239 0
941 -940 239 0
941 940 -239 0
-942 941 268 0
-942 -941 -268 0
942 -941 268 0
942 941 -268 0
-943 942 273 0
-943 -942 -273 0
943 -942 273 0
943 942 -273 0
-943 0
-944 108 120 0
-944 -108 -120 0
944 -108 120 0
944 108 -120 0
-945 944 129 0
-945 -944 -129 0
945 -944 129 0
945 944 -129 0
-946 945 240 0
-946 -945 -240 0
946 -945 240 0
946 945 -240 0
-947 946 269 0
-947 -946 -269 0
947 -946 269 0
947 946 -269 0
-948 947 274 0
-948 -947 -274 0
948 -947 274 0
948 947 -274 0
-948 0
-949 109 121 0
-949 -109 -121 0
949 -109 121 0
949 109 -121 0
-950 949 142 0
-950 -949 -142 0
950 -949 142 0
950 949 -142 0
-951 950 241 0
-951 -950 -241 0
951 -950 241 0
951 950 -241 0
-952 951 282 0
-952 -951 -282 0
952 -951 282 0
952 951 -282 0
-953 952 287 0
-953 -952 -287 0
953 -952 287 0
953 952 -287 0
-953 0
-954 110 122 0
-954 -110 -122 0
954 -110 122 0
954 110 -122 0
-955 954 143 0
-955 -954 -143 0
955 -954 143 0
955 954 -143 0
-956 955 242 0
-956 -955 -242 0
956 -955 242 0
956 955 -242 0
-957 956 283 0
-957 -956 -283 0
957 -956 283 0
957 956 -283 0
-958 957 288 0
-958 -957 -288 0
958 -957 288 0
958 957 -288 0
-958 0
-959 111 123 0
-959 -111 -123 0
959 -111 123 0
959 111 -123 0
-960 959 144 0
-960 -959 -144 0
960 -959 144 0
960 959 -144 0
-961 960 243 0
-961 -960 -243 0
961 -960 243 0
961 960 -243 0
-962 961 277 0
-962 -961 -277 0
962 -961 277 0
962 961 -277 0
-963 962 284 0
-963 -962 -284 0
963 -962 284 0
963 962 -284 0
-963 0
-964 112 124 0
-964 -112 -124 0
964 -112 124 0
964 112 -124 0
-965 964 133 0
-965 -964 -133 0
965 -964 133 0
965 964 -133 0
-966 965 244 0
-966 -965 -244 0
966 -965 244 0
966 965 -244 0
-967 966 278 0
-967 -966 -278 0
967 -966 278 0
967 966 -278 0
-968 967 285 0
-968 -967 -285 0
968 -967 285 0
968 967 -285 0
-968 0
-969 113 125 0
-969 -113 -125 0
969 -113 125 0
969 113 -125 0
-970 969 134 0
-970 -969 -134 0
970 -969 134 0
970 969 -134 0
-971 970 245 0
-971 -970 -245 0
971 -970 245 0
971 970 -245 0
-972 971 279 0
-972 -971 -279 0
972 -971 279 0
972 971 -279 0
-973 972 286 0
-973 -972 -286 0
973 -972 286 0
973 972 -286 0
-973 0
-974 114 126 0
-974 -114 -126 0
974 -114 126 0
974 114 -126 0
-975 974 135 0
-975 -974 -135 0
975 -974 135 0
975 974 -135 0
-976 975 246 0
-976 -975 -246 0
976 -975 246 0
976 975 -246 0
-977 976 280 0
-977 -976 -280 0
977 -976 280 0
977 976 -280 0
-978 977 287 0
-978 -977 -287 0
978 -977 287 0
978 977 -287 0
-978 0
-979 115 127 0
-979 -115 -127 0
979 -115 127 0
979 115 -127 0
-980 979 136 0
-980 -979 -136 0
980 -979 136 0
980 979 -136 0
-981 980 247 0
-981 -980 -247 0
981 -980 247 0
981 980 -247 0
-982 981 281 0
-982 -981 -281 0
982 -981 281 0
982 981 -281 0
-983 982 288 0
-983 -982 -288 0
983 -982 288 0
983 982 -288 0
-983 0
-984 116 128 0
-984 -116 -128 0
984 -116 128 0
984 116 -128 0
-985 984 137 0
-985 -984 -137 0
985 -984 137 0
985 984 -137 0
-986 985 248 0
-986 -985 -248 0
986 -985 248 0
986 985 -248 0
-987 986 277 0
-987 -986 -277 0
987 -986 277 0
987 986 -277 0
-988 987 282 0
-988 -987 -282 0
988 -987 282 0
988 987 -282 0
-988 0
-989 117 129 0
-989 -117 -129 0
989 -117 129 0
989 117 -129 0
-990 989 138 0
-990 -989 -138 0
990 -989 138 0
990 989 -138 0
-991 990 249 0
-991 -990 -249 0
991 -990 249 0
991 990 -249 0
-992 991 278 0
-992 -991 -278 0
992 -991 278 0
992 991 -278 0
-993 992 283 0
-993 -992 -283 0
993 -992 283 0
993 992 -283 0
-993 0
-994 118 130 0
-994 -118 -130 0
994 -118 130 0
994 118 -130 0
-995 994 139 0
-995 -994 -139 0
995 -994 139 0
995 994 -139 0
-996 995 250 0
-996 -995 -250 0
996 -995 250 0
996 995 -250 0
-997 996 279 0
-997 -996 -279 0
997 -996 279 0
997 996 -279 0
-998 997 284 0
-998 -997 -284 0
998 -997 284 0
998 997 -284 0
-998 0
-999 119 131 0
-999 -119 -131 0
999 -119 131 0
999 119 -131 0
-1000 999 140 0
-1000 -999 -140 0
1000 -999 140 0
1000 999 -140 0
-1001 1000 251 0
-1001 -1000 -251 0
1001 -1000 251 0
1001 1000 -251 0
-1002 1001 280 0
-1002 -1001 -280 0
1002 -1001 280 0
1002 1001 -280 0
-1003 1002 285 0
-1003 -1002 -285 0
1003 -1002 285 0
1003 1002 -285 0
-1003 0
-1004 120 132 0
-1004 -120 -132 0
1004 -120 132 0
1004 120 -132 0
-1005 1004 141 0
-1005 -1004 -141 0
1005 -1004 141 0
1005 1004 -141 0
-1006 1005 252 0
-1006 -1005 -252 0
1006 -1005 252 0
1006 1005 -252 0
-1007 1006 281 0
-1007 -1006 -281 0
1007 -1006 281 0
1007 1006 -281 0
-1008 1007 286 0
-1008 -1007 -286 0
1008 -1007 286 0
1008 1007 -286 0
-1008 0
-1009 3 6 0
-1009 -3 -6 0
1009 -3 6 0
1009 3 -6 0
-1010 1009 10 0
-1010 -1009 -10 0
1010 -1009 10 0
1010 1009 -10 0
-1011 1010 11 0
-1011 -1010 -11 0
1011 -1010 11 0
1011 1010 -11 0
-1012 1011 37 0
-1012 -1011 -37 0
1012 -1011 37 0
1012 1011 -37 0
-1013 1012 39 0
-1013 -1012 -39 0
1013 -1012 39 0
1013 1012 -39 0
-1014 1013 45 0
-1014 -1013 -45 0
1014 -1013 45 0
1014 1013 -45 0
-1015 1014 47 0
-1015 -1014 -47 0
1015 -1014 47 0
1015 1014 -47 0
-1016 1015 73 0
-1016 -1015 -73 0
1016 -1015 73 0
1016 1015 -73 0
-1017 1016 74 0
-1017 -1016 -74 0
1017 -1016 74 0
1017 1016 -74 0
-1018 1017 76 0
-1018 -1017 -76 0
1018 -1017 76 0
1018 1017 -76 0
-1019 1018 78 0
-1019 -1018 -78 0
1019 -1018 78 0
1019 1018 -78 0
-1020 1019 79 0
-1020 -1019 -79 0
1020 -1019 79 0
1020 1019 -79 0
-1021 1020 80 0
-1021 -1020 -80 0
1021 -1020 80 0
1021 1020 -80 0
-1022 1021 81 0
-1022 -1021 -81 0
1022 -1021 81 0
1022 1021 -81 0
-1023 1022 83 0
-1023 -1022 -83 0
1023 -1022 83 0
1023 1022 -83 0
-1024 1023 109 0
-1024 -1023 -109 0
1024 -1023 109 0
1024 1023 -109 0
-1025 1024 113 0
-1025 -1024 -113 0
1025 -1024 113 0
1025 1024 -113 0
-1026 4 7 0
-1026 -4 -7 0
1026 -4 7 0
1026 4 -7 0
-1027 1026 11 0
-1027 -1026 -11 0
1027 -1026 11 0
1027 1026 -11 0
-1028 1027 12 0
-1028 -1027 -12 0
1028 -1027 12 0
1028 1027 -12 0
-1029 1028 38 0
-1029 -1028 -38 0
1029 -1028 38 0
1029 1028 -38 0
-1030 1029 40 0
-1030 -1029 -40 0
1030 -1029 40 0
1030 1029 -40 0
-1031 1030 46 0
-1031 -1030 -46 0
1031 -1030 46 0
1031 1030 -46 0
-1032 1031 48 0
-1032 -1031 -48 0
1032 -1031 48 0
1032 1031 -48 0
-1033 1032 74 0
-1033 -1032 -74 0
1033 -1032 74 0
1033 1032 -74 0
-1034 1033 75 0
-1034 -1033 -75 0
1034 -1033 75 0
1034 1033 -75 0
-1035 1034 77 0
-1035 -1034 -77 0
1035 -1034 77 0
1035 1034 -77 0
-1036 1035 79 0
-1036 -1035 -79 0
1036 -1035 79 0
1036 1035 -79 0
-1037 1036 80 0
-1037 -1036 -80 0
1037 -1036 80 0
1037 1036 -80 0
-1038 1037 81 0
-1038 -1037 -81 0
1038 -1037 81 0
1038 1037 -81 0
-1039 1038 82 0
-1039 -1038 -82 0
1039 -1038 82 0
1039 1038 -82 0
-1040 1039 84 0
-1040 -1039 -84 0
1040 -1039 84 0
1040 1039 -84 0
-1041 1040 110 0
-1041 -1040 -110 0
1041 -1040 110 0
1041 1040 -110 0
-1042 1041 114 0
-1042 -1041 -114 0
1042 -1041 114 0
1042 1041 -114 0
-1043 1 5 0
-1043 -1 -5 0
1043 -1 5 0
1043 1 -5 0
-1044 1043 8 0
-1044 -1043 -8 0
1044 -1043 8 0
1044 1043 -8 0
-1045 1044 12 0
-1045 -1044 -12 0
1045 -1044 12 0
1045 1044 -12 0
-1046 1045 37 0
-1046 -1045 -37 0
1046 -1045 37 0
1046 1045 -37 0
-1047 1046 39 0
-1047 -1046 -39 0
1047 -1046 39 0
1047 1046 -39 0
-1048 1047 41 0
-1048 -1047 -41 0
1048 -1047 41 0
1048 1047 -41 0
-1049 1048 47 0
-1049 -1048 -47 0
1049 -1048 47 0
1049 1048 -47 0
-1050 1049 73 0
-1050 -1049 -73 0
1050 -1049 73 0
1050 1049 -73 0
-1051 1050 75 0
-1051 -1050 -75 0
1051 -1050 75 0
1051 1050 -75 0
-1052 1051 76 0
-1052 -1051 -76 0
1052 -1051 76 0
1052 1051 -76 0
-1053 1052 78 0
-1053 -1052 -78 0
1053 -1052 78 0
1053 1052 -78 0
-1054 1053 80 0
-1054 -1053 -80 0
1054 -1053 80 0
1054 1053 -80 0
-1055 1054 81 0
-1055 -1054 -81 0
1055 -1054 81 0
1055 1054 -81 0
-1056 1055 82 0
-1056 -1055 -82 0
1056 -1055 82 0
1056 1055 -82 0
-1057 1056 83 0
-1057 -1056 -83 0
1057 -1056 83 0
1057 1056 -83 0
-1058 1057 111 0
-1058 -1057 -111 0
1058 -1057 111 0
1058 1057 -111 0
-1059 1058 115 0
-1059 -1058 -115 0
1059 -1058 115 0
1059 1058 -115 0
-1060 1 2 0
-1060 -1 -2 0
1060 -1 2 0
1060 1 -2 0
-1061 1060 6 0
-1061 -1060 -6 0
1061 -1060 6 0
1061 1060 -6 0
-1062 1061 9 0
-1062 -1061 -9 0
1062 -1061 9 0
1062 1061 -9 0
-1063 1062 38 0
-1063 -1062 -38 0
1063 -1062 38 0
1063 1062 -38 0
-1064 1063 40 0
-1064 -1063 -40 0
1064 -1063 40 0
1064 1063 -40 0
-1065 1064 42 0
-1065 -1064 -42 0
1065 -1064 42 0
1065 1064 -42 0
-1066 1065 48 0
-1066 -1065 -48 0
1066 -1065 48 0
1066 1065 -48 0
-1067 1066 74 0
-1067 -1066 -74 0
1067 -1066 74 0
1067 1066 -74 0
-1068 1067 76 0
-1068 -1067 -76 0
1068 -1067 76 0
1068 1067 -76 0
-1069 1068 77 0
-1069 -1068 -77 0
1069 -1068 77 0
1069 1068 -77 0
-1070 1069 79 0
-1070 -1069 -79 0
1070 -1069 79 0
1070 1069 -79 0
-1071 1070 81 0
-1071 -1070 -81 0
1071 -1070 81 0
1071 1070 -81 0
-1072 1071 82 0
-1072 -1071 -82 0
1072 -1071 82 0
1072 1071 -82 0
-1073 1072 83 0
-1073 -1072 -83 0
1073 -1072 83 0
1073 1072 -83 0
-1074 1073 84 0
-1074 -1073 -84 0
1074 -1073 84 0
1074 1073 -84 0
-1075 1074 112 0
-1075 -1074 -112 0
1075 -1074 112 0
1075 1074 -112 0
-1076 1075 116 0
-1076 -1075 -116 0
1076 -1075 116 0
1076 1075 -116 0
-1077 15 18 0
-1077 -15 -18 0
1077 -15 18 0
1077 15 -18 0
-1078 1077 22 0
-1078 -1077 -22 0
1078 -1077 22 0
1078 1077 -22 0
-1079 1078 23 0
-1079 -1078 -23 0
1079 -1078 23 0
1079 1078 -23 0
-1080 1079 49 0
-1080 -1079 -49 0
1080 -1079 49 0
1080 1079 -49 0
-1081 1080 51 0
-1081 -1080 -51 0
1081 -1080 51 0
1081 1080 -51 0
-1082 1081 57 0
-1082 -1081 -57 0
1082 -1081 57 0
1082 1081 -57 0
-1083 1082 59 0
-1083 -1082 -59 0
1083 -1082 59 0
1083 1082 -59 0
-1084 1083 85 0
-1084 -1083 -85 0
1084 -1083 85 0
1084 1083 -85 0
-1085 1084 86 0
-1085 -1084 -86 0
1085 -1084 86 0
1085 1084 -86 0
-1086 1085 88 0
-1086 -1085 -88 0
1086 -1085 88 0
1086 1085 -88 0
-1087 1086 90 0
-1087 -1086 -90 0
1087 -1086 90 0
1087 1086 -90 0
-1088 1087 91 0
-1088 -1087 -91 0
1088 -1087 91 0
1088 1087 -91 0
-1089 1088 92 0
-1089 -1088 -92 0
1089 -1088 92 0
1089 1088 -92 0
-1090 1089 93 0
-1090 -1089 -93 0
1090 -1089 93 0
1090 1089 -93 0
-1091 1090 95 0
-1091 -1090 -95 0
1091 -1090 95 0
1091 1090 -95 0
-1092 1091 121 0
-1092 -1091 -121 0
1092 -1091 121 0
1092 1091 -121 0
-1093 1092 125 0
-1093 -1092 -125 0
1093 -1092 125 0
1093 1092 -125 0
-1094 16 19 0
-1094 -16 -19 0
1094 -16 19 0
1094 16 -19 0
-1095 1094 23 0
-1095 -1094 -23 0
1095 -1094 23 0
1095 1094 -23 0
-1096 1095 24 0
-1096 -1095 -24 0
1096 -1095 24 0
1096 1095 -24 0
-1097 1096 50 0
-1097 -1096 -50 0
1097 -1096 50 0
1097 1096 -50 0
-1098 1097 52 0
-1098 -1097 -52 0
1098 -1097 52 0
1098 1097 -52 0
-1099 1098 58 0
-1099 -1098 -58 0
1099 -1098 58 0
1099 1098 -58 0
-1100 1099 60 0
-1100 -1099 -60 0
1100 -1099 60 0
1100 1099 -60 0
-1101 1100 86 0
-1101 -1100 -86 0
1101 -1100 86 0
1101 1100 -86 0
-1102 1101 87 0
-1102 -1101 -87 0
1102 -1101 87 0
1102 1101 -87 0
-1103 1102 89 0
-1103 -1102 -89 0
1103 -1102 89 0
1103 1102 -89 0
-1104 1103 91 0
-1104 -1103 -91 0
1104 -1103 91 0
1104 1103 -91 0
-1105 1104 92 0
-1105 -1104 -92 0
1105 -1104 92 0
1105 1104 -92 0
-1106 1105 93 0
-1106 -1105 -93 0
1106 -1105 93 0
1106 1105 -93 0
-1107 1106 94 0
-1107 -1106 -94 0
1107 -1106 94 0
1107 1106 -94 0
-1108 1107 96 0
-1108 -1107 -96 0
1108 -1107 96 0
1108 1107 -96 0
-1109 1108 122 0
-1109 -1108 -122 0
1109 -1108 122 0
1109 1108 -122 0
-1110 1109 126 0
-1110 -1109 -126 0
1110 -1109 126 0
1110 1109 -126 0
-1111 1 2 0
-1111 -1 -2 0
1111 -1 2 0
1111 1 -2 0
-1112 1111 6 0
-1112 -1111 -6 0
1112 -1111 6 0
1112 1111 -6 0
-1113 1112 7 0
-1113 -1112 -7 0
1113 -1112 7 0
1113 1112 -7 0
-1114 1113 8 0
-1114 -1113 -8 0
1114 -1113 8 0
1114 1113 -8 0
-1115 1114 9 0
-1115 -1114 -9 0
1115 -1114 9 0
1115 1114 -9 0
-1116 1115 11 0
-1116 -1115 -11 0
1116 -1115 11 0
1116 1115 -11 0
-1117 1116 12 0
-1117 -1116 -12 0
1117 -1116 12 0
1117 1116 -12 0
-1118 1117 13 0
-1118 -1117 -13 0
1118 -1117 13 0
1118 1117 -13 0
-1119 1118 16 0
-1119 -1118 -16 0
1119 -1118 16 0
1119 1118 -16 0
-1120 1119 18 0
-1120 -1119 -18 0
1120 -1119 18 0
1120 1119 -18 0
-1121 1120 21 0
-1121 -1120 -21 0
1121 -1120 21 0
1121 1120 -21 0
-1122 1121 24 0
-1122 -1121 -24 0
1122 -1121 24 0
1122 1121 -24 0
-1123 1122 37 0
-1123 -1122 -37 0
1123 -1122 37 0
1123 1122 -37 0
-1124 1123 39 0
-1124 -1123 -39 0
1124 -1123 39 0
1124 1123 -39 0
-1125 1124 42 0
-1125 -1124 -42 0
1125 -1124 42 0
1125 1124 -42 0
-1126 1125 43 0
-1126 -1125 -43 0
1126 -1125 43 0
1126 1125 -43 0
-1127 1126 45 0
-1127 -1126 -45 0
1127 -1126 45 0
1127 1126 -45 0
-1128 1127 47 0
-1128 -1127 -47 0
1128 -1127 47 0
1128 1127 -47 0
-1129 1128 49 0
-1129 -1128 -49 0
1129 -1128 49 0
1129 1128 -49 0
-1130 1129 51 0
-1130 -1129 -51 0
1130 -1129 51 0
1130 1129 -51 0
-1131 1130 53 0
-1131 -1130 -53 0
1131 -1130 53 0
1131 1130 -53 0
-1132 1131 54 0
-1132 -1131 -54 0
1132 -1131 54 0
1132 1131 -54 0
-1133 1132 55 0
-1133 -1132 -55 0
1133 -1132 55 0
1133 1132 -55 0
-1134 1133 57 0
-1134 -1133 -57 0
1134 -1133 57 0
1134 1133 -57 0
-1135 1134 59 0
-1135 -1134 -59 0
1135 -1134 59 0
1135 1134 -59 0
-1136 1135 73 0
-1136 -1135 -73 0
1136 -1135 73 0
1136 1135 -73 0
-1137 1136 74 0
-1137 -1136 -74 0
1137 -1136 74 0
1137 1136 -74 0
-1138 1137 77 0
-1138 -1137 -77 0
1138 -1137 77 0
1138 1137 -77 0
-1139 1138 78 0
-1139 -1138 -78 0
1139 -1138 78 0
1139 1138 -78 0
-1140 1139 79 0
-1140 -1139 -79 0
1140 -1139 79 0
1140 1139 -79 0
-1141 1140 80 0
-1141 -1140 -80 0
1141 -1140 80 0
1141 1140 -80 0
-1142 1141 81 0
-1142 -1141 -81 0
1142 -1141 81 0
1142 1141 -81 0
-1143 1142 84 0
-1143 -1142 -84 0
1143 -1142 84 0
1143 1142 -84 0
-1144 1143 85 0
-1144 -1143 -85 0
1144 -1143 85 0
1144 1143 -85 0
-1145 1144 86 0
-1145 -1144 -86 0
1145 -1144 86 0
1145 1144 -86 0
-1146 1145 87 0
-1146 -1145 -87 0
1146 -1145 87 0
1146 1145 -87 0
-1147 1146 89 0
-1147 -1146 -89 0
1147 -1146 89 0
1147 1146 -89 0
-1148 1147 90 0
-1148 -1147 -90 0
1148 -1147 90 0
1148 1147 -90 0
-1149 1148 91 0
-1149 -1148 -91 0
1149 -1148 91 0
1149 1148 -91 0
-1150 1149 92 0
-1150 -1149 -92 0
1150 -1149 92 0
1150 1149 -92 0
-1151 1150 93 0
-1151 -1150 -93 0
1151 -1150 93 0
1151 1150 -93 0
-1152 1151 94 0
-1152 -1151 -94 0
1152 -1151 94 0
1152 1151 -94 0
-1153 1152 96 0
-1153 -1152 -96 0
1153 -1152 96 0
1153 1152 -96 0
-1154 1153 109 0
-1154 -1153 -109 0
1154 -1153 109 0
1154 1153 -109 0
-1155 1154 110 0
-1155 -1154 -110 0
1155 -1154 110 0
1155 1154 -110 0
-1156 1155 111 0
-1156 -1155 -111 0
1156 -1155 111 0
1156 1155 -111 0
-1157 1156 112 0
-1157 -1156 -112 0
1157 -1156 112 0
1157 1156 -112 0
-1158 1157 122 0
-1158 -1157 -122 0
1158 -1157 122 0
1158 1157 -122 0
-1159 1158 124 0
-1159 -1158 -124 0
1159 -1158 124 0
1159 1158 -124 0
-1160 1159 145 0
-1160 -1159 -145 0
1160 -1159 145 0
1160 1159 -145 0
-1161 1160 146 0
-1161 -1160 -146 0
1161 -1160 146 0
1161 1160 -146 0
-1162 1161 148 0
-1162 -1161 -148 0
1162 -1161 148 0
1162 1161 -148 0
-1163 1162 150 0
-1163 -1162 -150 0
1163 -1162 150 0
1163 1162 -150 0
-1164 1163 151 0
-1164 -1163 -151 0
1164 -1163 151 0
1164 1163 -151 0
-1165 1164 157 0
-1165 -1164 -157 0
1165 -1164 157 0
1165 1164 -157 0
-1166 1165 158 0
-1166 -1165 -158 0
1166 -1165 158 0
1166 1165 -158 0
-1167 1166 160 0
-1167 -1166 -160 0
1167 -1166 160 0
1167 1166 -160 0
-1168 1167 162 0
-1168 -1167 -162 0
1168 -1167 162 0
1168 1167 -162 0
-1169 1168 163 0
-1169 -1168 -163 0
1169 -1168 163 0
1169 1168 -163 0
-1170 14 15 0
-1170 -14 -15 0
1170 -14 15 0
1170 14 -15 0
-1171 1170 16 0
-1171 -1170 -16 0
1171 -1170 16 0
1171 1170 -16 0
-1172 1171 17 0
-1172 -1171 -17 0
1172 -1171 17 0
1172 1171 -17 0
-1173 1172 19 0
-1173 -1172 -19 0
1173 -1172 19 0
1173 1172 -19 0
-1174 1173 21 0
-1174 -1173 -21 0
1174 -1173 21 0
1174 1173 -21 0
-1175 1174 23 0
-1175 -1174 -23 0
1175 -1174 23 0
1175 1174 -23 0
-1176 1175 24 0
-1176 -1175 -24 0
1176 -1175 24 0
1176 1175 -24 0
-1177 1176 38 0
-1177 -1176 -38 0
1177 -1176 38 0
1177 1176 -38 0
-1178 1177 40 0
-1178 -1177 -40 0
1178 -1177 40 0
1178 1177 -40 0
-1179 1178 42 0
-1179 -1178 -42 0
1179 -1178 42 0
1179 1178 -42 0
-1180 1179 44 0
-1180 -1179 -44 0
1180 -1179 44 0
1180 1179 -44 0
-1181 1180 46 0
-1181 -1180 -46 0
1181 -1180 46 0
1181 1180 -46 0
-1182 1181 48 0
-1182 -1181 -48 0
1182 -1181 48 0
1182 1181 -48 0
-1183 1182 50 0
-1183 -1182 -50 0
1183 -1182 50 0
1183 1182 -50 0
-1184 1183 52 0
-1184 -1183 -52 0
1184 -1183 52 0
1184 1183 -52 0
-1185 1184 53 0
-1185 -1184 -53 0
1185 -1184 53 0
1185 1184 -53 0
-1186 1185 56 0
-1186 -1185 -56 0
1186 -1185 56 0
1186 1185 -56 0
-1187 1186 58 0
-1187 -1186 -58 0
1187 -1186 58 0
1187 1186 -58 0
-1188 1187 60 0
-1188 -1187 -60 0
1188 -1187 60 0
1188 1187 -60 0
-1189 1188 73 0
-1189 -1188 -73 0
1189 -1188 73 0
1189 1188 -73 0
-1190 1189 74 0
-1190 -1189 -74 0
1190 -1189 74 0
1190 1189 -74 0
-1191 1190 75 0
-1191 -1190 -75 0
1191 -1190 75 0
1191 1190 -75 0
-1192 1191 76 0
-1192 -1191 -76 0
1192 -1191 76 0
1192 1191 -76 0
-1193 1192 77 0
-1193 -1192 -77 0
1193 -1192 77 0
1193 1192 -77 0
-1194 1193 78 0
-1194 -1193 -78 0
1194 -1193 78 0
1194 1193 -78 0
-1195 1194 79 0
-1195 -1194 -79 0
1195 -1194 79 0
1195 1194 -79 0
-1196 1195 80 0
-1196 -1195 -80 0
1196 -1195 80 0
1196 1195 -80 0
-1197 1196 81 0
-1197 -1196 -81 0
1197 -1196 81 0
1197 1196 -81 0
-1198 1197 82 0
-1198 -1197 -82 0
1198 -1197 82 0
1198 1197 -82 0
-1199 1198 83 0
-1199 -1198 -83 0
1199 -1198 83 0
1199 1198 -83 0
-1200 1199 84 0
-1200 -1199 -84 0
1200 -1199 84 0
1200 1199 -84 0
-1201 1200 85 0
-1201 -1200 -85 0
1201 -1200 85 0
1201 1200 -85 0
-1202 1201 86 0
-1202 -1201 -86 0
1202 -1201 86 0
1202 1201 -86 0
-1203 1202 89 0
-1203 -1202 -89 0
1203 -1202 89 0
1203 1202 -89 0
-1204 1203 90 0
-1204 -1203 -90 0
1204 -1203 90 0
1204 1203 -90 0
-1205 1204 91 0
-1205 -1204 -91 0
1205 -1204 91 0
1205 1204 -91 0
-1206 1205 92 0
-1206 -1205 -92 0
1206 -1205 92 0
1206 1205 -92 0
-1207 1206 93 0
-1207 -1206 -93 0
1207 -1206 93 0
1207 1206 -93 0
-1208 1207 96 0
-1208 -1207 -96 0
1208 -1207 96 0
1208 1207 -96 0
-1209 1208 121 0
-1209 -1208 -121 0
1209 -1208 121 0
1209 1208 -121 0
-1210 1209 122 0
-1210 -1209 -122 0
1210 -1209 122 0
1210 1209 -122 0
-1211 1210 123 0
-1211 -1210 -123 0
1211 -1210 123 0
1211 1210 -123 0
-1212 1211 124 0
-1212 -1211 -124 0
1212 -1211 124 0
1212 1211 -124 0
-1213 1212 145 0
-1213 -1212 -145 0
1213 -1212 145 0
1213 1212 -145 0
-1214 1213 147 0
-1214 -1213 -147 0
1214 -1213 147 0
1214 1213 -147 0
-1215 1214 148 0
-1215 -1214 -148 0
1215 -1214 148 0
1215 1214 -148 0
-1216 1215 149 0
-1216 -1215 -149 0
1216 -1215 149 0
1216 1215 -149 0
-1217 1216 150 0
-1217 -1216 -150 0
1217 -1216 150 0
1217 1216 -150 0
-1218 1217 152 0
-1218 -1217 -152 0
1218 -1217 152 0
1218 1217 -152 0
-1219 1218 157 0
-1219 -1218 -157 0
1219 -1218 157 0
1219 1218 -157 0
-1220 1219 159 0
-1220 -1219 -159 0
1220 -1219 159 0
1220 1219 -159 0
-1221 1220 160 0
-1221 -1220 -160 0
1221 -1220 160 0
1221 1220 -160 0
-1222 1221 161 0
-1222 -1221 -161 0
1222 -1221 161 0
1222 1221 -161 0
-1223 1222 162 0
-1223 -1222 -162 0
1223 -1222 162 0
1223 1222 -162 0
-1224 1223 164 0
-1224 -1223 -164 0
1224 -1223 164 0
1224 1223 -164 0
-1225 2 7 0
-1225 -2 -7 0
1225 -2 7 0
1225 2 -7 0
-1226 1225 9 0
-1226 -1225 -9 0
1226 -1225 9 0
1226 1225 -9 0
-1227 1226 12 0
-1227 -1226 -12 0
1227 -1226 12 0
1227 1226 -12 0
-1228 1227 13 0
-1228 -1227 -13 0
1228 -1227 13 0
1228 1227 -13 0
-1229 1228 14 0
-1229 -1228 -14 0
1229 -1228 14 0
1229 1228 -14 0
-1230 1229 21 0
-1230 -1229 -21 0
1230 -1229 21 0
1230 1229 -21 0
-1231 1230 24 0
-1231 -1230 -24 0
1231 -1230 24 0
1231 1230 -24 0
-1232 1231 27 0
-1232 -1231 -27 0
1232 -1231 27 0
1232 1231 -27 0
-1233 1232 28 0
-1233 -1232 -28 0
1233 -1232 28 0
1233 1232 -28 0
-1234 1233 29 0
-1234 -1233 -29 0
1234 -1233 29 0
1234 1233 -29 0
-1235 1234 30 0
-1235 -1234 -30 0
1235 -1234 30 0
1235 1234 -30 0
-1236 1235 33 0
-1236 -1235 -33 0
1236 -1235 33 0
1236 1235 -33 0
-1237 1236 36 0
-1237 -1236 -36 0
1237 -1236 36 0
1237 1236 -36 0
-1238 1237 42 0
-1238 -1237 -42 0
1238 -1237 42 0
1238 1237 -42 0
-1239 1238 54 0
-1239 -1238 -54 0
1239 -1238 54 0
1239 1238 -54 0
-1240 1239 61 0
-1240 -1239 -61 0
1240 -1239 61 0
1240 1239 -61 0
-1241 1240 62 0
-1241 -1240 -62 0
1241 -1240 62 0
1241 1240 -62 0
-1242 1241 63 0
-1242 -1241 -63 0
1242 -1241 63 0
1242 1241 -63 0
-1243 1242 64 0
-1243 -1242 -64 0
1243 -1242 64 0
1243 1242 -64 0
-1244 1243 65 0
-1244 -1243 -65 0
1244 -1243 65 0
1244 1243 -65 0
-1245 1244 67 0
-1245 -1244 -67 0
1245 -1244 67 0
1245 1244 -67 0
-1246 1245 68 0
-1246 -1245 -68 0
1246 -1245 68 0
1246 1245 -68 0
-1247 1246 69 0
-1247 -1246 -69 0
1247 -1246 69 0
1247 1246 -69 0
-1248 1247 70 0
-1248 -1247 -70 0
1248 -1247 70 0
1248 1247 -70 0
-1249 1248 71 0
-1249 -1248 -71 0
1249 -1248 71 0
1249 1248 -71 0
-1250 1249 72 0
-1250 -1249 -72 0
1250 -1249 72 0
1250 1249 -72 0
-1251 1250 76 0
-1251 -1250 -76 0
1251 -1250 76 0
1251 1250 -76 0
-1252 1251 83 0
-1252 -1251 -83 0
1252 -1251 83 0
1252 1251 -83 0
-1253 1252 88 0
-1253 -1252 -88 0
1253 -1252 88 0
1253 1252 -88 0
-1254 1253 95 0
-1254 -1253 -95 0
1254 -1253 95 0
1254 1253 -95 0
-1255 1254 100 0
-1255 -1254 -100 0
1255 -1254 100 0
1255 1254 -100 0
-1256 1255 107 0
-1256 -1255 -107 0
1256 -1255 107 0
1256 1255 -107 0
-1257 1256 110 0
-1257 -1256 -110 0
1257 -1256 110 0
1257 1256 -110 0
-1258 1257 112 0
-1258 -1257 -112 0
1258 -1257 112 0
1258 1257 -112 0
-1259 1258 122 0
-1259 -1258 -122 0
1259 -1258 122 0
1259 1258 -122 0
-1260 1259 124 0
-1260 -1259 -124 0
1260 -1259 124 0
1260 1259 -124 0
-1261 1260 134 0
-1261 -1260 -134 0
1261 -1260 134 0
1261 1260 -134 0
-1262 1261 136 0
-1262 -1261 -136 0
1262 -1261 136 0
1262 1261 -136 0
-1263 1262 145 0
-1263 -1262 -145 0
1263 -1262 145 0
1263 1262 -145 0
-1264 1263 151 0
-1264 -1263 -151 0
1264 -1263 151 0
1264 1263 -151 0
-1265 1264 157 0
-1265 -1264 -157 0
1265 -1264 157 0
1265 1264 -157 0
-1266 1265 158 0
-1266 -1265 -158 0
1266 -1265 158 0
1266 1265 -158 0
-1267 1266 159 0
-1267 -1266 -159 0
1267 -1266 159 0
1267 1266 -159 0
-1268 1267 160 0
-1268 -1267 -160 0
1268 -1267 160 0
1268 1267 -160 0
-1269 1268 161 0
-1269 -1268 -161 0
1269 -1268 161 0
1269 1268 -161 0
-1270 1269 162 0
-1270 -1269 -162 0
1270 -1269 162 0
1270 1269 -162 0
-1271 1270 169 0
-1271 -1270 -169 0
1271 -1270 169 0
1271 1270 -169 0
-1272 1271 171 0
-1272 -1271 -171 0
1272 -1271 171 0
1272 1271 -171 0
-1273 1272 173 0
-1273 -1272 -173 0
1273 -1272 173 0
1273 1272 -173 0
-1274 2 7 0
-1274 -2 -7 0
1274 -2 7 0
1274 2 -7 0
-1275 1274 9 0
-1275 -1274 -9 0
1275 -1274 9 0
1275 1274 -9 0
-1276 1275 12 0
-1276 -1275 -12 0
1276 -1275 12 0
1276 1275 -12 0
-1277 1276 14 0
-1277 -1276 -14 0
1277 -1276 14 0
1277 1276 -14 0
-1278 1277 16 0
-1278 -1277 -16 0
1278 -1277 16 0
1278 1277 -16 0
-1279 1278 21 0
-1279 -1278 -21 0
1279 -1278 21 0
1279 1278 -21 0
-1280 1279 23 0
-1280 -1279 -23 0
1280 -1279 23 0
1280 1279 -23 0
-1281 1280 24 0
-1281 -1280 -24 0
1281 -1280 24 0
1281 1280 -24 0
-1282 1281 25 0
-1282 -1281 -25 0
1282 -1281 25 0
1282 1281 -25 0
-1283 1282 27 0
-1283 -1282 -27 0
1283 -1282 27 0
1283 1282 -27 0
-1284 1283 28 0
-1284 -1283 -28 0
1284 -1283 28 0
1284 1283 -28 0
-1285 1284 29 0
-1285 -1284 -29 0
1285 -1284 29 0
1285 1284 -29 0
-1286 1285 31 0
-1286 -1285 -31 0
1286 -1285 31 0
1286 1285 -31 0
-1287 1286 35 0
-1287 -1286 -35 0
1287 -1286 35 0
1287 1286 -35 0
-1288 1287 42 0
-1288 -1287 -42 0
1288 -1287 42 0
1288 1287 -42 0
-1289 1288 53 0
-1289 -1288 -53 0
1289 -1288 53 0
1289 1288 -53 0
-1290 1289 54 0
-1290 -1289 -54 0
1290 -1289 54 0
1290 1289 -54 0
-1291 1290 62 0
-1291 -1290 -62 0
1291 -1290 62 0
1291 1290 -62 0
-1292 1291 64 0
-1292 -1291 -64 0
1292 -1291 64 0
1292 1291 -64 0
-1293 1292 65 0
-1293 -1292 -65 0
1293 -1292 65 0
1293 1292 -65 0
-1294 1293 66 0
-1294 -1293 -66 0
1294 -1293 66 0
1294 1293 -66 0
-1295 1294 68 0
-1295 -1294 -68 0
1295 -1294 68 0
1295 1294 -68 0
-1296 1295 70 0
-1296 -1295 -70 0
1296 -1295 70 0
1296 1295 -70 0
-1297 1296 72 0
-1297 -1296 -72 0
1297 -1296 72 0
1297 1296 -72 0
-1298 1297 76 0
-1298 -1297 -76 0
1298 -1297 76 0
1298 1297 -76 0
-1299 1298 83 0
-1299 -1298 -83 0
1299 -1298 83 0
1299 1298 -83 0
-1300 1299 87 0
-1300 -1299 -87 0
1300 -1299 87 0
1300 1299 -87 0
-1301 1300 88 0
-1301 -1300 -88 0
1301 -1300 88 0
1301 1300 -88 0
-1302 1301 94 0
-1302 -1301 -94 0
1302 -1301 94 0
1302 1301 -94 0
-1303 1302 95 0
-1303 -1302 -95 0
1303 -1302 95 0
1303 1302 -95 0
-1304 1303 97 0
-1304 -1303 -97 0
1304 -1303 97 0
1304 1303 -97 0
-1305 1304 98 0
-1305 -1304 -98 0
1305 -1304 98 0
1305 1304 -98 0
-1306 1305 100 0
-1306 -1305 -100 0
1306 -1305 100 0
1306 1305 -100 0
-1307 1306 101 0
-1307 -1306 -101 0
1307 -1306 101 0
1307 1306 -101 0
-1308 1307 102 0
-1308 -1307 -102 0
1308 -1307 102 0
1308 1307 -102 0
-1309 1308 103 0
-1309 -1308 -103 0
1309 -1308 103 0
1309 1308 -103 0
-1310 1309 104 0
-1310 -1309 -104 0
1310 -1309 104 0
1310 1309 -104 0
-1311 1310 105 0
-1311 -1310 -105 0
1311 -1310 105 0
1311 1310 -105 0
-1312 1311 107 0
-1312 -1311 -107 0
1312 -1311 107 0
1312 1311 -107 0
-1313 1312 108 0
-1313 -1312 -108 0
1313 -1312 108 0
1313 1312 -108 0
-1314 1313 110 0
-1314 -1313 -110 0
1314 -1313 110 0
1314 1313 -110 0
-1315 1314 112 0
-1315 -1314 -112 0
1315 -1314 112 0
1315 1314 -112 0
-1316 1315 121 0
-1316 -1315 -121 0
1316 -1315 121 0
1316 1315 -121 0
-1317 1316 122 0
-1317 -1316 -122 0
1317 -1316 122 0
1317 1316 -122 0
-1318 1317 123 0
-1318 -1317 -123 0
1318 -1317 123 0
1318 1317 -123 0
-1319 1318 124 0
-1319 -1318 -124 0
1319 -1318 124 0
1319 1318 -124 0
-1320 1319 133 0
-1320 -1319 -133 0
1320 -1319 133 0
1320 1319 -133 0
-1321 1320 135 0
-1321 -1320 -135 0
1321 -1320 135 0
1321 1320 -135 0
-1322 1321 145 0
-1322 -1321 -145 0
1322 -1321 145 0
1322 1321 -145 0
-1323 1322 148 0
-1323 -1322 -148 0
1323 -1322 148 0
1323 1322 -148 0
-1324 1323 150 0
-1324 -1323 -150 0
1324 -1323 150 0
1324 1323 -150 0
-1325 1324 151 0
-1325 -1324 -151 0
1325 -1324 151 0
1325 1324 -151 0
-1326 1325 152 0
-1326 -1325 -152 0
1326 -1325 152 0
1326 1325 -152 0
-1327 1326 157 0
-1327 -1326 -157 0
1327 -1326 157 0
1327 1326 -157 0
-1328 1327 159 0
-1328 -1327 -159 0
1328 -1327 159 0
1328 1327 -159 0
-1329 1328 161 0
-1329 -1328 -161 0
1329 -1328 161 0
1329 1328 -161 0
-1330 1329 170 0
-1330 -1329 -170 0
1330 -1329 170 0
1330 1329 -170 0
-1331 1330 172 0
-1331 -1330 -172 0
1331 -1330 172 0
1331 1330 -172 0
-1332 1331 174 0
-1332 -1331 -174 0
1332 -1331 174 0
1332 1331 -174 0
-1333 1 6 0
-1333 -1 -6 0
1333 -1 6 0
1333 1 -6 0
-1334 1333 8 0
-1334 -1333 -8 0
1334 -1333 8 0
1334 1333 -8 0
-1335 1334 11 0
-1335 -1334 -11 0
1335 -1334 11 0
1335 1334 -11 0
-1336 1335 19 0
-1336 -1335 -19 0
1336 -1335 19 0
1336 1335 -19 0
-1337 1336 20 0
-1337 -1336 -20 0
1337 -1336 20 0
1337 1336 -20 0
-1338 1337 21 0
-1338 -1337 -21 0
1338 -1337 21 0
1338 1337 -21 0
-1339 1338 24 0
-1339 -1338 -24 0
1339 -1338 24 0
1339 1338 -24 0
-1340 1339 27 0
-1340 -1339 -27 0
1340 -1339 27 0
1340 1339 -27 0
-1341 1340 29 0
-1341 -1340 -29 0
1341 -1340 29 0
1341 1340 -29 0
-1342 1341 30 0
-1342 -1341 -30 0
1342 -1341 30 0
1342 1341 -30 0
-1343 1342 31 0
-1343 -1342 -31 0
1343 -1342 31 0
1343 1342 -31 0
-1344 1343 33 0
-1344 -1343 -33 0
1344 -1343 33 0
1344 1343 -33 0
-1345 1344 35 0
-1345 -1344 -35 0
1345 -1344 35 0
1345 1344 -35 0
-1346 1345 36 0
-1346 -1345 -36 0
1346 -1345 36 0
1346 1345 -36 0
-1347 1346 37 0
-1347 -1346 -37 0
1347 -1346 37 0
1347 1346 -37 0
-1348 1347 39 0
-1348 -1347 -39 0
1348 -1347 39 0
1348 1347 -39 0
-1349 1348 43 0
-1349 -1348 -43 0
1349 -1348 43 0
1349 1348 -43 0
-1350 1349 45 0
-1350 -1349 -45 0
1350 -1349 45 0
1350 1349 -45 0
-1351 1350 47 0
-1351 -1350 -47 0
1351 -1350 47 0
1351 1350 -47 0
-1352 1351 54 0
-1352 -1351 -54 0
1352 -1351 54 0
1352 1351 -54 0
-1353 1352 61 0
-1353 -1352 -61 0
1353 -1352 61 0
1353 1352 -61 0
-1354 1353 62 0
-1354 -1353 -62 0
1354 -1353 62 0
1354 1353 -62 0
-1355 1354 63 0
-1355 -1354 -63 0
1355 -1354 63 0
1355 1354 -63 0
-1356 1355 64 0
-1356 -1355 -64 0
1356 -1355 64 0
1356 1355 -64 0
-1357 1356 67 0
-1357 -1356 -67 0
1357 -1356 67 0
1357 1356 -67 0
-1358 1357 68 0
-1358 -1357 -68 0
1358 -1357 68 0
1358 1357 -68 0
-1359 1358 69 0
-1359 -1358 -69 0
1359 -1358 69 0
1359 1358 -69 0
-1360 1359 70 0
-1360 -1359 -70 0
1360 -1359 70 0
1360 1359 -70 0
-1361 1360 71 0
-1361 -1360 -71 0
1361 -1360 71 0
1361 1360 -71 0
-1362 1361 72 0
-1362 -1361 -72 0
1362 -1361 72 0
1362 1361 -72 0
-1363 1362 73 0
-1363 -1362 -73 0
1363 -1362 73 0
1363 1362 -73 0
-1364 1363 74 0
-1364 -1363 -74 0
1364 -1363 74 0
1364 1363 -74 0
-1365 1364 76 0
-1365 -1364 -76 0
1365 -1364 76 0
1365 1364 -76 0
-1366 1365 77 0
-1366 -1365 -77 0
1366 -1365 77 0
1366 1365 -77 0
-1367 1366 78 0
-1367 -1366 -78 0
1367 -1366 78 0
1367 1366 -78 0
-1368 1367 79 0
-1368 -1367 -79 0
1368 -1367 79 0
1368 1367 -79 0
-1369 1368 80 0
-1369 -1368 -80 0
1369 -1368 80 0
1369 1368 -80 0
-1370 1369 81 0
-1370 -1369 -81 0
1370 -1369 81 0
1370 1369 -81 0
-1371 1370 83 0
-1371 -1370 -83 0
1371 -1370 83 0
1371 1370 -83 0
-1372 1371 84 0
-1372 -1371 -84 0
1372 -1371 84 0
1372 1371 -84 0
-1373 1372 88 0
-1373 -1372 -88 0
1373 -1372 88 0
1373 1372 -88 0
-1374 1373 95 0
-1374 -1373 -95 0
1374 -1373 95 0
1374 1373 -95 0
-1375 1374 99 0
-1375 -1374 -99 0
1375 -1374 99 0
1375 1374 -99 0
-1376 1375 100 0
-1376 -1375 -100 0
1376 -1375 100 0
1376 1375 -100 0
-1377 1376 106 0
-1377 -1376 -106 0
1377 -1376 106 0
1377 1376 -106 0
-1378 1377 107 0
-1378 -1377 -107 0
1378 -1377 107 0
1378 1377 -107 0
-1379 1378 109 0
-1379 -1378 -109 0
1379 -1378 109 0
1379 1378 -109 0
-1380 1379 111 0
-1380 -1379 -111 0
1380 -1379 111 0
1380 1379 -111 0
-1381 1380 122 0
-1381 -1380 -122 0
1381 -1380 122 0
1381 1380 -122 0
-1382 1381 124 0
-1382 -1381 -124 0
1382 -1381 124 0
1382 1381 -124 0
-1383 1382 133 0
-1383 -1382 -133 0
1383 -1382 133 0
1383 1382 -133 0
-1384 1383 134 0
-1384 -1383 -134 0
1384 -1383 134 0
1384 1383 -134 0
-1385 1384 135 0
-1385 -1384 -135 0
1385 -1384 135 0
1385 1384 -135 0
-1386 1385 136 0
-1386 -1385 -136 0
1386 -1385 136 0
1386 1385 -136 0
-1387 1386 146 0
-1387 -1386 -146 0
1387 -1386 146 0
1387 1386 -146 0
-1388 1387 152 0
-1388 -1387 -152 0
1388 -1387 152 0
1388 1387 -152 0
-1389 1388 157 0
-1389 -1388 -157 0
1389 -1388 157 0
1389 1388 -157 0
-1390 1389 159 0
-1390 -1389 -159 0
1390 -1389 159 0
1390 1389 -159 0
-1391 1390 161 0
-1391 -1390 -161 0
1391 -1390 161 0
1391 1390 -161 0
-1392 1391 169 0
-1392 -1391 -169 0
1392 -1391 169 0
1392 1391 -169 0
-1393 1392 175 0
-1393 -1392 -175 0
1393 -1392 175 0
1393 1392 -175 0
-1394 13 14 0
-1394 -13 -14 0
1394 -13 14 0
1394 13 -14 0
-1395 1394 15 0
-1395 -1394 -15 0
1395 -1394 15 0
1395 1394 -15 0
-1396 1395 17 0
-1396 -1395 -17 0
1396 -1395 17 0
1396 1395 -17 0
-1397 1396 19 0
-1397 -1396 -19 0
1397 -1396 19 0
1397 1396 -19 0
-1398 1397 21 0
-1398 -1397 -21 0
1398 -1397 21 0
1398 1397 -21 0
-1399 1398 24 0
-1399 -1398 -24 0
1399 -1398 24 0
1399 1398 -24 0
-1400 1399 25 0
-1400 -1399 -25 0
1400 -1399 25 0
1400 1399 -25 0
-1401 1400 26 0
-1401 -1400 -26 0
1401 -1400 26 0
1401 1400 -26 0
-1402 1401 27 0
-1402 -1401 -27 0
1402 -1401 27 0
1402 1401 -27 0
-1403 1402 28 0
-1403 -1402 -28 0
1403 -1402 28 0
1403 1402 -28 0
-1404 1403 29 0
-1404 -1403 -29 0
1404 -1403 29 0
1404 1403 -29 0
-1405 1404 30 0
-1405 -1404 -30 0
1405 -1404 30 0
1405 1404 -30 0
-1406 1405 38 0
-1406 -1405 -38 0
1406 -1405 38 0
1406 1405 -38 0
-1407 1406 40 0
-1407 -1406 -40 0
1407 -1406 40 0
1407 1406 -40 0
-1408 1407 42 0
-1408 -1407 -42 0
1408 -1407 42 0
1408 1407 -42 0
-1409 1408 44 0
-1409 -1408 -44 0
1409 -1408 44 0
1409 1408 -44 0
-1410 1409 46 0
-1410 -1409 -46 0
1410 -1409 46 0
1410 1409 -46 0
-1411 1410 48 0
-1411 -1410 -48 0
1411 -1410 48 0
1411 1410 -48 0
-1412 1411 54 0
-1412 -1411 -54 0
1412 -1411 54 0
1412 1411 -54 0
-1413 1412 61 0
-1413 -1412 -61 0
1413 -1412 61 0
1413 1412 -61 0
-1414 1413 62 0
-1414 -1413 -62 0
1414 -1413 62 0
1414 1413 -62 0
-1415 1414 63 0
-1415 -1414 -63 0
1415 -1414 63 0
1415 1414 -63 0
-1416 1415 64 0
-1416 -1415 -64 0
1416 -1415 64 0
1416 1415 -64 0
-1417 1416 65 0
-1417 -1416 -65 0
1417 -1416 65 0
1417 1416 -65 0
-1418 1417 66 0
-1418 -1417 -66 0
1418 -1417 66 0
1418 1417 -66 0
-1419 1418 67 0
-1419 -1418 -67 0
1419 -1418 67 0
1419 1418 -67 0
-1420 1419 68 0
-1420 -1419 -68 0
1420 -1419 68 0
1420 1419 -68 0
-1421 1420 69 0
-1421 -1420 -69 0
1421 -1420 69 0
1421 1420 -69 0
-1422 1421 70 0
-1422 -1421 -70 0
1422 -1421 70 0
1422 1421 -70 0
-1423 1422 71 0
-1423 -1422 -71 0
1423 -1422 71 0
1423 1422 -71 0
-1424 1423 72 0
-1424 -1423 -72 0
1424 -1423 72 0
1424 1423 -72 0
-1425 1424 73 0
-1425 -1424 -73 0
1425 -1424 73 0
1425 1424 -73 0
-1426 1425 74 0
-1426 -1425 -74 0
1426 -1425 74 0
1426 1425 -74 0
-1427 1426 75 0
-1427 -1426 -75 0
1427 -1426 75 0
1427 1426 -75 0
-1428 1427 76 0
-1428 -1427 -76 0
1428 -1427 76 0
1428 1427 -76 0
-1429 1428 77 0
-1429 -1428 -77 0
1429 -1428 77 0
1429 1428 -77 0
-1430 1429 78 0
-1430 -1429 -78 0
1430 -1429 78 0
1430 1429 -78 0
-1431 1430 79 0
-1431 -1430 -79 0
1431 -1430 79 0
1431 1430 -79 0
-1432 1431 80 0
-1432 -1431 -80 0
1432 -1431 80 0
1432 1431 -80 0
-1433 1432 81 0
-1433 -1432 -81 0
1433 -1432 81 0
1433 1432 -81 0
-1434 1433 82 0
-1434 -1433 -82 0
1434 -1433 82 0
1434 1433 -82 0
-1435 1434 83 0
-1435 -1434 -83 0
1435 -1434 83 0
1435 1434 -83 0
-1436 1435 84 0
-1436 -1435 -84 0
1436 -1435 84 0
1436 1435 -84 0
-1437 1436 88 0
-1437 -1436 -88 0
1437 -1436 88 0
1437 1436 -88 0
-1438 1437 95 0
-1438 -1437 -95 0
1438 -1437 95 0
1438 1437 -95 0
-1439 1438 122 0
-1439 -1438 -122 0
1439 -1438 122 0
1439 1438 -122 0
-1440 1439 124 0
-1440 -1439 -124 0
1440 -1439 124 0
1440 1439 -124 0
-1441 1440 145 0
-1441 -1440 -145 0
1441 -1440 145 0
1441 1440 -145 0
-1442 1441 147 0
-1442 -1441 -147 0
1442 -1441 147 0
1442 1441 -147 0
-1443 1442 149 0
-1443 -1442 -149 0
1443 -1442 149 0
1443 1442 -149 0
-1444 1443 158 0
-1444 -1443 -158 0
1444 -1443 158 0
1444 1443 -158 0
-1445 1444 160 0
-1445 -1444 -160 0
1445 -1444 160 0
1445 1444 -160 0
-1446 1445 162 0
-1446 -1445 -162 0
1446 -1445 162 0
1446 1445 -162 0
-1447 1446 170 0
-1447 -1446 -170 0
1447 -1446 170 0
1447 1446 -170 0
-1448 1447 176 0
-1448 -1447 -176 0
1448 -1447 176 0
1448 1447 -176 0
1025 1042 1059 1076 1093 1110 1169 1224 1273 1332 1393 1448 0
-1 1449 0
-1450 0
-1451 0
-1452 0
-1453 0
-1454 0
-1455 0
-1456 0
-1457 0
-1458 0
-1459 0
-2 1460 0
-1449 1460 0
-2 -1449 1461 0
-1450 1461 0
-2 -1450 1462 0
-1451 1462 0
-2 -1451 1463 0
-1452 1463 0
-2 -1452 1464 0
-1453 1464 0
-2 -1453 1465 0
-1454 1465 0
-2 -1454 1466 0
-1455 1466 0
-2 -1455 1467 0
-1456 1467 0
-2 -1456 1468 0
-1457 1468 0
-2 -1457 1469 0
-1458 1469 0
-2 -1458 1470 0
-1459 1470 0
-2 -1459 0
-3 1471 0
-1460 1471 0
-3 -1460 1472 0
-1461 1472 0
-3 -1461 1473 0
-1462 1473 0
-3 -1462 1474 0
-1463 1474 0
-3 -1463 1475 0
-1464 1475 0
-3 -1464 1476 0
-1465 1476 0
-3 -1465 1477 0
-1466 1477 0
-3 -1466 1478 0
-1467 1478 0
-3 -1467 1479 0
-1468 1479 0
-3 -1468 1480 0
-1469 1480 0
-3 -1469 1481 0
-1470 1481 0
-3 -1470 0
-4 1482 0
-1471 1482 0
-4 -1471 1483 0
-1472 1483 0
-4 -1472 1484 0
-1473 1484 0
-4 -1473 1485 0
-1474 1485 0
-4 -1474 1486 0
-1475 1486 0
-4 -1475 1487 0
-1476 1487 0
-4 -1476 1488 0
-1477 1488 0
-4 -1477 1489 0
-1478 1489 0
-4 -1478 1490 0
-1479 1490 0
-4 -1479 1491 0
-1480 1491 0
-4 -1480 1492 0
-1481 1492 0
-4 -1481 0
-5 1493 0
-1482 1493 0
-5 -1482 1494 0
-1483 1494 0
-5 -1483 1495 0
-1484 1495 0
-5 -1484 1496 0
-1485 1496 0
-5 -1485 1497 0
-1486 1497 0
-5 -1486 1498 0
-1487 1498 0
-5 -1487 1499 0
-1488 1499 0
-5 -1488 1500 0
-1489 1500 0
-5 -1489 1501 0
-1490 1501 0
-5 -1490 1502 0
-1491 1502 0
-5 -1491 1503 0
-1492 1503 0
-5 -1492 0
-6 1504 0
-1493 1504 0
-6 -1493 1505 0
-1494 1505 0
-6 -1494 1506 0
-1495 1506 0
-6 -1495 1507 0
-1496 1507 0
-6 -1496 1508 0
-1497 1508 0
-6 -1497 1509 0
-1498 1509 0
-6 -1498 1510 0
-1499 1510 0
-6 -1499 1511 0
-1500 1511 0
-6 -1500 1512 0
-1501 1512 0
-6 -1501 1513 0
-1502 1513 0
-6 -1502 1514 0
-1503 1514 0
-6 -1503 0
-7 1515 0
-1504 1515 0
-7 -1504 1516 0
-1505 1516 0
-7 -1505 1517 0
-1506 1517 0
-7 -1506 1518 0
-1507 1518 0
-7 -1507 1519 0
-1508 1519 0
-7 -1508 1520 0
-1509 1520 0
-7 -1509 1521 0
-1510 1521 0
-7 -1510 1522 0
-1511 1522 0
-7 -1511 1523 0
-1512 1523 0
-7 -1512 1524 0
-1513 1524 0
-7 -1513 1525 0
-1514 1525 0
-7 -1514 0
-8 1526 0
-1515 1526 0
-8 -1515 1527 0
-1516 1527 0
-8 -1516 1528 0
-1517 1528 0
-8 -1517 1529 0
-1518 1529 0
-8 -1518 1530 0
-1519 1530 0
-8 -1519 1531 0
-1520 1531 0
-8 -1520 1532 0
-1521 1532 0
-8 -1521 1533 0
-1522 1533 0
-8 -1522 1534 0
-1523 1534 0
-8 -1523 1535 0
-1524 1535 0
-8 -1524 1536 0
-1525 1536 0
-8 -1525 0
-9 1537 0
-1526 1537 0
-9 -1526 1538 0
-1527 1538 0
-9 -1527 1539 0
-1528 1539 0
-9 -1528 1540 0
-1529 1540 0
-9 -1529 1541 0
-1530 1541 0
-9 -1530 1542 0
-1531 1542 0
-9 -1531 1543 0
-1532 1543 0
-9 -1532 1544 0
-1533 1544 0
-9 -1533 1545 0
-1534 1545 0
-9 -1534 1546 0
-1535 1546 0
-9 -1535 1547 0
-1536 1547 0
-9 -1536 0
-10 1548 0
-1537 1548 0
-10 -1537 1549 0
-1538 1549 0
-10 -1538 1550 0
-1539 1550 0
-10 -1539 1551 0
-1540 1551 0
-10 -1540 1552 0
-1541 1552 0
-10 -1541 1553 0
-1542 1553 0
-10 -1542 1554 0
-1543 1554 0
-10 -1543 1555 0
-1544 1555 0
-10 -1544 1556 0
-1545 1556 0
-10 -1545 1557 0
-1546 1557 0
-10 -1546 1558 0
-1547 1558 0
-10 -1547 0
-11 1559 0
-1548 1559 0
-11 -1548 1560 0
-1549 1560 0
-11 -1549 1561 0
-1550 1561 0
-11 -1550 1562 0
-1551 1562 0
-11 -1551 1563 0
-1552 1563 0
-11 -1552 1564 0
-1553 1564 0
-11 -1553 1565 0
-1554 1565 0
-11 -1554 1566 0
-1555 1566 0
-11 -1555 1567 0
-1556 1567 0
-11 -1556 1568 0
-1557 1568 0
-11 -1557 1569 0
-1558 1569 0
-11 -1558 0
-12 1570 0
-1559 1570 0
-12 -1559 1571 0
-1560 1571 0
-12 -1560 1572 0
-1561 1572 0
-12 -1561 1573 0
-1562 1573 0
-12 -1562 1574 0
-1563 1574 0
-12 -1563 1575 0
-1564 1575 0
-12 -1564 1576 0
-1565 1576 0
-12 -1565 1577 0
-1566 1577 0
-12 -1566 1578 0
-1567 1578 0
-12 -1567 1579 0
-1568 1579 0
-12 -1568 1580 0
-1569 1580 0
-12 -1569 0
-13 1581 0
-1570 1581 0
-13 -1570 1582 0
-1571 1582 0
-13 -1571 1583 0
-1572 1583 0
-13 -1572 1584 0
-1573 1584 0
-13 -1573 1585 0
-1574 1585 0
-13 -1574 1586 0
-1575 1586 0
-13 -1575 1587 0
-1576 1587 0
-13 -1576 1588 0
-1577 1588 0
-13 -1577 1589 0
-1578 1589 0
-13 -1578 1590 0
-1579 1590 0
-13 -1579 1591 0
-1580 1591 0
-13 -1580 0
-14 1592 0
-1581 1592 0
-14 -1581 1593 0
-1582 1593 0
-14 -1582 1594 0
-1583 1594 0
-14 -1583 1595 0
-1584 1595 0
-14 -1584 1596 0
-1585 1596 0
-14 -1585 1597 0
-1586 1597 0
-14 -1586 1598 0
-1587 1598 0
-14 -1587 1599 0
-1588 1599 0
-14 -1588 1600 0
-1589 1600 0
-14 -1589 1601 0
-1590 1601 0
-14 -1590 1602 0
-1591 1602 0
-14 -1591 0
-15 1603 0
-1592 1603 0
-15 -1592 1604 0
-1593 1604 0
-15 -1593 1605 0
-1594 1605 0
-15 -1594 1606 0
-1595 1606 0
-15 -1595 1607 0
-1596 1607 0
-15 -1596 1608 0
-1597 1608 0
-15 -1597 1609 0
-1598 1609 0
-15 -1598 1610 0
-1599 1610 0
-15 -1599 1611 0
-1600 1611 0
-15 -1600 1612 0
-1601 1612 0
-15 -1601 1613 0
-1602 1613 0
-15 -1602 0
-16 1614 0
-1603 1614 0
-16 -1603 1615 0
-1604 1615 0
-16 -1604 1616 0
-1605 1616 0
-16 -1605 1617 0
-1606 1617 0
-16 -1606 1618 0
-1607 1618 0
-16 -1607 1619 0
-1608 1619 0
-16 -1608 1620 0
-1609 1620 0
-16 -1609 1621 0
-1610 1621 0
-16 -1610 1622 0
-1611 1622 0
-16 -1611 1623 0
-1612 1623 0
-16 -1612 1624 0
-1613 1624 0
-16 -1613 0
-17 1625 0
-1614 1625 0
-17 -1614 1626 0
-1615 1626 0
-17 -1615 1627 0
-1616 1627 0
-17 -1616 1628 0
-1617 1628 0
-17 -1617 1629 0
-1618 1629 0
-17 -1618 1630 0
-1619 1630 0
-17 -1619 1631 0
-1620 1631 0
-17 -1620 1632 0
-1621 1632 0
-17 -1621 1633 0
-1622 1633 0
-17 -1622 1634 0
-1623 1634 0
-17 -1623 1635 0
-1624 1635 0
-17 -1624 0
-18 1636 0
-1625 1636 0
-18 -1625 1637 0
-1626 1637 0
-18 -1626 1638 0
-1627 1638 0
-18 -1627 1639 0
-1628 1639 0
-18 -1628 1640 0
-1629 1640 0
-18 -1629 1641 0
-1630 1641 0
-18 -1630 1642 0
-1631 1642 0
-18 -1631 1643 0
-1632 1643 0
-18 -1632 1644 0
-1633 1644 0
-18 -1633 1645 0
-1634 1645 0
-18 -1634 1646 0
-1635 1646 0
-18 -1635 0
-19 1647 0
-1636 1647 0
-19 -1636 1648 0
-1637 1648 0
-19 -1637 1649 0
-1638 1649 0
-19 -1638 1650 0
-1639 1650 0
-19 -1639 1651 0
-1640 1651 0
-19 -1640 1652 0
-1641 1652 0
-19 -1641 1653 0
-1642 1653 0
-19 -1642 1654 0
-1643 1654 0
-19 -1643 1655 0
-1644 1655 0
-19 -1644 1656 0
-1645 1656 0
-19 -1645 1657 0
-1646 1657 0
-19 -1646 0
-20 1658 0
-1647 1658 0
-20 -1647 1659 0
-1648 1659 0
-20 -1648 1660 0
-1649 1660 0
-20 -1649 1661 0
-1650 1661 0
-20 -1650 1662 0
-1651 1662 0
-20 -1651 1663 0
-1652 1663 0
-20 -1652 1664 0
-1653 1664 0
-20 -1653 1665 0
-1654 1665 0
-20 -1654 1666 0
-1655 1666 0
-20 -1655 1667 0
-1656 1667 0
-20 -1656 1668 0
-1657 1668 0
-20 -1657 0
-21 1669 0
-1658 1669 0
-21 -1658 1670 0
-1659 1670 0
-21 -1659 1671 0
-1660 1671 0
-21 -1660 1672 0
-1661 1672 0
-21 -1661 1673 0
-1662 1673 0
-21 -1662 1674 0
-1663 1674 0
-21 -1663 1675 0
-1664 1675 0
-21 -1664 1676 0
-1665 1676 0
-21 -1665 1677 0
-1666 1677 0
-21 -1666 1678 0
-1667 1678 0
-21 -1667 1679 0
-1668 1679 0
-21 -1668 0
-22 1680 0
-1669 1680 0
-22 -1669 1681 0
-1670 1681 0
-22 -1670 1682 0
-1671 1682 0
-22 -1671 1683 0
-1672 1683 0
-22 -1672 1684 0
-1673 1684 0
-22 -1673 1685 0
-1674 1685 0
-22 -1674 1686 0
-1675 1686 0
-22 -1675 1687 0
-1676 1687 0
-22 -1676 1688 0
-1677 1688 0
-22 -1677 1689 0
-1678 1689 0
-22 -1678 1690 0
-1679 1690 0
-22 -1679 0
-23 1691 0
-1680 1691 0
-23 -1680 1692 0
-1681 1692 0
-23 -1681 1693 0
-1682 1693 0
-23 -1682 1694 0
-1683 1694 0
-23 -1683 1695 0
-1684 1695 0
-23 -1684 1696 0
-1685 1696 0
-23 -1685 1697 0
-1686 1697 0
-23 -1686 1698 0
-1687 1698 0
-23 -1687 1699 0
-1688 1699 0
-23 -1688 1700 0
-1689 1700 0
-23 -1689 1701 0
-1690 1701 0
-23 -1690 0
-24 1702 0
-1691 1702 0
-24 -1691 1703 0
-1692 1703 0
-24 -1692 1704 0
-1693 1704 0
-24 -1693 1705 0
-1694 1705 0
-24 -1694 1706 0
-1695 1706 0
-24 -1695 1707 0
-1696 1707 0
-24 -1696 1708 0
-1697 1708 0
-24 -1697 1709 0
-1698 1709 0
-24 -1698 1710 0
-1699 1710 0
-24 -1699 1711 0
-1700 1711 0
-24 -1700 1712 0
-1701 1712 0
-24 -1701 0
-25 1713 0
-1702 1713 0
-25 -1702 1714 0
-1703 1714 0
-25 -1703 1715 0
-1704 1715 0
-25 -1704 1716 0
-1705 1716 0
-25 -1705 1717 0
-1706 1717 0
-25 -1706 1718 0
-1707 1718 0
-25 -1707 1719 0
-1708 1719 0
-25 -1708 1720 0
-1709 1720 0
-25 -1709 1721 0
-1710 1721 0
-25 -1710 1722 0
-1711 1722 0
-25 -1711 1723 0
-1712 1723 0
-25 -1712 0
-26 1724 0
-1713 1724 0
-26 -1713 1725 0
-1714 1725 0
-26 -1714 1726 0
-1715 1726 0
-26 -1715 1727 0
-1716 1727 0
-26 -1716 1728 0
-1717 1728 0
-26 -1717 1729 0
-1718 1729 0
-26 -1718 1730 0
-1719 1730 0
-26 -1719 1731 0
-1720 1731 0
-26 -1720 1732 0
-1721 1732 0
-26 -1721 1733 0
-1722 1733 0
-26 -1722 1734 0
-1723 1734 0
-26 -1723 0
-27 1735 0
-1724 1735 0
-27 -1724 1736 0
-1725 1736 0
-27 -1725 1737 0
-1726 1737 0
-27 -1726 1738 0
-1727 1738 0
-27 -1727 1739 0
-1728 1739 0
-27 -1728 1740 0
-1729 1740 0
-27 -1729 1741 0
-1730 1741 0
-27 -1730 1742 0
-1731 1742 0
-27 -1731 1743 0
-1732 1743 0
-27 -1732 1744 0
-1733 1744 0
-27 -1733 1745 0
-1734 1745 0
-27 -1734 0
-28 1746 0
-1735 1746 0
-28 -1735 1747 0
-1736 1747 0
-28 -1736 1748 0
-1737 1748 0
-28 -1737 1749 0
-1738 1749 0
-28 -1738 1750 0
-1739 1750 0
-28 -1739 1751 0
-1740 1751 0
-28 -1740 1752 0
-1741 1752 0
-28 -1741 1753 0
-1742 1753 0
-28 -1742 1754 0
-1743 1754 0
-28 -1743 1755 0
-1744 1755 0
-28 -1744 1756 0
-1745 1756 0
-28 -1745 0
-29 1757 0
-1746 1757 0
-29 -1746 1758 0
-1747 1758 0
-29 -1747 1759 0
-1748 1759 0
-29 -1748 1760 0
-1749 1760 0
-29 -1749 1761 0
-1750 1761 0
-29 -1750 1762 0
-1751 1762 0
-29 -1751 1763 0
-1752 1763 0
-29 -1752 1764 0
-1753 1764 0
-29 -1753 1765 0
-1754 1765 0
-29 -1754 1766 0
-1755 1766 0
-29 -1755 1767 0
-1756 1767 0
-29 -1756 0
-30 1768 0
-1757 1768 0
-30 -1757 1769 0
-1758 1769 0
-30 -1758 1770 0
-1759 1770 0
-30 -1759 1771 0
-1760 1771 0
-30 -1760 1772 0
-1761 1772 0
-30 -1761 1773 0
-1762 1773 0
-30 -1762 1774 0
-1763 1774 0
-30 -1763 1775 0
-1764 1775 0
-30 -1764 1776 0
-1765 1776 0
-30 -1765 1777 0
-1766 1777 0
-30 -1766 1778 0
-1767 1778 0
-30 -1767 0
-31 1779 0
-1768 1779 0
-31 -1768 1780 0
-1769 1780 0
-31 -1769 1781 0
-1770 1781 0
-31 -1770 1782 0
-1771 1782 0
-31 -1771 1783 0
-1772 1783 0
-31 -1772 1784 0
-1773 1784 0
-31 -1773 1785 0
-1774 1785 0
-31 -1774 1786 0
-1775 1786 0
-31 -1775 1787 0
-1776 1787 0
-31 -1776 1788 0
-1777 1788 0
-31 -1777 1789 0
-1778 1789 0
-31 -1778 0
-32 1790 0
-1779 1790 0
-32 -1779 1791 0
-1780 1791 0
-32 -1780 1792 0
-1781 1792 0
-32 -1781 1793 0
-1782 1793 0
-32 -1782 1794 0
-1783 1794 0
-32 -1783 1795 0
-1784 1795 0
-32 -1784 1796 0
-1785 1796 0
-32 -1785 1797 0
-1786 1797 0
-32 -1786 1798 0
-1787 1798 0
-32 -1787 1799 0
-1788 1799 0
-32 -1788 1800 0
-1789 1800 0
-32 -1789 0
-33 1801 0
-1790 1801 0
-33 -1790 1802 0
-1791 1802 0
-33 -1791 1803 0
-1792 1803 0
-33 -1792 1804 0
-1793 1804 0
-33 -1793 1805 0
-1794 1805 0
-33 -1794 1806 0
-1795 1806 0
-33 -1795 1807 0
-1796 1807 0
-33 -1796 1808 0
-1797 1808 0
-33 -1797 1809 0
-1798 1809 0
-33 -1798 1810 0
-1799 1810 0
-33 -1799 1811 0
-1800 1811 0
-33 -1800 0
-34 1812 0
-1801 1812 0
-34 -1801 1813 0
-1802 1813 0
-34 -1802 1814 0
-1803 1814 0
-34 -1803 1815 0
-1804 1815 0
-34 -1804 1816 0
-1805 1816 0
-34 -1805 1817 0
-1806 1817 0
-34 -1806 1818 0
-1807 1818 0
-34 -1807 1819 0
-1808 1819 0
-34 -1808 1820 0
-1809 1820 0
-34 -1809 1821 0
-1810 1821 0
-34 -1810 1822 0
-1811 1822 0
-34 -1811 0
-35 1823 0
-1812 1823 0
-35 -1812 1824 0
-1813 1824 0
-35 -1813 1825 0
-1814 1825 0
-35 -1814 1826 0
-1815 1826 0
-35 -1815 1827 0
-1816 1827 0
-35 -1816 1828 0
-1817 1828 0
-35 -1817 1829 0
-1818 1829 0
-35 -1818 1830 0
-1819 1830 0
-35 -1819 1831 0
-1820 1831 0
-35 -1820 1832 0
-1821 1832 0
-35 -1821 1833 0
-1822 1833 0
-35 -1822 0
-36 1834 0
-1823 1834 0
-36 -1823 1835 0
-1824 1835 0
-36 -1824 1836 0
-1825 1836 0
-36 -1825 1837 0
-1826 1837 0
-36 -1826 1838 0
-1827 1838 0
-36 -1827 1839 0
-1828 1839 0
-36 -1828 1840 0
-1829 1840 0
-36 -1829 1841 0
-1830 1841 0
-36 -1830 1842 0
-1831 1842 0
-36 -1831 1843 0
-1832 1843 0
-36 -1832 1844 0
-1833 1844 0
-36 -1833 0
-37 1845 0
-1834 1845 0
-37 -1834 1846 0
-1835 1846 0
-37 -1835 1847 0
-1836 1847 0
-37 -1836 1848 0
-1837 1848 0
-37 -1837 1849 0
-1838 1849 0
-37 -1838 1850 0
-1839 1850 0
-37 -1839 1851 0
-1840 1851 0
-37 -1840 1852 0
-1841 1852 0
-37 -1841 1853 0
-1842 1853 0
-37 -1842 1854 0
-1843 1854 0
-37 -1843 1855 0
-1844 1855 0
-37 -1844 0
-38 1856 0
-1845 1856 0
-38 -1845 1857 0
-1846 1857 0
-38 -1846 1858 0
-1847 1858 0
-38 -1847 1859 0
-1848 1859 0
-38 -1848 1860 0
-1849 1860 0
-38 -1849 1861 0
-1850 1861 0
-38 -1850 1862 0
-1851 1862 0
-38 -1851 1863 0
-1852 1863 0
-38 -1852 1864 0
-1853 1864 0
-38 -1853 1865 0
-1854 1865 0
-38 -1854 1866 0
-1855 1866 0
-38 -1855 0
-39 1867 0
-1856 1867 0
-39 -1856 1868 0
-1857 1868 0
-39 -1857 1869 0
-1858 1869 0
-39 -1858 1870 0
-1859 1870 0
-39 -1859 1871 0
-1860 1871 0
-39 -1860 1872 0
-1861 1872 0
-39 -1861 1873 0
-1862 1873 0
-39 -1862 1874 0
-1863 1874 0
-39 -1863 1875 0
-1864 1875 0
-39 -1864 1876 0
-1865 1876 0
-39 -1865 1877 0
-1866 1877 0
-39 -1866 0
-40 1878 0
-1867 1878 0
-40 -1867 1879 0
-1868 1879 0
-40 -1868 1880 0
-1869 1880 0
-40 -1869 1881 0
-1870 1881 0
-40 -1870 1882 0
-1871 1882 0
-40 -1871 1883 0
-1872 1883 0
-40 -1872 1884 0
-1873 1884 0
-40 -1873 1885 0
-1874 1885 0
-40 -1874 1886 0
-1875 1886 0
-40 -1875 1887 0
-1876 1887 0
-40 -1876 1888 0
-1877 1888 0
-40 -1877 0
-41 1889 0
-1878 1889 0
-41 -1878 1890 0
-1879 1890 0
-41 -1879 1891 0
-1880 1891 0
-41 -1880 1892 0
-1881 1892 0
-41 -1881 1893 0
-1882 1893 0
-41 -1882 1894 0
-1883 1894 0
-41 -1883 1895 0
-1884 1895 0
-41 -1884 1896 0
-1885 1896 0
-41 -1885 1897 0
-1886 1897 0
-41 -1886 1898 0
-1887 1898 0
-41 -1887 1899 0
-1888 1899 0
-41 -1888 0
-42 1900 0
-1889 1900 0
-42 -1889 1901 0
-1890 1901 0
-42 -1890 1902 0
-1891 1902 0
-42 -1891 1903 0
-1892 1903 0
-42 -1892 1904 0
-1893 1904 0
-42 -1893 1905 0
-1894 1905 0
-42 -1894 1906 0
-1895 1906 0
-42 -1895 1907 0
-1896 1907 0
-42 -1896 1908 0
-1897 1908 0
-42 -1897 1909 0
-1898 1909 0
-42 -1898 1910 0
-1899 1910 0
-42 -1899 0
-43 1911 0
-1900 1911 0
-43 -1900 1912 0
-1901 1912 0
-43 -1901 1913 0
-1902 1913 0
-43 -1902 1914 0
-1903 1914 0
-43 -1903 1915 0
-1904 1915 0
-43 -1904 1916 0
-1905 1916 0
-43 -1905 1917 0
-1906 1917 0
-43 -1906 1918 0
-1907 1918 0
-43 -1907 1919 0
-1908 1919 0
-43 -1908 1920 0
-1909 1920 0
-43 -1909 1921 0
-1910 1921 0
-43 -1910 0
-44 1922 0
-1911 1922 0
-44 -1911 1923 0
-1912 1923 0
-44 -1912 1924 0
-1913 1924 0
-44 -1913 1925 0
-1914 1925 0
-44 -1914 1926 0
-1915 1926 0
-44 -1915 1927 0
-1916 1927 0
-44 -1916 1928 0
-1917 1928 0
-44 -1917 1929 0
-1918 1929 0
-44 -1918 1930 0
-1919 1930 0
-44 -1919 1931 0
-1920 1931 0
-44 -1920 1932 0
-1921 1932 0
-44 -1921 0
-45 1933 0
-1922 1933 0
-45 -1922 1934 0
-1923 1934 0
-45 -1923 1935 0
-1924 1935 0
-45 -1924 1936 0
-1925 1936 0
-45 -1925 1937 0
-1926 1937 0
-45 -1926 1938 0
-1927 1938 0
-45 -1927 1939 0
-1928 1939 0
-45 -1928 1940 0
-1929 1940 0
-45 -1929 1941 0
-1930 1941 0
-45 -1930 1942 0
-1931 1942 0
-45 -1931 1943 0
-1932 1943 0
-45 -1932 0
-46 1944 0
-1933 1944 0
-46 -1933 1945 0
-1934 1945 0
-46 -1934 1946 0
-1935 1946 0
-46 -1935 1947 0
-1936 1947 0
-46 -1936 1948 0
-1937 1948 0
-46 -1937 1949 0
-1938 1949 0
-46 -1938 1950 0
-1939 1950 0
-46 -1939 1951 0
-1940 1951 0
-46 -1940 1952 0
-1941 1952 0
-46 -1941 1953 0
-1942 1953 0
-46 -1942 1954 0
-1943 1954 0
-46 -1943 0
-47 1955 0
-1944 1955 0
-47 -1944 1956 0
-1945 1956 0
-47 -1945 1957 0
-1946 1957 0
-47 -1946 1958 0
-1947 1958 0
-47 -1947 1959 0
-1948 1959 0
-47 -1948 1960 0
-1949 1960 0
-47 -1949 1961 0
-1950 1961 0
-47 -1950 1962 0
-1951 1962 0
-47 -1951 1963 0
-1952 1963 0
-47 -1952 1964 0
-1953 1964 0
-47 -1953 1965 0
-1954 1965 0
-47 -1954 0
-48 1966 0
-1955 1966 0
-48 -1955 1967 0
-1956 1967 0
-48 -1956 1968 0
-1957 1968 0
-48 -1957 1969 0
-1958 1969 0
-48 -1958 1970 0
-1959 1970 0
-48 -1959 1971 0
-1960 1971 0
-48 -1960 1972 0
-1961 1972 0
-48 -1961 1973 0
-1962 1973 0
-48 -1962 1974 0
-1963 1974 0
-48 -1963 1975 0
-1964 1975 0
-48 -1964 1976 0
-1965 1976 0
-48 -1965 0
-49 1977 0
-1966 1977 0
-49 -1966 1978 0
-1967 1978 0
-49 -1967 1979 0
-1968 1979 0
-49 -1968 1980 0
-1969 1980 0
-49 -1969 1981 0
-1970 1981 0
-49 -1970 1982 0
-1971 1982 0
-49 -1971 1983 0
-1972 1983 0
-49 -1972 1984 0
-1973 1984 0
-49 -1973 1985 0
-1974 1985 0
-49 -1974 1986 0
-1975 1986 0
-49 -1975 1987 0
-1976 1987 0
-49 -1976 0
-50 1988 0
-1977 1988 0
-50 -1977 1989 0
-1978 1989 0
-50 -1978 1990 0
-1979 1990 0
-50 -1979 1991 0
-1980 1991 0
-50 -1980 1992 0
-1981 1992 0
-50 -1981 1993 0
-1982 1993 0
-50 -1982 1994 0
-1983 1994 0
-50 -1983 1995 0
-1984 1995 0
-50 -1984 1996 0
-1985 1996 0
-50 -1985 1997 0
-1986 1997 0
-50 -1986 1998 0
-1987 1998 0
-50 -1987 0
-51 1999 0
-1988 1999 0
-51 -1988 2000 0
-1989 2000 0
-51 -1989 2001 0
-1990 2001 0
-51 -1990 2002 0
-1991 2002 0
-51 -1991 2003 0
-1992 2003 0
-51 -1992 2004 0
-1993 2004 0
-51 -1993 2005 0
-1994 2005 0
-51 -1994 2006 0
-1995 2006 0
-51 -1995 2007 0
-1996 2007 0
-51 -1996 2008 0
-1997 2008 0
-51 -1997 2009 0
-1998 2009 0
-51 -1998 0
-52 2010 0
-1999 2010 0
-52 -1999 2011 0
-2000 2011 0
-52 -2000 2012 0
-2001 2012 0
-52 -2001 2013 0
-2002 2013 0
-52 -2002 2014 0
-2003 2014 0
-52 -2003 2015 0
-2004 2015 0
-52 -2004 2016 0
-2005 2016 0
-52 -2005 2017 0
-2006 2017 0
-52 -2006 2018 0
-2007 2018 0
-52 -2007 2019 0
-2008 2019 0
-52 -2008 2020 0
-2009 2020 0
-52 -2009 0
-53 2021 0
-2010 2021 0
-53 -2010 2022 0
-2011 2022 0
-53 -2011 2023 0
-2012 2023 0
-53 -2012 2024 0
-2013 2024 0
-53 -2013 2025 0
-2014 2025 0
-53 -2014 2026 0
-2015 2026 0
-53 -2015 2027 0
-2016 2027 0
-53 -2016 2028 0
-2017 2028 0
-53 -2017 2029 0
-2018 2029 0
-53 -2018 2030 0
-2019 2030 0
-53 -2019 2031 0
-2020 2031 0
-53 -2020 0
-54 2032 0
-2021 2032 0
-54 -2021 2033 0
-2022 2033 0
-54 -2022 2034 0
-2023 2034 0
-54 -2023 2035 0
-2024 2035 0
-54 -2024 2036 0
-2025 2036 0
-54 -2025 2037 0
-2026 2037 0
-54 -2026 2038 0
-2027 2038 0
-54 -2027 2039 0
-2028 2039 0
-54 -2028 2040 0
-2029 2040 0
-54 -2029 2041 0
-2030 2041 0
-54 -2030 2042 0
-2031 2042 0
-54 -2031 0
-55 2043 0
-2032 2043 0
-55 -2032 2044 0
-2033 2044 0
-55 -2033 2045 0
-2034 2045 0
-55 -2034 2046 0
-2035 2046 0
-55 -2035 2047 0
-2036 2047 0
-55 -2036 2048 0
-2037 2048 0
-55 -2037 2049 0
-2038 2049 0
-55 -2038 2050 0
-2039 2050 0
-55 -2039 2051 0
-2040 2051 0
-55 -2040 2052 0
-2041 2052 0
-55 -2041 2053 0
-2042 2053 0
-55 -2042 0
-56 2054 0
-2043 2054 0
-56 -2043 2055 0
-2044 2055 0
-56 -2044 2056 0
-2045 2056 0
-56 -2045 2057 0
-2046 2057 0
-56 -2046 2058 0
-2047 2058 0
-56 -2047 2059 0
-2048 2059 0
-56 -2048 2060 0
-2049 2060 0
-56 -2049 2061 0
-2050 2061 0
-56 -2050 2062 0
-2051 2062 0
-56 -2051 2063 0
-2052 2063 0
-56 -2052 2064 0
-2053 2064 0
-56 -2053 0
-57 2065 0
-2054 2065 0
-57 -2054 2066 0
-2055 2066 0
-57 -2055 2067 0
-2056 2067 0
-57 -2056 2068 0
-2057 2068 0
-57 -2057 2069 0
-2058 2069 0
-57 -2058 2070 0
-2059 2070 0
-57 -2059 2071 0
-2060 2071 0
-57 -2060 2072 0
-2061 2072 0
-57 -2061 2073 0
-2062 2073 0
-57 -2062 2074 0
-2063 2074 0
-57 -2063 2075 0
-2064 2075 0
-57 -2064 0
-58 2076 0
-2065 2076 0
-58 -2065 2077 0
-2066 2077 0
-58 -2066 2078 0
-2067 2078 0
-58 -2067 2079 0
-2068 2079 0
-58 -2068 2080 0
-2069 2080 0
-58 -2069 2081 0
-2070 2081 0
-58 -2070 2082 0
-2071 2082 0
-58 -2071 2083 0
-2072 2083 0
-58 -2072 2084 0
-2073 2084 0
-58 -2073 2085 0
-2074 2085 0
-58 -2074 2086 0
-2075 2086 0
-58 -2075 0
-59 2087 0
-2076 2087 0
-59 -2076 2088 0
-2077 2088 0
-59 -2077 2089 0
-2078 2089 0
-59 -2078 2090 0
-2079 2090 0
-59 -2079 2091 0
-2080 2091 0
-59 -2080 2092 0
-2081 2092 0
-59 -2081 2093 0
-2082 2093 0
-59 -2082 2094 0
-2083 2094 0
-59 -2083 2095 0
-2084 2095 0
-59 -2084 2096 0
-2085 2096 0
-59 -2085 2097 0
-2086 2097 0
-59 -2086 0
-60 2098 0
-2087 2098 0
-60 -2087 2099 0
-2088 2099 0
-60 -2088 2100 0
-2089 2100 0
-60 -2089 2101 0
-2090 2101 0
-60 -2090 2102 0
-2091 2102 0
-60 -2091 2103 0
-2092 2103 0
-60 -2092 2104 0
-2093 2104 0
-60 -2093 2105 0
-2094 2105 0
-60 -2094 2106 0
-2095 2106 0
-60 -2095 2107 0
-2096 2107 0
-60 -2096 2108 0
-2097 2108 0
-60 -2097 0
-61 2109 0
-2098 2109 0
-61 -2098 2110 0
-2099 2110 0
-61 -2099 2111 0
-2100 2111 0
-61 -2100 2112 0
-2101 2112 0
-61 -2101 2113 0
-2102 2113 0
-61 -2102 2114 0
-2103 2114 0
-61 -2103 2115 0
-2104 2115 0
-61 -2104 2116 0
-2105 2116 0
-61 -2105 2117 0
-2106 2117 0
-61 -2106 2118 0
-2107 2118 0
-61 -2107 2119 0
-2108 2119 0
-61 -2108 0
-62 2120 0
-2109 2120 0
-62 -2109 2121 0
-2110 2121 0
-62 -2110 2122 0
-2111 2122 0
-62 -2111 2123 0
-2112 2123 0
-62 -2112 2124 0
-2113 2124 0
-62 -2113 2125 0
-2114 2125 0
-62 -2114 2126 0
-2115 2126 0
-62 -2115 2127 0
-2116 2127 0
-62 -2116 2128 0
-2117 2128 0
-62 -2117 2129 0
-2118 2129 0
-62 -2118 2130 0
-2119 2130 0
-62 -2119 0
-63 2131 0
-2120 2131 0
-63 -2120 2132 0
-2121 2132 0
-63 -2121 2133 0
-2122 2133 0
-63 -2122 2134 0
-2123 2134 0
-63 -2123 2135 0
-2124 2135 0
-63 -2124 2136 0
-2125 2136 0
-63 -2125 2137 0
-2126 2137 0
-63 -2126 2138 0
-2127 2138 0
-63 -2127 2139 0
-2128 2139 0
-63 -2128 2140 0
-2129 2140 0
-63 -2129 2141 0
-2130 2141 0
-63 -2130 0
-64 2142 0
-2131 2142 0
-64 -2131 2143 0
-2132 2143 0
-64 -2132 2144 0
-2133 2144 0
-64 -2133 2145 0
-2134 2145 0
-64 -2134 2146 0
-2135 2146 0
-64 -2135 2147 0
-2136 2147 0
-64 -2136 2148 0
-2137 2148 0
-64 -2137 2149 0
-2138 2149 0
-64 -2138 2150 0
-2139 2150 0
-64 -2139 2151 0
-2140 2151 0
-64 -2140 2152 0
-2141 2152 0
-64 -2141 0
-65 2153 0
-2142 2153 0
-65 -2142 2154 0
-2143 2154 0
-65 -2143 2155 0
-2144 2155 0
-65 -2144 2156 0
-2145 2156 0
-65 -2145 2157 0
-2146 2157 0
-65 -2146 2158 0
-2147 2158 0
-65 -2147 2159 0
-2148 2159 0
-65 -2148 2160 0
-2149 2160 0
-65 -2149 2161 0
-2150 2161 0
-65 -2150 2162 0
-2151 2162 0
-65 -2151 2163 0
-2152 2163 0
-65 -2152 0
-66 2164 0
-2153 2164 0
-66 -2153 2165 0
-2154 2165 0
-66 -2154 2166 0
-2155 2166 0
-66 -2155 2167 0
-2156 2167 0
-66 -2156 2168 0
-2157 2168 0
-66 -2157 2169 0
-2158 2169 0
-66 -2158 2170 0
-2159 2170 0
-66 -2159 2171 0
-2160 2171 0
-66 -2160 2172 0
-2161 2172 0
-66 -2161 2173 0
-2162 2173 0
-66 -2162 2174 0
-2163 2174 0
-66 -2163 0
-67 2175 0
-2164 2175 0
-67 -2164 2176 0
-2165 2176 0
-67 -2165 2177 0
-2166 2177 0
-67 -2166 2178 0
-2167 2178 0
-67 -2167 2179 0
-2168 2179 0
-67 -2168 2180 0
-2169 2180 0
-67 -2169 2181 0
-2170 2181 0
-67 -2170 2182 0
-2171 2182 0
-67 -2171 2183 0
-2172 2183 0
-67 -2172 2184 0
-2173 2184 0
-67 -2173 2185 0
-2174 2185 0
-67 -2174 0
-68 2186 0
-2175 2186 0
-68 -2175 2187 0
-2176 2187 0
-68 -2176 2188 0
-2177 2188 0
-68 -2177 2189 0
-2178 2189 0
-68 -2178 2190 0
-2179 2190 0
-68 -2179 2191 0
-2180 2191 0
-68 -2180 2192 0
-2181 2192 0
-68 -2181 2193 0
-2182 2193 0
-68 -2182 2194 0
-2183 2194 0
-68 -2183 2195 0
-2184 2195 0
-68 -2184 2196 0
-2185 2196 0
-68 -2185 0
-69 2197 0
-2186 2197 0
-69 -2186 2198 0
-2187 2198 0
-69 -2187 2199 0
-2188 2199 0
-69 -2188 2200 0
-2189 2200 0
-69 -2189 2201 0
-2190 2201 0
-69 -2190 2202 0
-2191 2202 0
-69 -2191 2203 0
-2192 2203 0
-69 -2192 2204 0
-2193 2204 0
-69 -2193 2205 0
-2194 2205 0
-69 -2194 2206 0
-2195 2206 0
-69 -2195 2207 0
-2196 2207 0
-69 -2196 0
-70 2208 0
-2197 2208 0
-70 -2197 2209 0
-2198 2209 0
-70 -2198 2210 0
-2199 2210 0
-70 -2199 2211 0
-2200 2211 0
-70 -2200 2212 0
-2201 2212 0
-70 -2201 2213 0
-2202 2213 0
-70 -2202 2214 0
-2203 2214 0
-70 -2203 2215 0
-2204 2215 0
-70 -2204 2216 0
-2205 2216 0
-70 -2205 2217 0
-2206 2217 0
-70 -2206 2218 0
-2207 2218 0
-70 -2207 0
-71 2219 0
-2208 2219 0
-71 -2208 2220 0
-2209 2220 0
-71 -2209 2221 0
-2210 2221 0
-71 -2210 2222 0
-2211 2222 0
-71 -2211 2223 0
-2212 2223 0
-71 -2212 2224 0
-2213 2224 0
-71 -2213 2225 0
-2214 2225 0
-71 -2214 2226 0
-2215 2226 0
-71 -2215 2227 0
-2216 2227 0
-71 -2216 2228 0
-2217 2228 0
-71 -2217 2229 0
-2218 2229 0
-71 -2218 0
-72 2230 0
-2219 2230 0
-72 -2219 2231 0
-2220 2231 0
-72 -2220 2232 0
-2221 2232 0
-72 -2221 2233 0
-2222 2233 0
-72 -2222 2234 0
-2223 2234 0
-72 -2223 2235 0
-2224 2235 0
-72 -2224 2236 0
-2225 2236 0
-72 -2225 2237 0
-2226 2237 0
-72 -2226 2238 0
-2227 2238 0
-72 -2227 2239 0
-2228 2239 0
-72 -2228 2240 0
-2229 2240 0
-72 -2229 0
-73 2241 0
-2230 2241 0
-73 -2230 2242 0
-2231 2242 0
-73 -2231 2243 0
-2232 2243 0
-73 -2232 2244 0
-2233 2244 0
-73 -2233 2245 0
-2234 2245 0
-73 -2234 2246 0
-2235 2246 0
-73 -2235 2247 0
-2236 2247 0
-73 -2236 2248 0
-2237 2248 0
-73 -2237 2249 0
-2238 2249 0
-73 -2238 2250 0
-2239 2250 0
-73 -2239 2251 0
-2240 2251 0
-73 -2240 0
-74 2252 0
-2241 2252 0
-74 -2241 2253 0
-2242 2253 0
-74 -2242 2254 0
-2243 2254 0
-74 -2243 2255 0
-2244 2255 0
-74 -2244 2256 0
-2245 2256 0
-74 -2245 2257 0
-2246 2257 0
-74 -2246 2258 0
-2247 2258 0
-74 -2247 2259 0
-2248 2259 0
-74 -2248 2260 0
-2249 2260 0
-74 -2249 2261 0
-2250 2261 0
-74 -2250 2262 0
-2251 2262 0
-74 -2251 0
-75 2263 0
-2252 2263 0
-75 -2252 2264 0
-2253 2264 0
-75 -2253 2265 0
-2254 2265 0
-75 -2254 2266 0
-2255 2266 0
-75 -2255 2267 0
-2256 2267 0
-75 -2256 2268 0
-2257 2268 0
-75 -2257 2269 0
-2258 2269 0
-75 -2258 2270 0
-2259 2270 0
-75 -2259 2271 0
-2260 2271 0
-75 -2260 2272 0
-2261 2272 0
-75 -2261 2273 0
-2262 2273 0
-75 -2262 0
-76 2274 0
-2263 2274 0
-76 -2263 2275 0
-2264 2275 0
-76 -2264 2276 0
-2265 2276 0
-76 -2265 2277 0
-2266 2277 0
-76 -2266 2278 0
-2267 2278 0
-76 -2267 2279 0
-2268 2279 0
-76 -2268 2280 0
-2269 2280 0
-76 -2269 2281 0
-2270 2281 0
-76 -2270 2282 0
-2271 2282 0
-76 -2271 2283 0
-2272 2283 0
-76 -2272 2284 0
-2273 2284 0
-76 -2273 0
-77 2285 0
-2274 2285 0
-77 -2274 2286 0
-2275 2286 0
-77 -2275 2287 0
-2276 2287 0
-77 -2276 2288 0
-2277 2288 0
-77 -2277 2289 0
-2278 2289 0
-77 -2278 2290 0
-2279 2290 0
-77 -2279 2291 0
-2280 2291 0
-77 -2280 2292 0
-2281 2292 0
-77 -2281 2293 0
-2282 2293 0
-77 -2282 2294 0
-2283 2294 0
-77 -2283 2295 0
-2284 2295 0
-77 -2284 0
-78 2296 0
-2285 2296 0
-78 -2285 2297 0
-2286 2297 0
-78 -2286 2298 0
-2287 2298 0
-78 -2287 2299 0
-2288 2299 0
-78 -2288 2300 0
-2289 2300 0
-78 -2289 2301 0
-2290 2301 0
-78 -2290 2302 0
-2291 2302 0
-78 -2291 2303 0
-2292 2303 0
-78 -2292 2304 0
-2293 2304 0
-78 -2293 2305 0
-2294 2305 0
-78 -2294 2306 0
-2295 2306 0
-78 -2295 0
-79 2307 0
-2296 2307 0
-79 -2296 2308 0
-2297 2308 0
-79 -2297 2309 0
-2298 2309 0
-79 -2298 2310 0
-2299 2310 0
-79 -2299 2311 0
-2300 2311 0
-79 -2300 2312 0
-2301 2312 0
-79 -2301 2313 0
-2302 2313 0
-79 -2302 2314 0
-2303 2314 0
-79 -2303 2315 0
-2304 2315 0
-79 -2304 2316 0
-2305 2316 0
-79 -2305 2317 0
-2306 2317 0
-79 -2306 0
-80 2318 0
-2307 2318 0
-80 -2307 2319 0
-2308 2319 0
-80 -2308 2320 0
-2309 2320 0
-80 -2309 2321 0
-2310 2321 0
-80 -2310 2322 0
-2311 2322 0
-80 -2311 2323 0
-2312 2323 0
-80 -2312 2324 0
-2313 2324 0
-80 -2313 2325 0
-2314 2325 0
-80 -2314 2326 0
-2315 2326 0
-80 -2315 2327 0
-2316 2327 0
-80 -2316 2328 0
-2317 2328 0
-80 -2317 0
-81 2329 0
-2318 2329 0
-81 -2318 2330 0
-2319 2330 0
-81 -2319 2331 0
-2320 2331 0
-81 -2320 2332 0
-2321 2332 0
-81 -2321 2333 0
-2322 2333 0
-81 -2322 2334 0
-2323 2334 0
-81 -2323 2335 0
-2324 2335 0
-81 -2324 2336 0
-2325 2336 0
-81 -2325 2337 0
-2326 2337 0
-81 -2326 2338 0
-2327 2338 0
-81 -2327 2339 0
-2328 2339 0
-81 -2328 0
-82 2340 0
-2329 2340 0
-82 -2329 2341 0
-2330 2341 0
-82 -2330 2342 0
-2331 2342 0
-82 -2331 2343 0
-2332 2343 0
-82 -2332 2344 0
-2333 2344 0
-82 -2333 2345 0
-2334 2345 0
-82 -2334 2346 0
-2335 2346 0
-82 -2335 2347 0
-2336 2347 0
-82 -2336 2348 0
-2337 2348 0
-82 -2337 2349 0
-2338 2349 0
-82 -2338 2350 0
-2339 2350 0
-82 -2339 0
-83 2351 0
-2340 2351 0
-83 -2340 2352 0
-2341 2352 0
-83 -2341 2353 0
-2342 2353 0
-83 -2342 2354 0
-2343 2354 0
-83 -2343 2355 0
-2344 2355 0
-83 -2344 2356 0
-2345 2356 0
-83 -2345 2357 0
-2346 2357 0
-83 -2346 2358 0
-2347 2358 0
-83 -2347 2359 0
-2348 2359 0
-83 -2348 2360 0
-2349 2360 0
-83 -2349 2361 0
-2350 2361 0
-83 -2350 0
-84 2362 0
-2351 2362 0
-84 -2351 2363 0
-2352 2363 0
-84 -2352 2364 0
-2353 2364 0
-84 -2353 2365 0
-2354 2365 0
-84 -2354 2366 0
-2355 2366 0
-84 -2355 2367 0
-2356 2367 0
-84 -2356 2368 0
-2357 2368 0
-84 -2357 2369 0
-2358 2369 0
-84 -2358 2370 0
-2359 2370 0
-84 -2359 2371 0
-2360 2371 0
-84 -2360 2372 0
-2361 2372 0
-84 -2361 0
-85 2373 0
-2362 2373 0
-85 -2362 2374 0
-2363 2374 0
-85 -2363 2375 0
-2364 2375 0
-85 -2364 2376 0
-2365 2376 0
-85 -2365 2377 0
-2366 2377 0
-85 -2366 2378 0
-2367 2378 0
-85 -2367 2379 0
-2368 2379 0
-85 -2368 2380 0
-2369 2380 0
-85 -2369 2381 0
-2370 2381 0
-85 -2370 2382 0
-2371 2382 0
-85 -2371 2383 0
-2372 2383 0
-85 -2372 0
-86 2384 0
-2373 2384 0
-86 -2373 2385 0
-2374 2385 0
-86 -2374 2386 0
-2375 2386 0
-86 -2375 2387 0
-2376 2387 0
-86 -2376 2388 0
-2377 2388 0
-86 -2377 2389 0
-2378 2389 0
-86 -2378 2390 0
-2379 2390 0
-86 -2379 2391 0
-2380 2391 0
-86 -2380 2392 0
-2381 2392 0
-86 -2381 2393 0
-2382 2393 0
-86 -2382 2394 0
-2383 2394 0
-86 -2383 0
-87 2395 0
-2384 2395 0
-87 -2384 2396 0
-2385 2396 0
-87 -2385 2397 0
-2386 2397 0
-87 -2386 2398 0
-2387 2398 0
-87 -2387 2399 0
-2388 2399 0
-87 -2388 2400 0
-2389 2400 0
-87 -2389 2401 0
-2390 2401 0
-87 -2390 2402 0
-2391 2402 0
-87 -2391 2403 0
-2392 2403 0
-87 -2392 2404 0
-2393 2404 0
-87 -2393 2405 0
-2394 2405 0
-87 -2394 0
-88 2406 0
-2395 2406 0
-88 -2395 2407 0
-2396 2407 0
-88 -2396 2408 0
-2397 2408 0
-88 -2397 2409 0
-2398 2409 0
-88 -2398 2410 0
-2399 2410 0
-88 -2399 2411 0
-2400 2411 0
-88 -2400 2412 0
-2401 2412 0
-88 -2401 2413 0
-2402 2413 0
-88 -2402 2414 0
-2403 2414 0
-88 -2403 2415 0
-2404 2415 0
-88 -2404 2416 0
-2405 2416 0
-88 -2405 0
-89 2417 0
-2406 2417 0
-89 -2406 2418 0
-2407 2418 0
-89 -2407 2419 0
-2408 2419 0
-89 -2408 2420 0
-2409 2420 0
-89 -2409 2421 0
-2410 2421 0
-89 -2410 2422 0
-2411 2422 0
-89 -2411 2423 0
-2412 2423 0
-89 -2412 2424 0
-2413 2424 0
-89 -2413 2425 0
-2414 2425 0
-89 -2414 2426 0
-2415 2426 0
-89 -2415 2427 0
-2416 2427 0
-89 -2416 0
-90 2428 0
-2417 2428 0
-90 -2417 2429 0
-2418 2429 0
-90 -2418 2430 0
-2419 2430 0
-90 -2419 2431 0
-2420 2431 0
-90 -2420 2432 0
-2421 2432 0
-90 -2421 2433 0
-2422 2433 0
-90 -2422 2434 0
-2423 2434 0
-90 -2423 2435 0
-2424 2435 0
-90 -2424 2436 0
-2425 2436 0
-90 -2425 2437 0
-2426 2437 0
-90 -2426 2438 0
-2427 2438 0
-90 -2427 0
-91 2439 0
-2428 2439 0
-91 -2428 2440 0
-2429 2440 0
-91 -2429 2441 0
-2430 2441 0
-91 -2430 2442 0
-2431 2442 0
-91 -2431 2443 0
-2432 2443 0
-91 -2432 2444 0
-2433 2444 0
-91 -2433 2445 0
-2434 2445 0
-91 -2434 2446 0
-2435 2446 0
-91 -2435 2447 0
-2436 2447 0
-91 -2436 2448 0
-2437 2448 0
-91 -2437 2449 0
-2438 2449 0
-91 -2438 0
-92 2450 0
-2439 2450 0
-92 -2439 2451 0
-2440 2451 0
-92 -2440 2452 0
-2441 2452 0
-92 -2441 2453 0
-2442 2453 0
-92 -2442 2454 0
-2443 2454 0
-92 -2443 2455 0
-2444 2455 0
-92 -2444 2456 0
-2445 2456 0
-92 -2445 2457 0
-2446 2457 0
-92 -2446 2458 0
-2447 2458 0
-92 -2447 2459 0
-2448 2459 0
-92 -2448 2460 0
-2449 2460 0
-92 -2449 0
-93 2461 0
-2450 2461 0
-93 -2450 2462 0
-2451 2462 0
-93 -2451 2463 0
-2452 2463 0
-93 -2452 2464 0
-2453 2464 0
-93 -2453 2465 0
-2454 2465 0
-93 -2454 2466 0
-2455 2466 0
-93 -2455 2467 0
-2456 2467 0
-93 -2456 2468 0
-2457 2468 0
-93 -2457 2469 0
-2458 2469 0
-93 -2458 2470 0
-2459 2470 0
-93 -2459 2471 0
-2460 2471 0
-93 -2460 0
-94 2472 0
-2461 2472 0
-94 -2461 2473 0
-2462 2473 0
-94 -2462 2474 0
-2463 2474 0
-94 -2463 2475 0
-2464 2475 0
-94 -2464 2476 0
-2465 2476 0
-94 -2465 2477 0
-2466 2477 0
-94 -2466 2478 0
-2467 2478 0
-94 -2467 2479 0
-2468 2479 0
-94 -2468 2480 0
-2469 2480 0
-94 -2469 2481 0
-2470 2481 0
-94 -2470 2482 0
-2471 2482 0
-94 -2471 0
-95 2483 0
-2472 2483 0
-95 -2472 2484 0
-2473 2484 0
-95 -2473 2485 0
-2474 2485 0
-95 -2474 2486 0
-2475 2486 0
-95 -2475 2487 0
-2476 2487 0
-95 -2476 2488 0
-2477 2488 0
-95 -2477 2489 0
-2478 2489 0
-95 -2478 2490 0
-2479 2490 0
-95 -2479 2491 0
-2480 2491 0
-95 -2480 2492 0
-2481 2492 0
-95 -2481 2493 0
-2482 2493 0
-95 -2482 0
-96 2494 0
-2483 2494 0
-96 -2483 2495 0
-2484 2495 0
-96 -2484 2496 0
-2485 2496 0
-96 -2485 2497 0
-2486 2497 0
-96 -2486 2498 0
-2487 2498 0
-96 -2487 2499 0
-2488 2499 0
-96 -2488 2500 0
-2489 2500 0
-96 -2489 2501 0
-2490 2501 0
-96 -2490 2502 0
-2491 2502 0
-96 -2491 2503 0
-2492 2503 0
-96 -2492 2504 0
-2493 2504 0
-96 -2493 0
-97 2505 0
-2494 2505 0
-97 -2494 2506 0
-2495 2506 0
-97 -2495 2507 0
-2496 2507 0
-97 -2496 2508 0
-2497 2508 0
-97 -2497 2509 0
-2498 2509 0
-97 -2498 2510 0
-2499 2510 0
-97 -2499 2511 0
-2500 2511 0
-97 -2500 2512 0
-2501 2512 0
-97 -2501 2513 0
-2502 2513 0
-97 -2502 2514 0
-2503 2514 0
-97 -2503 2515 0
-2504 2515 0
-97 -2504 0
-98 2516 0
-2505 2516 0
-98 -2505 2517 0
-2506 2517 0
-98 -2506 2518 0
-2507 2518 0
-98 -2507 2519 0
-2508 2519 0
-98 -2508 2520 0
-2509 2520 0
-98 -2509 2521 0
-2510 2521 0
-98 -2510 2522 0
-2511 2522 0
-98 -2511 2523 0
-2512 2523 0
-98 -2512 2524 0
-2513 2524 0
-98 -2513 2525 0
-2514 2525 0
-98 -2514 2526 0
-2515 2526 0
-98 -2515 0
-99 2527 0
-2516 2527 0
-99 -2516 2528 0
-2517 2528 0
-99 -2517 2529 0
-2518 2529 0
-99 -2518 2530 0
-2519 2530 0
-99 -2519 2531 0
-2520 2531 0
-99 -2520 2532 0
-2521 2532 0
-99 -2521 2533 0
-2522 2533 0
-99 -2522 2534 0
-2523 2534 0
-99 -2523 2535 0
-2524 2535 0
-99 -2524 2536 0
-2525 2536 0
-99 -2525 2537 0
-2526 2537 0
-99 -2526 0
-100 2538 0
-2527 2538 0
-100 -2527 2539 0
-2528 2539 0
-100 -2528 2540 0
-2529 2540 0
-100 -2529 2541 0
-2530 2541 0
-100 -2530 2542 0
-2531 2542 0
-100 -2531 2543 0
-2532 2543 0
-100 -2532 2544 0
-2533 2544 0
-100 -2533 2545 0
-2534 2545 0
-100 -2534 2546 0
-2535 2546 0
-100 -2535 2547 0
-2536 2547 0
-100 -2536 2548 0
-2537 2548 0
-100 -2537 0
-101 2549 0
-2538 2549 0
-101 -2538 2550 0
-2539 2550 0
-101 -2539 2551 0
-2540 2551 0
-101 -2540 2552 0
-2541 2552 0
-101 -2541 2553 0
-2542 2553 0
-101 -2542 2554 0
-2543 2554 0
-101 -2543 2555 0
-2544 2555 0
-101 -2544 2556 0
-2545 2556 0
-101 -2545 2557 0
-2546 2557 0
-101 -2546 2558 0
-2547 2558 0
-101 -2547 2559 0
-2548 2559 0
-101 -2548 0
-102 2560 0
-2549 2560 0
-102 -2549 2561 0
-2550 2561 0
-102 -2550 2562 0
-2551 2562 0
-102 -2551 2563 0
-2552 2563 0
-102 -2552 2564 0
-2553 2564 0
-102 -2553 2565 0
-2554 2565 0
-102 -2554 2566 0
-2555 2566 0
-102 -2555 2567 0
-2556 2567 0
-102 -2556 2568 0
-2557 2568 0
-102 -2557 2569 0
-2558 2569 0
-102 -2558 2570 0
-2559 2570 0
-102 -2559 0
-103 2571 0
-2560 2571 0
-103 -2560 2572 0
-2561 2572 0
-103 -2561 2573 0
-2562 2573 0
-103 -2562 2574 0
-2563 2574 0
-103 -2563 2575 0
-2564 2575 0
-103 -2564 2576 0
-2565 2576 0
-103 -2565 2577 0
-2566 2577 0
-103 -2566 2578 0
-2567 2578 0
-103 -2567 2579 0
-2568 2579 0
-103 -2568 2580 0
-2569 2580 0
-103 -2569 2581 0
-2570 2581 0
-103 -2570 0
-104 2582 0
-2571 2582 0
-104 -2571 2583 0
-2572 2583 0
-104 -2572 2584 0
-2573 2584 0
-104 -2573 2585 0
-2574 2585 0
-104 -2574 2586 0
-2575 2586 0
-104 -2575 2587 0
-2576 2587 0
-104 -2576 2588 0
-2577 2588 0
-104 -2577 2589 0
-2578 2589 0
-104 -2578 2590 0
-2579 2590 0
-104 -2579 2591 0
-2580 2591 0
-104 -2580 2592 0
-2581 2592 0
-104 -2581 0
-105 2593 0
-2582 2593 0
-105 -2582 2594 0
-2583 2594 0
-105 -2583 2595 0
-2584 2595 0
-105 -2584 2596 0
-2585 2596 0
-105 -2585 2597 0
-2586 2597 0
-105 -2586 2598 0
-2587 2598 0
-105 -2587 2599 0
-2588 2599 0
-105 -2588 2600 0
-2589 2600 0
-105 -2589 2601 0
-2590 2601 0
-105 -2590 2602 0
-2591 2602 0
-105 -2591 2603 0
-2592 2603 0
-105 -2592 0
-106 2604 0
-2593 2604 0
-106 -2593 2605 0
-2594 2605 0
-106 -2594 2606 0
-2595 2606 0
-106 -2595 2607 0
-2596 2607 0
-106 -2596 2608 0
-2597 2608 0
-106 -2597 2609 0
-2598 2609 0
-106 -2598 2610 0
-2599 2610 0
-106 -2599 2611 0
-2600 2611 0
-106 -2600 2612 0
-2601 2612 0
-106 -2601 2613 0
-2602 2613 0
-106 -2602 2614 0
-2603 2614 0
-106 -2603 0
-107 2615 0
-2604 2615 0
-107 -2604 2616 0
-2605 2616 0
-107 -2605 2617 0
-2606 2617 0
-107 -2606 2618 0
-2607 2618 0
-107 -2607 2619 0
-2608 2619 0
-107 -2608 2620 0
-2609 2620 0
-107 -2609 2621 0
-2610 2621 0
-107 -2610 2622 0
-2611 2622 0
-107 -2611 2623 0
-2612 2623 0
-107 -2612 2624 0
-2613 2624 0
-107 -2613 2625 0
-2614 2625 0
-107 -2614 0
-108 2626 0
-2615 2626 0
-108 -2615 2627 0
-2616 2627 0
-108 -2616 2628 0
-2617 2628 0
-108 -2617 2629 0
-2618 2629 0
-108 -2618 2630 0
-2619 2630 0
-108 -2619 2631 0
-2620 2631 0
-108 -2620 2632 0
-2621 2632 0
-108 -2621 2633 0
-2622 2633 0
-108 -2622 2634 0
-2623 2634 0
-108 -2623 2635 0
-2624 2635 0
-108 -2624 2636 0
-2625 2636 0
-108 -2625 0
-109 2637 0
-2626 2637 0
-109 -2626 2638 0
-2627 2638 0
-109 -2627 2639 0
-2628 2639 0
-109 -2628 2640 0
-2629 2640 0
-109 -2629 2641 0
-2630 2641 0
-109 -2630 2642 0
-2631 2642 0
-109 -2631 2643 0
-2632 2643 0
-109 -2632 2644 0
-2633 2644 0
-109 -2633 2645 0
-2634 2645 0
-109 -2634 2646 0
-2635 2646 0
-109 -2635 2647 0
-2636 2647 0
-109 -2636 0
-110 2648 0
-2637 2648 0
-110 -2637 2649 0
-2638 2649 0
-110 -2638 2650 0
-2639 2650 0
-110 -2639 2651 0
-2640 2651 0
-110 -2640 2652 0
-2641 2652 0
-110 -2641 2653 0
-2642 2653 0
-110 -2642 2654 0
-2643 2654 0
-110 -2643 2655 0
-2644 2655 0
-110 -2644 2656 0
-2645 2656 0
-110 -2645 2657 0
-2646 2657 0
-110 -2646 2658 0
-2647 2658 0
-110 -2647 0
-111 2659 0
-2648 2659 0
-111 -2648 2660 0
-2649 2660 0
-111 -2649 2661 0
-2650 2661 0
-111 -2650 2662 0
-2651 2662 0
-111 -2651 2663 0
-2652 2663 0
-111 -2652 2664 0
-2653 2664 0
-111 -2653 2665 0
-2654 2665 0
-111 -2654 2666 0
-2655 2666 0
-111 -2655 2667 0
-2656 2667 0
-111 -2656 2668 0
-2657 2668 0
-111 -2657 2669 0
-2658 2669 0
-111 -2658 0
-112 2670 0
-2659 2670 0
-112 -2659 2671 0
-2660 2671 0
-112 -2660 2672 0
-2661 2672 0
-112 -2661 2673 0
-2662 2673 0
-112 -2662 2674 0
-2663 2674 0
-112 -2663 2675 0
-2664 2675 0
-112 -2664 2676 0
-2665 2676 0
-112 -2665 2677 0
-2666 2677 0
-112 -2666 2678 0
-2667 2678 0
-112 -2667 2679 0
-2668 2679 0
-112 -2668 2680 0
-2669 2680 0
-112 -2669 0
-113 2681 0
-2670 2681 0
-113 -2670 2682 0
-2671 2682 0
-113 -2671 2683 0
-2672 2683 0
-113 -2672 2684 0
-2673 2684 0
-113 -2673 2685 0
-2674 2685 0
-113 -2674 2686 0
-2675 2686 0
-113 -2675 2687 0
-2676 2687 0
-113 -2676 2688 0
-2677 2688 0
-113 -2677 2689 0
-2678 2689 0
-113 -2678 2690 0
-2679 2690 0
-113 -2679 2691 0
-2680 2691 0
-113 -2680 0
-114 2692 0
-2681 2692 0
-114 -2681 2693 0
-2682 2693 0
-114 -2682 2694 0
-2683 2694 0
-114 -2683 2695 0
-2684 2695 0
-114 -2684 2696 0
-2685 2696 0
-114 -2685 2697 0
-2686 2697 0
-114 -2686 2698 0
-2687 2698 0
-114 -2687 2699 0
-2688 2699 0
-114 -2688 2700 0
-2689 2700 0
-114 -2689 2701 0
-2690 2701 0
-114 -2690 2702 0
-2691 2702 0
-114 -2691 0
-115 2703 0
-2692 2703 0
-115 -2692 2704 0
-2693 2704 0
-115 -2693 2705 0
-2694 2705 0
-115 -2694 2706 0
-2695 2706 0
-115 -2695 2707 0
-2696 2707 0
-115 -2696 2708 0
-2697 2708 0
-115 -2697 2709 0
-2698 2709 0
-115 -2698 2710 0
-2699 2710 0
-115 -2699 2711 0
-2700 2711 0
-115 -2700 2712 0
-2701 2712 0
-115 -2701 2713 0
-2702 2713 0
-115 -2702 0
-116 2714 0
-2703 2714 0
-116 -2703 2715 0
-2704 2715 0
-116 -2704 2716 0
-2705 2716 0
-116 -2705 2717 0
-2706 2717 0
-116 -2706 2718 0
-2707 2718 0
-116 -2707 2719 0
-2708 2719 0
-116 -2708 2720 0
-2709 2720 0
-116 -2709 2721 0
-2710 2721 0
-116 -2710 2722 0
-2711 2722 0
-116 -2711 2723 0
-2712 2723 0
-116 -2712 2724 0
-2713 2724 0
-116 -2713 0
-117 2725 0
-2714 2725 0
-117 -2714 2726 0
-2715 2726 0
-117 -2715 2727 0
-2716 2727 0
-117 -2716 2728 0
-2717 2728 0
-117 -2717 2729 0
-2718 2729 0
-117 -2718 2730 0
-2719 2730 0
-117 -2719 2731 0
-2720 2731 0
-117 -2720 2732 0
-2721 2732 0
-117 -2721 2733 0
-2722 2733 0
-117 -2722 2734 0
-2723 2734 0
-117 -2723 2735 0
-2724 2735 0
-117 -2724 0
-118 2736 0
-2725 2736 0
-118 -2725 2737 0
-2726 2737 0
-118 -2726 2738 0
-2727 2738 0
-118 -2727 2739 0
-2728 2739 0
-118 -2728 2740 0
-2729 2740 0
-118 -2729 2741 0
-2730 2741 0
-118 -2730 2742 0
-2731 2742 0
-118 -2731 2743 0
-2732 2743 0
-118 -2732 2744 0
-2733 2744 0
-118 -2733 2745 0
-2734 2745 0
-118 -2734 2746 0
-2735 2746 0
-118 -2735 0
-119 2747 0
-2736 2747 0
-119 -2736 2748 0
-2737 2748 0
-119 -2737 2749 0
-2738 2749 0
-119 -2738 2750 0
-2739 2750 0
-119 -2739 2751 0
-2740 2751 0
-119 -2740 2752 0
-2741 2752 0
-119 -2741 2753 0
-2742 2753 0
-119 -2742 2754 0
-2743 2754 0
-119 -2743 2755 0
-2744 2755 0
-119 -2744 2756 0
-2745 2756 0
-119 -2745 2757 0
-2746 2757 0
-119 -2746 0
-120 2758 0
-2747 2758 0
-120 -2747 2759 0
-2748 2759 0
-120 -2748 2760 0
-2749 2760 0
-120 -2749 2761 0
-2750 2761 0
-120 -2750 2762 0
-2751 2762 0
-120 -2751 2763 0
-2752 2763 0
-120 -2752 2764 0
-2753 2764 0
-120 -2753 2765 0
-2754 2765 0
-120 -2754 2766 0
-2755 2766 0
-120 -2755 2767 0
-2756 2767 0
-120 -2756 2768 0
-2757 2768 0
-120 -2757 0
-121 2769 0
-2758 2769 0
-121 -2758 2770 0
-2759 2770 0
-121 -2759 2771 0
-2760 2771 0
-121 -2760 2772 0
-2761 2772 0
-121 -2761 2773 0
-2762 2773 0
-121 -2762 2774 0
-2763 2774 0
-121 -2763 2775 0
-2764 2775 0
-121 -2764 2776 0
-2765 2776 0
-121 -2765 2777 0
-2766 2777 0
-121 -2766 2778 0
-2767 2778 0
-121 -2767 2779 0
-2768 2779 0
-121 -2768 0
-122 2780 0
-2769 2780 0
-122 -2769 2781 0
-2770 2781 0
-122 -2770 2782 0
-2771 2782 0
-122 -2771 2783 0
-2772 2783 0
-122 -2772 2784 0
-2773 2784 0
-122 -2773 2785 0
-2774 2785 0
-122 -2774 2786 0
-2775 2786 0
-122 -2775 2787 0
-2776 2787 0
-122 -2776 2788 0
-2777 2788 0
-122 -2777 2789 0
-2778 2789 0
-122 -2778 2790 0
-2779 2790 0
-122 -2779 0
-123 2791 0
-2780 2791 0
-123 -2780 2792 0
-2781 2792 0
-123 -2781 2793 0
-2782 2793 0
-123 -2782 2794 0
-2783 2794 0
-123 -2783 2795 0
-2784 2795 0
-123 -2784 2796 0
-2785 2796 0
-123 -2785 2797 0
-2786 2797 0
-123 -2786 2798 0
-2787 2798 0
-123 -2787 2799 0
-2788 2799 0
-123 -2788 2800 0
-2789 2800 0
-123 -2789 2801 0
-2790 2801 0
-123 -2790 0
-124 2802 0
-2791 2802 0
-124 -2791 2803 0
-2792 2803 0
-124 -2792 2804 0
-2793 2804 0
-124 -2793 2805 0
-2794 2805 0
-124 -2794 2806 0
-2795 2806 0
-124 -2795 2807 0
-2796 2807 0
-124 -2796 2808 0
-2797 2808 0
-124 -2797 2809 0
-2798 2809 0
-124 -2798 2810 0
-2799 2810 0
-124 -2799 2811 0
-2800 2811 0
-124 -2800 2812 0
-2801 2812 0
-124 -2801 0
-125 2813 0
-2802 2813 0
-125 -2802 2814 0
-2803 2814 0
-125 -2803 2815 0
-2804 2815 0
-125 -2804 2816 0
-2805 2816 0
-125 -2805 2817 0
-2806 2817 0
-125 -2806 2818 0
-2807 2818 0
-125 -2807 2819 0
-2808 2819 0
-125 -2808 2820 0
-2809 2820 0
-125 -2809 2821 0
-2810 2821 0
-125 -2810 2822 0
-2811 2822 0
-125 -2811 2823 0
-2812 2823 0
-125 -2812 0
-126 2824 0
-2813 2824 0
-126 -2813 2825 0
-2814 2825 0
-126 -2814 2826 0
-2815 2826 0
-126 -2815 2827 0
-2816 2827 0
-126 -2816 2828 0
-2817 2828 0
-126 -2817 2829 0
-2818 2829 0
-126 -2818 2830 0
-2819 2830 0
-126 -2819 2831 0
-2820 2831 0
-126 -2820 2832 0
-2821 2832 0
-126 -2821 2833 0
-2822 2833 0
-126 -2822 2834 0
-2823 2834 0
-126 -2823 0
-127 2835 0
-2824 2835 0
-127 -2824 2836 0
-2825 2836 0
-127 -2825 2837 0
-2826 2837 0
-127 -2826 2838 0
-2827 2838 0
-127 -2827 2839 0
-2828 2839 0
-127 -2828 2840 0
-2829 2840 0
-127 -2829 2841 0
-2830 2841 0
-127 -2830 2842 0
-2831 2842 0
-127 -2831 2843 0
-2832 2843 0
-127 -2832 2844 0
-2833 2844 0
-127 -2833 2845 0
-2834 2845 0
-127 -2834 0
-128 2846 0
-2835 2846 0
-128 -2835 2847 0
-2836 2847 0
-128 -2836 2848 0
-2837 2848 0
-128 -2837 2849 0
-2838 2849 0
-128 -2838 2850 0
-2839 2850 0
-128 -2839 2851 0
-2840 2851 0
-128 -2840 2852 0
-2841 2852 0
-128 -2841 2853 0
-2842 2853 0
-128 -2842 2854 0
-2843 2854 0
-128 -2843 2855 0
-2844 2855 0
-128 -2844 2856 0
-2845 2856 0
-128 -2845 0
-129 2857 0
-2846 2857 0
-129 -2846 2858 0
-2847 2858 0
-129 -2847 2859 0
-2848 2859 0
-129 -2848 2860 0
-2849 2860 0
-129 -2849 2861 0
-2850 2861 0
-129 -2850 2862 0
-2851 2862 0
-129 -2851 2863 0
-2852 2863 0
-129 -2852 2864 0
-2853 2864 0
-129 -2853 2865 0
-2854 2865 0
-129 -2854 2866 0
-2855 2866 0
-129 -2855 2867 0
-2856 2867 0
-129 -2856 0
-130 2868 0
-2857 2868 0
-130 -2857 2869 0
-2858 2869 0
-130 -2858 2870 0
-2859 2870 0
-130 -2859 2871 0
-2860 2871 0
-130 -2860 2872 0
-2861 2872 0
-130 -2861 2873 0
-2862 2873 0
-130 -2862 2874 0
-2863 2874 0
-130 -2863 2875 0
-2864 2875 0
-130 -2864 2876 0
-2865 2876 0
-130 -2865 2877 0
-2866 2877 0
-130 -2866 2878 0
-2867 2878 0
-130 -2867 0
-131 2879 0
-2868 2879 0
-131 -2868 2880 0
-2869 2880 0
-131 -2869 2881 0
-2870 2881 0
-131 -2870 2882 0
-2871 2882 0
-131 -2871 2883 0
-2872 2883 0
-131 -2872 2884 0
-2873 2884 0
-131 -2873 2885 0
-2874 2885 0
-131 -2874 2886 0
-2875 2886 0
-131 -2875 2887 0
-2876 2887 0
-131 -2876 2888 0
-2877 2888 0
-131 -2877 2889 0
-2878 2889 0
-131 -2878 0
-132 2890 0
-2879 2890 0
-132 -2879 2891 0
-2880 2891 0
-132 -2880 2892 0
-2881 2892 0
-132 -2881 2893 0
-2882 2893 0
-132 -2882 2894 0
-2883 2894 0
-132 -2883 2895 0
-2884 2895 0
-132 -2884 2896 0
-2885 2896 0
-132 -2885 2897 0
-2886 2897 0
-132 -2886 2898 0
-2887 2898 0
-132 -2887 2899 0
-2888 2899 0
-132 -2888 2900 0
-2889 2900 0
-132 -2889 0
-133 2901 0
-2890 2901 0
-133 -2890 2902 0
-2891 2902 0
-133 -2891 2903 0
-2892 2903 0
-133 -2892 2904 0
-2893 2904 0
-133 -2893 2905 0
-2894 2905 0
-133 -2894 2906 0
-2895 2906 0
-133 -2895 2907 0
-2896 2907 0
-133 -2896 2908 0
-2897 2908 0
-133 -2897 2909 0
-2898 2909 0
-133 -2898 2910 0
-2899 2910 0
-133 -2899 2911 0
-2900 2911 0
-133 -2900 0
-134 2912 0
-2901 2912 0
-134 -2901 2913 0
-2902 2913 0
-134 -2902 2914 0
-2903 2914 0
-134 -2903 2915 0
-2904 2915 0
-134 -2904 2916 0
-2905 2916 0
-134 -2905 2917 0
-2906 2917 0
-134 -2906 2918 0
-2907 2918 0
-134 -2907 2919 0
-2908 2919 0
-134 -2908 2920 0
-2909 2920 0
-134 -2909 2921 0
-2910 2921 0
-134 -2910 2922 0
-2911 2922 0
-134 -2911 0
-135 2923 0
-2912 2923 0
-135 -2912 2924 0
-2913 2924 0
-135 -2913 2925 0
-2914 2925 0
-135 -2914 2926 0
-2915 2926 0
-135 -2915 2927 0
-2916 2927 0
-135 -2916 2928 0
-2917 2928 0
-135 -2917 2929 0
-2918 2929 0
-135 -2918 2930 0
-2919 2930 0
-135 -2919 2931 0
-2920 2931 0
-135 -2920 2932 0
-2921 2932 0
-135 -2921 2933 0
-2922 2933 0
-135 -2922 0
-136 2934 0
-2923 2934 0
-136 -2923 2935 0
-2924 2935 0
-136 -2924 2936 0
-2925 2936 0
-136 -2925 2937 0
-2926 2937 0
-136 -2926 2938 0
-2927 2938 0
-136 -2927 2939 0
-2928 2939 0
-136 -2928 2940 0
-2929 2940 0
-136 -2929 2941 0
-2930 2941 0
-136 -2930 2942 0
-2931 2942 0
-136 -2931 2943 0
-2932 2943 0
-136 -2932 2944 0
-2933 2944 0
-136 -2933 0
-137 2945 0
-2934 2945 0
-137 -2934 2946 0
-2935 2946 0
-137 -2935 2947 0
-2936 2947 0
-137 -2936 2948 0
-2937 2948 0
-137 -2937 2949 0
-2938 2949 0
-137 -2938 2950 0
-2939 2950 0
-137 -2939 2951 0
-2940 2951 0
-137 -2940 2952 0
-2941 2952 0
-137 -2941 2953 0
-2942 2953 0
-137 -2942 2954 0
-2943 2954 0
-137 -2943 2955 0
-2944 2955 0
-137 -2944 0
-138 2956 0
-2945 2956 0
-138 -2945 2957 0
-2946 2957 0
-138 -2946 2958 0
-2947 2958 0
-138 -2947 2959 0
-2948 2959 0
-138 -2948 2960 0
-2949 2960 0
-138 -2949 2961 0
-2950 2961 0
-138 -2950 2962 0
-2951 2962 0
-138 -2951 2963 0
-2952 2963 0
-138 -2952 2964 0
-2953 2964 0
-138 -2953 2965 0
-2954 2965 0
-138 -2954 2966 0
-2955 2966 0
-138 -2955 0
-139 2967 0
-2956 2967 0
-139 -2956 2968 0
-2957 2968 0
-139 -2957 2969 0
-2958 2969 0
-139 -2958 2970 0
-2959 2970 0
-139 -2959 2971 0
-2960 2971 0
-139 -2960 2972 0
-2961 2972 0
-139 -2961 2973 0
-2962 2973 0
-139 -2962 2974 0
-2963 2974 0
-139 -2963 2975 0
-2964 2975 0
-139 -2964 2976 0
-2965 2976 0
-139 -2965 2977 0
-2966 2977 0
-139 -2966 0
-140 2978 0
-2967 2978 0
-140 -2967 2979 0
-2968 2979 0
-140 -2968 2980 0
-2969 2980 0
-140 -2969 2981 0
-2970 2981 0
-140 -2970 2982 0
-2971 2982 0
-140 -2971 2983 0
-2972 2983 0
-140 -2972 2984 0
-2973 2984 0
-140 -2973 2985 0
-2974 2985 0
-140 -2974 2986 0
-2975 2986 0
-140 -2975 2987 0
-2976 2987 0
-140 -2976 2988 0
-2977 2988 0
-140 -2977 0
-141 2989 0
-2978 2989 0
-141 -2978 2990 0
-2979 2990 0
-141 -2979 2991 0
-2980 2991 0
-141 -2980 2992 0
-2981 2992 0
-141 -2981 2993 0
-2982 2993 0
-141 -2982 2994 0
-2983 2994 0
-141 -2983 2995 0
-2984 2995 0
-141 -2984 2996 0
-2985 2996 0
-141 -2985 2997 0
-2986 2997 0
-141 -2986 2998 0
-2987 2998 0
-141 -2987 2999 0
-2988 2999 0
-141 -2988 0
-142 3000 0
-2989 3000 0
-142 -2989 3001 0
-2990 3001 0
-142 -2990 3002 0
-2991 3002 0
-142 -2991 3003 0
-2992 3003 0
-142 -2992 3004 0
-2993 3004 0
-142 -2993 3005 0
-2994 3005 0
-142 -2994 3006 0
-2995 3006 0
-142 -2995 3007 0
-2996 3007 0
-142 -2996 3008 0
-2997 3008 0
-142 -2997 3009 0
-2998 3009 0
-142 -2998 3010 0
-2999 3010 0
-142 -2999 0
-143 3011 0
-3000 3011 0
-143 -3000 3012 0
-3001 3012 0
-143 -3001 3013 0
-3002 3013 0
-143 -3002 3014 0
-3003 3014 0
-143 -3003 3015 0
-3004 3015 0
-143 -3004 3016 0
-3005 3016 0
-143 -3005 3017 0
-3006 3017 0
-143 -3006 3018 0
-3007 3018 0
-143 -3007 3019 0
-3008 3019 0
-143 -3008 3020 0
-3009 3020 0
-143 -3009 3021 0
-3010 3021 0
-143 -3010 0
-144 3022 0
-3011 3022 0
-144 -3011 3023 0
-3012 3023 0
-144 -3012 3024 0
-3013 3024 0
-144 -3013 3025 0
-3014 3025 0
-144 -3014 3026 0
-3015 3026 0
-144 -3015 3027 0
-3016 3027 0
-144 -3016 3028 0
-3017 3028 0
-144 -3017 3029 0
-3018 3029 0
-144 -3018 3030 0
-3019 3030 0
-144 -3019 3031 0
-3020 3031 0
-144 -3020 3032 0
-3021 3032 0
-144 -3021 0
-145 3033 0
-3022 3033 0
-145 -3022 3034 0
-3023 3034 0
-145 -3023 3035 0
-3024 3035 0
-145 -3024 3036 0
-3025 3036 0
-145 -3025 3037 0
-3026 3037 0
-145 -3026 3038 0
-3027 3038 0
-145 -3027 3039 0
-3028 3039 0
-145 -3028 3040 0
-3029 3040 0
-145 -3029 3041 0
-3030 3041 0
-145 -3030 3042 0
-3031 3042 0
-145 -3031 3043 0
-3032 3043 0
-145 -3032 0
-146 3044 0
-3033 3044 0
-146 -3033 3045 0
-3034 3045 0
-146 -3034 3046 0
-3035 3046 0
-146 -3035 3047 0
-3036 3047 0
-146 -3036 3048 0
-3037 3048 0
-146 -3037 3049 0
-3038 3049 0
-146 -3038 3050 0
-3039 3050 0
-146 -3039 3051 0
-3040 3051 0
-146 -3040 3052 0
-3041 3052 0
-146 -3041 3053 0
-3042 3053 0
-146 -3042 3054 0
-3043 3054 0
-146 -3043 0
-147 3055 0
-3044 3055 0
-147 -3044 3056 0
-3045 3056 0
-147 -3045 3057 0
-3046 3057 0
-147 -3046 3058 0
-3047 3058 0
-147 -3047 3059 0
-3048 3059 0
-147 -3048 3060 0
-3049 3060 0
-147 -3049 3061 0
-3050 3061 0
-147 -3050 3062 0
-3051 3062 0
-147 -3051 3063 0
-3052 3063 0
-147 -3052 3064 0
-3053 3064 0
-147 -3053 3065 0
-3054 3065 0
-147 -3054 0
-148 3066 0
-3055 3066 0
-148 -3055 3067 0
-3056 3067 0
-148 -3056 3068 0
-3057 3068 0
-148 -3057 3069 0
-3058 3069 0
-148 -3058 3070 0
-3059 3070 0
-148 -3059 3071 0
-3060 3071 0
-148 -3060 3072 0
-3061 3072 0
-148 -3061 3073 0
-3062 3073 0
-148 -3062 3074 0
-3063 3074 0
-148 -3063 3075 0
-3064 3075 0
-148 -3064 3076 0
-3065 3076 0
-148 -3065 0
-149 3077 0
-3066 3077 0
-149 -3066 3078 0
-3067 3078 0
-149 -3067 3079 0
-3068 3079 0
-149 -3068 3080 0
-3069 3080 0
-149 -3069 3081 0
-3070 3081 0
-149 -3070 3082 0
-3071 3082 0
-149 -3071 3083 0
-3072 3083 0
-149 -3072 3084 0
-3073 3084 0
-149 -3073 3085 0
-3074 3085 0
-149 -3074 3086 0
-3075 3086 0
-149 -3075 3087 0
-3076 3087 0
-149 -3076 0
-150 3088 0
-3077 3088 0
-150 -3077 3089 0
-3078 3089 0
-150 -3078 3090 0
-3079 3090 0
-150 -3079 3091 0
-3080 3091 0
-150 -3080 3092 0
-3081 3092 0
-150 -3081 3093 0
-3082 3093 0
-150 -3082 3094 0
-3083 3094 0
-150 -3083 3095 0
-3084 3095 0
-150 -3084 3096 0
-3085 3096 0
-150 -3085 3097 0
-3086 3097 0
-150 -3086 3098 0
-3087 3098 0
-150 -3087 0
-151 3099 0
-3088 3099 0
-151 -3088 3100 0
-3089 3100 0
-151 -3089 3101 0
-3090 3101 0
-151 -3090 3102 0
-3091 3102 0
-151 -3091 3103 0
-3092 3103 0
-151 -3092 3104 0
-3093 3104 0
-151 -3093 3105 0
-3094 3105 0
-151 -3094 3106 0
-3095 3106 0
-151 -3095 3107 0
-3096 3107 0
-151 -3096 3108 0
-3097 3108 0
-151 -3097 3109 0
-3098 3109 0
-151 -3098 0
-152 3110 0
-3099 3110 0
-152 -3099 3111 0
-3100 3111 0
-152 -3100 3112 0
-3101 3112 0
-152 -3101 3113 0
-3102 3113 0
-152 -3102 3114 0
-3103 3114 0
-152 -3103 3115 0
-3104 3115 0
-152 -3104 3116 0
-3105 3116 0
-152 -3105 3117 0
-3106 3117 0
-152 -3106 3118 0
-3107 3118 0
-152 -3107 3119 0
-3108 3119 0
-152 -3108 3120 0
-3109 3120 0
-152 -3109 0
-153 3121 0
-3110 3121 0
-153 -3110 3122 0
-3111 3122 0
-153 -3111 3123 0
-3112 3123 0
-153 -3112 3124 0
-3113 3124 0
-153 -3113 3125 0
-3114 3125 0
-153 -3114 3126 0
-3115 3126 0
-153 -3115 3127 0
-3116 3127 0
-153 -3116 3128 0
-3117 3128 0
-153 -3117 3129 0
-3118 3129 0
-153 -3118 3130 0
-3119 3130 0
-153 -3119 3131 0
-3120 3131 0
-153 -3120 0
-154 3132 0
-3121 3132 0
-154 -3121 3133 0
-3122 3133 0
-154 -3122 3134 0
-3123 3134 0
-154 -3123 3135 0
-3124 3135 0
-154 -3124 3136 0
-3125 3136 0
-154 -3125 3137 0
-3126 3137 0
-154 -3126 3138 0
-3127 3138 0
-154 -3127 3139 0
-3128 3139 0
-154 -3128 3140 0
-3129 3140 0
-154 -3129 3141 0
-3130 3141 0
-154 -3130 3142 0
-3131 3142 0
-154 -3131 0
-155 3143 0
-3132 3143 0
-155 -3132 3144 0
-3133 3144 0
-155 -3133 3145 0
-3134 3145 0
-155 -3134 3146 0
-3135 3146 0
-155 -3135 3147 0
-3136 3147 0
-155 -3136 3148 0
-3137 3148 0
-155 -3137 3149 0
-3138 3149 0
-155 -3138 3150 0
-3139 3150 0
-155 -3139 3151 0
-3140 3151 0
-155 -3140 3152 0
-3141 3152 0
-155 -3141 3153 0
-3142 3153 0
-155 -3142 0
-156 3154 0
-3143 3154 0
-156 -3143 3155 0
-3144 3155 0
-156 -3144 3156 0
-3145 3156 0
-156 -3145 3157 0
-3146 3157 0
-156 -3146 3158 0
-3147 3158 0
-156 -3147 3159 0
-3148 3159 0
-156 -3148 3160 0
-3149 3160 0
-156 -3149 3161 0
-3150 3161 0
-156 -3150 3162 0
-3151 3162 0
-156 -3151 3163 0
-3152 3163 0
-156 -3152 3164 0
-3153 3164 0
-156 -3153 0
-157 3165 0
-3154 3165 0
-157 -3154 3166 0
-3155 3166 0
-157 -3155 3167 0
-3156 3167 0
-157 -3156 3168 0
-3157 3168 0
-157 -3157 3169 0
-3158 3169 0
-157 -3158 3170 0
-3159 3170 0
-157 -3159 3171 0
-3160 3171 0
-157 -3160 3172 0
-3161 3172 0
-157 -3161 3173 0
-3162 3173 0
-157 -3162 3174 0
-3163 3174 0
-157 -3163 3175 0
-3164 3175 0
-157 -3164 0
-158 3176 0
-3165 3176 0
-158 -3165 3177 0
-3166 3177 0
-158 -3166 3178 0
-3167 3178 0
-158 -3167 3179 0
-3168 3179 0
-158 -3168 3180 0
-3169 3180 0
-158 -3169 3181 0
-3170 3181 0
-158 -3170 3182 0
-3171 3182 0
-158 -3171 3183 0
-3172 3183 0
-158 -3172 3184 0
-3173 3184 0
-158 -3173 3185 0
-3174 3185 0
-158 -3174 3186 0
-3175 3186 0
-158 -3175 0
-159 3187 0
-3176 3187 0
-159 -3176 3188 0
-3177 3188 0
-159 -3177 3189 0
-3178 3189 0
-159 -3178 3190 0
-3179 3190 0
-159 -3179 3191 0
-3180 3191 0
-159 -3180 3192 0
-3181 3192 0
-159 -3181 3193 0
-3182 3193 0
-159 -3182 3194 0
-3183 3194 0
-159 -3183 3195 0
-3184 3195 0
-159 -3184 3196 0
-3185 3196 0
-159 -3185 3197 0
-3186 3197 0
-159 -3186 0
-160 3198 0
-3187 3198 0
-160 -3187 3199 0
-3188 3199 0
-160 -3188 3200 0
-3189 3200 0
-160 -3189 3201 0
-3190 3201 0
-160 -3190 3202 0
-3191 3202 0
-160 -3191 3203 0
-3192 3203 0
-160 -3192 3204 0
-3193 3204 0
-160 -3193 3205 0
-3194 3205 0
-160 -3194 3206 0
-3195 3206 0
-160 -3195 3207 0
-3196 3207 0
-160 -3196 3208 0
-3197 3208 0
-160 -3197 0
-161 3209 0
-3198 3209 0
-161 -3198 3210 0
-3199 3210 0
-161 -3199 3211 0
-3200 3211 0
-161 -3200 3212 0
-3201 3212 0
-161 -3201 3213 0
-3202 3213 0
-161 -3202 3214 0
-3203 3214 0
-161 -3203 3215 0
-3204 3215 0
-161 -3204 3216 0
-3205 3216 0
-161 -3205 3217 0
-3206 3217 0
-161 -3206 3218 0
-3207 3218 0
-161 -3207 3219 0
-3208 3219 0
-161 -3208 0
-162 3220 0
-3209 3220 0
-162 -3209 3221 0
-3210 3221 0
-162 -3210 3222 0
-3211 3222 0
-162 -3211 3223 0
-3212 3223 0
-162 -3212 3224 0
-3213 3224 0
-162 -3213 3225 0
-3214 3225 0
-162 -3214 3226 0
-3215 3226 0
-162 -3215 3227 0
-3216 3227 0
-162 -3216 3228 0
-3217 3228 0
-162 -3217 3229 0
-3218 3229 0
-162 -3218 3230 0
-3219 3230 0
-162 -3219 0
-163 3231 0
-3220 3231 0
-163 -3220 3232 0
-3221 3232 0
-163 -3221 3233 0
-3222 3233 0
-163 -3222 3234 0
-3223 3234 0
-163 -3223 3235 0
-3224 3235 0
-163 -3224 3236 0
-3225 3236 0
-163 -3225 3237 0
-3226 3237 0
-163 -3226 3238 0
-3227 3238 0
-163 -3227 3239 0
-3228 3239 0
-163 -3228 3240 0
-3229 3240 0
-163 -3229 3241 0
-3230 3241 0
-163 -3230 0
-164 3242 0
-3231 3242 0
-164 -3231 3243 0
-3232 3243 0
-164 -3232 3244 0
-3233 3244 0
-164 -3233 3245 0
-3234 3245 0
-164 -3234 3246 0
-3235 3246 0
-164 -3235 3247 0
-3236 3247 0
-164 -3236 3248 0
-3237 3248 0
-164 -3237 3249 0
-3238 3249 0
-164 -3238 3250 0
-3239 3250 0
-164 -3239 3251 0
-3240 3251 0
-164 -3240 3252 0
-3241 3252 0
-164 -3241 0
-165 3253 0
-3242 3253 0
-165 -3242 3254 0
-3243 3254 0
-165 -3243 3255 0
-3244 3255 0
-165 -3244 3256 0
-3245 3256 0
-165 -3245 3257 0
-3246 3257 0
-165 -3246 3258 0
-3247 3258 0
-165 -3247 3259 0
-3248 3259 0
-165 -3248 3260 0
-3249 3260 0
-165 -3249 3261 0
-3250 3261 0
-165 -3250 3262 0
-3251 3262 0
-165 -3251 3263 0
-3252 3263 0
-165 -3252 0
-166 3264 0
-3253 3264 0
-166 -3253 3265 0
-3254 3265 0
-166 -3254 3266 0
-3255 3266 0
-166 -3255 3267 0
-3256 3267 0
-166 -3256 3268 0
-3257 3268 0
-166 -3257 3269 0
-3258 3269 0
-166 -3258 3270 0
-3259 3270 0
-166 -3259 3271 0
-3260 3271 0
-166 -3260 3272 0
-3261 3272 0
-166 -3261 3273 0
-3262 3273 0
-166 -3262 3274 0
-3263 3274 0
-166 -3263 0
-167 3275 0
-3264 3275 0
-167 -3264 3276 0
-3265 3276 0
-167 -3265 3277 0
-3266 3277 0
-167 -3266 3278 0
-3267 3278 0
-167 -3267 3279 0
-3268 3279 0
-167 -3268 3280 0
-3269 3280 0
-167 -3269 3281 0
-3270 3281 0
-167 -3270 3282 0
-3271 3282 0
-167 -3271 3283 0
-3272 3283 0
-167 -3272 3284 0
-3273 3284 0
-167 -3273 3285 0
-3274 3285 0
-167 -3274 0
-168 3286 0
-3275 3286 0
-168 -3275 3287 0
-3276 3287 0
-168 -3276 3288 0
-3277 3288 0
-168 -3277 3289 0
-3278 3289 0
-168 -3278 3290 0
-3279 3290 0
-168 -3279 3291 0
-3280 3291 0
-168 -3280 3292 0
-3281 3292 0
-168 -3281 3293 0
-3282 3293 0
-168 -3282 3294 0
-3283 3294 0
-168 -3283 3295 0
-3284 3295 0
-168 -3284 3296 0
-3285 3296 0
-168 -3285 0
-169 3297 0
-3286 3297 0
-169 -3286 3298 0
-3287 3298 0
-169 -3287 3299 0
-3288 3299 0
-169 -3288 3300 0
-3289 3300 0
-169 -3289 3301 0
-3290 3301 0
-169 -3290 3302 0
-3291 3302 0
-169 -3291 3303 0
-3292 3303 0
-169 -3292 3304 0
-3293 3304 0
-169 -3293 3305 0
-3294 3305 0
-169 -3294 3306 0
-3295 3306 0
-169 -3295 3307 0
-3296 3307 0
-169 -3296 0
-170 3308 0
-3297 3308 0
-170 -3297 3309 0
-3298 3309 0
-170 -3298 3310 0
-3299 3310 0
-170 -3299 3311 0
-3300 3311 0
-170 -3300 3312 0
-3301 3312 0
-170 -3301 3313 0
-3302 3313 0
-170 -3302 3314 0
-3303 3314 0
-170 -3303 3315 0
-3304 3315 0
-170 -3304 3316 0
-3305 3316 0
-170 -3305 3317 0
-3306 3317 0
-170 -3306 3318 0
-3307 3318 0
-170 -3307 0
-171 3319 0
-3308 3319 0
-171 -3308 3320 0
-3309 3320 0
-171 -3309 3321 0
-3310 3321 0
-171 -3310 3322 0
-3311 3322 0
-171 -3311 3323 0
-3312 3323 0
-171 -3312 3324 0
-3313 3324 0
-171 -3313 3325 0
-3314 3325 0
-171 -3314 3326 0
-3315 3326 0
-171 -3315 3327 0
-3316 3327 0
-171 -3316 3328 0
-3317 3328 0
-171 -3317 3329 0
-3318 3329 0
-171 -3318 0
-172 3330 0
-3319 3330 0
-172 -3319 3331 0
-3320 3331 0
-172 -3320 3332 0
-3321 3332 0
-172 -3321 3333 0
-3322 3333 0
-172 -3322 3334 0
-3323 3334 0
-172 -3323 3335 0
-3324 3335 0
-172 -3324 3336 0
-3325 3336 0
-172 -3325 3337 0
-3326 3337 0
-172 -3326 3338 0
-3327 3338 0
-172 -3327 3339 0
-3328 3339 0
-172 -3328 3340 0
-3329 3340 0
-172 -3329 0
-173 3341 0
-3330 3341 0
-173 -3330 3342 0
-3331 3342 0
-173 -3331 3343 0
-3332 3343 0
-173 -3332 3344 0
-3333 3344 0
-173 -3333 3345 0
-3334 3345 0
-173 -3334 3346 0
-3335 3346 0
-173 -3335 3347 0
-3336 3347 0
-173 -3336 3348 0
-3337 3348 0
-173 -3337 3349 0
-3338 3349 0
-173 -3338 3350 0
-3339 3350 0
-173 -3339 3351 0
-3340 3351 0
-173 -3340 0
-174 3352 0
-3341 3352 0
-174 -3341 3353 0
-3342 3353 0
-174 -3342 3354 0
-3343 3354 0
-174 -3343 3355 0
-3344 3355 0
-174 -3344 3356 0
-3345 3356 0
-174 -3345 3357 0
-3346 3357 0
-174 -3346 3358 0
-3347 3358 0
-174 -3347 3359 0
-3348 3359 0
-174 -3348 3360 0
-3349 3360 0
-174 -3349 3361 0
-3350 3361 0
-174 -3350 3362 0
-3351 3362 0
-174 -3351 0
-175 3363 0
-3352 3363 0
-175 -3352 3364 0
-3353 3364 0
-175 -3353 3365 0
-3354 3365 0
-175 -3354 3366 0
-3355 3366 0
-175 -3355 3367 0
-3356 3367 0
-175 -3356 3368 0
-3357 3368 0
-175 -3357 3369 0
-3358 3369 0
-175 -3358 3370 0
-3359 3370 0
-175 -3359 3371 0
-3360 3371 0
-175 -3360 3372 0
-3361 3372 0
-175 -3361 3373 0
-3362 3373 0
-175 -3362 0
-176 3374 0
-3363 3374 0
-176 -3363 3375 0
-3364 3375 0
-176 -3364 3376 0
-3365 3376 0
-176 -3365 3377 0
-3366 3377 0
-176 -3366 3378 0
-3367 3378 0
-176 -3367 3379 0
-3368 3379 0
-176 -3368 3380 0
-3369 3380 0
-176 -3369 3381 0
-3370 3381 0
-176 -3370 3382 0
-3371 3382 0
-176 -3371 3383 0
-3372 3383 0
-176 -3372 3384 0
-3373 3384 0
-176 -3373 0
-177 3385 0
-3374 3385 0
-177 -3374 3386 0
-3375 3386 0
-177 -3375 3387 0
-3376 3387 0
-177 -3376 3388 0
-3377 3388 0
-177 -3377 3389 0
-3378 3389 0
-177 -3378 3390 0
-3379 3390 0
-177 -3379 3391 0
-3380 3391 0
-177 -3380 3392 0
-3381 3392 0
-177 -3381 3393 0
-3382 3393 0
-177 -3382 3394 0
-3383 3394 0
-177 -3383 3395 0
-3384 3395 0
-177 -3384 0
-178 3396 0
-3385 3396 0
-178 -3385 3397 0
-3386 3397 0
-178 -3386 3398 0
-3387 3398 0
-178 -3387 3399 0
-3388 3399 0
-178 -3388 3400 0
-3389 3400 0
-178 -3389 3401 0
-3390 3401 0
-178 -3390 3402 0
-3391 3402 0
-178 -3391 3403 0
-3392 3403 0
-178 -3392 3404 0
-3393 3404 0
-178 -3393 3405 0
-3394 3405 0
-178 -3394 3406 0
-3395 3406 0
-178 -3395 0
-179 3407 0
-3396 3407 0
-179 -3396 3408 0
-3397 3408 0
-179 -3397 3409 0
-3398 3409 0
-179 -3398 3410 0
-3399 3410 0
-179 -3399 3411 0
-3400 3411 0
-179 -3400 3412 0
-3401 3412 0
-179 -3401 3413 0
-3402 3413 0
-179 -3402 3414 0
-3403 3414 0
-179 -3403 3415 0
-3404 3415 0
-179 -3404 3416 0
-3405 3416 0
-179 -3405 3417 0
-3406 3417 0
-179 -3406 0
-180 3418 0
-3407 3418 0
-180 -3407 3419 0
-3408 3419 0
-180 -3408 3420 0
-3409 3420 0
-180 -3409 3421 0
-3410 3421 0
-180 -3410 3422 0
-3411 3422 0
-180 -3411 3423 0
-3412 3423 0
-180 -3412 3424 0
-3413 3424 0
-180 -3413 3425 0
-3414 3425 0
-180 -3414 3426 0
-3415 3426 0
-180 -3415 3427 0
-3416 3427 0
-180 -3416 3428 0
-3417 3428 0
-180 -3417 0
-181 3429 0
-3418 3429 0
-181 -3418 3430 0
-3419 3430 0
-181 -3419 3431 0
-3420 3431 0
-181 -3420 3432 0
-3421 3432 0
-181 -3421 3433 0
-3422 3433 0
-181 -3422 3434 0
-3423 3434 0
-181 -3423 3435 0
-3424 3435 0
-181 -3424 3436 0
-3425 3436 0
-181 -3425 3437 0
-3426 3437 0
-181 -3426 3438 0
-3427 3438 0
-181 -3427 3439 0
-3428 3439 0
-181 -3428 0
-182 3440 0
-3429 3440 0
-182 -3429 3441 0
-3430 3441 0
-182 -3430 3442 0
-3431 3442 0
-182 -3431 3443 0
-3432 3443 0
-182 -3432 3444 0
-3433 3444 0
-182 -3433 3445 0
-3434 3445 0
-182 -3434 3446 0
-3435 3446 0
-182 -3435 3447 0
-3436 3447 0
-182 -3436 3448 0
-3437 3448 0
-182 -3437 3449 0
-3438 3449 0
-182 -3438 3450 0
-3439 3450 0
-182 -3439 0
-183 3451 0
-3440 3451 0
-183 -3440 3452 0
-3441 3452 0
-183 -3441 3453 0
-3442 3453 0
-183 -3442 3454 0
-3443 3454 0
-183 -3443 3455 0
-3444 3455 0
-183 -3444 3456 0
-3445 3456 0
-183 -3445 3457 0
-3446 3457 0
-183 -3446 3458 0
-3447 3458 0
-183 -3447 3459 0
-3448 3459 0
-183 -3448 3460 0
-3449 3460 0
-183 -3449 3461 0
-3450 3461 0
-183 -3450 0
-184 3462 0
-3451 3462 0
-184 -3451 3463 0
-3452 3463 0
-184 -3452 3464 0
-3453 3464 0
-184 -3453 3465 0
-3454 3465 0
-184 -3454 3466 0
-3455 3466 0
-184 -3455 3467 0
-3456 3467 0
-184 -3456 3468 0
-3457 3468 0
-184 -3457 3469 0
-3458 3469 0
-184 -3458 3470 0
-3459 3470 0
-184 -3459 3471 0
-3460 3471 0
-184 -3460 3472 0
-3461 3472 0
-184 -3461 0
-185 3473 0
-3462 3473 0
-185 -3462 3474 0
-3463 3474 0
-185 -3463 3475 0
-3464 3475 0
-185 -3464 3476 0
-3465 3476 0
-185 -3465 3477 0
-3466 3477 0
-185 -3466 3478 0
-3467 3478 0
-185 -3467 3479 0
-3468 3479 0
-185 -3468 3480 0
-3469 3480 0
-185 -3469 3481 0
-3470 3481 0
-185 -3470 3482 0
-3471 3482 0
-185 -3471 3483 0
-3472 3483 0
-185 -3472 0
-186 3484 0
-3473 3484 0
-186 -3473 3485 0
-3474 3485 0
-186 -3474 3486 0
-3475 3486 0
-186 -3475 3487 0
-3476 3487 0
-186 -3476 3488 0
-3477 3488 0
-186 -3477 3489 0
-3478 3489 0
-186 -3478 3490 0
-3479 3490 0
-186 -3479 3491 0
-3480 3491 0
-186 -3480 3492 0
-3481 3492 0
-186 -3481 3493 0
-3482 3493 0
-186 -3482 3494 0
-3483 3494 0
-186 -3483 0
-187 3495 0
-3484 3495 0
-187 -3484 3496 0
-3485 3496 0
-187 -3485 3497 0
-3486 3497 0
-187 -3486 3498 0
-3487 3498 0
-187 -3487 3499 0
-3488 3499 0
-187 -3488 3500 0
-3489 3500 0
-187 -3489 3501 0
-3490 3501 0
-187 -3490 3502 0
-3491 3502 0
-187 -3491 3503 0
-3492 3503 0
-187 -3492 3504 0
-3493 3504 0
-187 -3493 3505 0
-3494 3505 0
-187 -3494 0
-188 3506 0
-3495 3506 0
-188 -3495 3507 0
-3496 3507 0
-188 -3496 3508 0
-3497 3508 0
-188 -3497 3509 0
-3498 3509 0
-188 -3498 3510 0
-3499 3510 0
-188 -3499 3511 0
-3500 3511 0
-188 -3500 3512 0
-3501 3512 0
-188 -3501 3513 0
-3502 3513 0
-188 -3502 3514 0
-3503 3514 0
-188 -3503 3515 0
-3504 3515 0
-188 -3504 3516 0
-3505 3516 0
-188 -3505 0
-189 3517 0
-3506 3517 0
-189 -3506 3518 0
-3507 3518 0
-189 -3507 3519 0
-3508 3519 0
-189 -3508 3520 0
-3509 3520 0
-189 -3509 3521 0
-3510 3521 0
-189 -3510 3522 0
-3511 3522 0
-189 -3511 3523 0
-3512 3523 0
-189 -3512 3524 0
-3513 3524 0
-189 -3513 3525 0
-3514 3525 0
-189 -3514 3526 0
-3515 3526 0
-189 -3515 3527 0
-3516 3527 0
-189 -3516 0
-190 3528 0
-3517 3528 0
-190 -3517 3529 0
-3518 3529 0
-190 -3518 3530 0
-3519 3530 0
-190 -3519 3531 0
-3520 3531 0
-190 -3520 3532 0
-3521 3532 0
-190 -3521 3533 0
-3522 3533 0
-190 -3522 3534 0
-3523 3534 0
-190 -3523 3535 0
-3524 3535 0
-190 -3524 3536 0
-3525 3536 0
-190 -3525 3537 0
-3526 3537 0
-190 -3526 3538 0
-3527 3538 0
-190 -3527 0
-191 3539 0
-3528 3539 0
-191 -3528 3540 0
-3529 3540 0
-191 -3529 3541 0
-3530 3541 0
-191 -3530 3542 0
-3531 3542 0
-191 -3531 3543 0
-3532 3543 0
-191 -3532 3544 0
-3533 3544 0
-191 -3533 3545 0
-3534 3545 0
-191 -3534 3546 0
-3535 3546 0
-191 -3535 3547 0
-3536 3547 0
-191 -3536 3548 0
-3537 3548 0
-191 -3537 3549 0
-3538 3549 0
-191 -3538 0
-192 3550 0
-3539 3550 0
-192 -3539 3551 0
-3540 3551 0
-192 -3540 3552 0
-3541 3552 0
-192 -3541 3553 0
-3542 3553 0
-192 -3542 3554 0
-3543 3554 0
-192 -3543 3555 0
-3544 3555 0
-192 -3544 3556 0
-3545 3556 0
-192 -3545 3557 0
-3546 3557 0
-192 -3546 3558 0
-3547 3558 0
-192 -3547 3559 0
-3548 3559 0
-192 -3548 3560 0
-3549 3560 0
-192 -3549 0
-193 3561 0
-3550 3561 0
-193 -3550 3562 0
-3551 3562 0
-193 -3551 3563 0
-3552 3563 0
-193 -3552 3564 0
-3553 3564 0
-193 -3553 3565 0
-3554 3565 0
-193 -3554 3566 0
-3555 3566 0
-193 -3555 3567 0
-3556 3567 0
-193 -3556 3568 0
-3557 3568 0
-193 -3557 3569 0
-3558 3569 0
-193 -3558 3570 0
-3559 3570 0
-193 -3559 3571 0
-3560 3571 0
-193 -3560 0
-194 3572 0
-3561 3572 0
-194 -3561 3573 0
-3562 3573 0
-194 -3562 3574 0
-3563 3574 0
-194 -3563 3575 0
-3564 3575 0
-194 -3564 3576 0
-3565 3576 0
-194 -3565 3577 0
-3566 3577 0
-194 -3566 3578 0
-3567 3578 0
-194 -3567 3579 0
-3568 3579 0
-194 -3568 3580 0
-3569 3580 0
-194 -3569 3581 0
-3570 3581 0
-194 -3570 3582 0
-3571 3582 0
-194 -3571 0
-195 3583 0
-3572 3583 0
-195 -3572 3584 0
-3573 3584 0
-195 -3573 3585 0
-3574 3585 0
-195 -3574 3586 0
-3575 3586 0
-195 -3575 3587 0
-3576 3587 0
-195 -3576 3588 0
-3577 3588 0
-195 -3577 3589 0
-3578 3589 0
-195 -3578 3590 0
-3579 3590 0
-195 -3579 3591 0
-3580 3591 0
-195 -3580 3592 0
-3581 3592 0
-195 -3581 3593 0
-3582 3593 0
-195 -3582 0
-196 3594 0
-3583 3594 0
-196 -3583 3595 0
-3584 3595 0
-196 -3584 3596 0
-3585 3596 0
-196 -3585 3597 0
-3586 3597 0
-196 -3586 3598 0
-3587 3598 0
-196 -3587 3599 0
-3588 3599 0
-196 -3588 3600 0
-3589 3600 0
-196 -3589 3601 0
-3590 3601 0
-196 -3590 3602 0
-3591 3602 0
-196 -3591 3603 0
-3592 3603 0
-196 -3592 3604 0
-3593 3604 0
-196 -3593 0
-197 3605 0
-3594 3605 0
-197 -3594 3606 0
-3595 3606 0
-197 -3595 3607 0
-3596 3607 0
-197 -3596 3608 0
-3597 3608 0
-197 -3597 3609 0
-3598 3609 0
-197 -3598 3610 0
-3599 3610 0
-197 -3599 3611 0
-3600 3611 0
-197 -3600 3612 0
-3601 3612 0
-197 -3601 3613 0
-3602 3613 0
-197 -3602 3614 0
-3603 3614 0
-197 -3603 3615 0
-3604 3615 0
-197 -3604 0
-198 3616 0
-3605 3616 0
-198 -3605 3617 0
-3606 3617 0
-198 -3606 3618 0
-3607 3618 0
-198 -3607 3619 0
-3608 3619 0
-198 -3608 3620 0
-3609 3620 0
-198 -3609 3621 0
-3610 3621 0
-198 -3610 3622 0
-3611 3622 0
-198 -3611 3623 0
-3612 3623 0
-198 -3612 3624 0
-3613 3624 0
-198 -3613 3625 0
-3614 3625 0
-198 -3614 3626 0
-3615 3626 0
-198 -3615 0
-199 3627 0
-3616 3627 0
-199 -3616 3628 0
-3617 3628 0
-199 -3617 3629 0
-3618 3629 0
-199 -3618 3630 0
-3619 3630 0
-199 -3619 3631 0
-3620 3631 0
-199 -3620 3632 0
-3621 3632 0
-199 -3621 3633 0
-3622 3633 0
-199 -3622 3634 0
-3623 3634 0
-199 -3623 3635 0
-3624 3635 0
-199 -3624 3636 0
-3625 3636 0
-199 -3625 3637 0
-3626 3637 0
-199 -3626 0
-200 3638 0
-3627 3638 0
-200 -3627 3639 0
-3628 3639 0
-200 -3628 3640 0
-3629 3640 0
-200 -3629 3641 0
-3630 3641 0
-200 -3630 3642 0
-3631 3642 0
-200 -3631 3643 0
-3632 3643 0
-200 -3632 3644 0
-3633 3644 0
-200 -3633 3645 0
-3634 3645 0
-200 -3634 3646 0
-3635 3646 0
-200 -3635 3647 0
-3636 3647 0
-200 -3636 3648 0
-3637 3648 0
-200 -3637 0
-201 3649 0
-3638 3649 0
-201 -3638 3650 0
-3639 3650 0
-201 -3639 3651 0
-3640 3651 0
-201 -3640 3652 0
-3641 3652 0
-201 -3641 3653 0
-3642 3653 0
-201 -3642 3654 0
-3643 3654 0
-201 -3643 3655 0
-3644 3655 0
-201 -3644 3656 0
-3645 3656 0
-201 -3645 3657 0
-3646 3657 0
-201 -3646 3658 0
-3647 3658 0
-201 -3647 3659 0
-3648 3659 0
-201 -3648 0
-202 3660 0
-3649 3660 0
-202 -3649 3661 0
-3650 3661 0
-202 -3650 3662 0
-3651 3662 0
-202 -3651 3663 0
-3652 3663 0
-202 -3652 3664 0
-3653 3664 0
-202 -3653 3665 0
-3654 3665 0
-202 -3654 3666 0
-3655 3666 0
-202 -3655 3667 0
-3656 3667 0
-202 -3656 3668 0
-3657 3668 0
-202 -3657 3669 0
-3658 3669 0
-202 -3658 3670 0
-3659 3670 0
-202 -3659 0
-203 3671 0
-3660 3671 0
-203 -3660 3672 0
-3661 3672 0
-203 -3661 3673 0
-3662 3673 0
-203 -3662 3674 0
-3663 3674 0
-203 -3663 3675 0
-3664 3675 0
-203 -3664 3676 0
-3665 3676 0
-203 -3665 3677 0
-3666 3677 0
-203 -3666 3678 0
-3667 3678 0
-203 -3667 3679 0
-3668 3679 0
-203 -3668 3680 0
-3669 3680 0
-203 -3669 3681 0
-3670 3681 0
-203 -3670 0
-204 3682 0
-3671 3682 0
-204 -3671 3683 0
-3672 3683 0
-204 -3672 3684 0
-3673 3684 0
-204 -3673 3685 0
-3674 3685 0
-204 -3674 3686 0
-3675 3686 0
-204 -3675 3687 0
-3676 3687 0
-204 -3676 3688 0
-3677 3688 0
-204 -3677 3689 0
-3678 3689 0
-204 -3678 3690 0
-3679 3690 0
-204 -3679 3691 0
-3680 3691 0
-204 -3680 3692 0
-3681 3692 0
-204 -3681 0
-205 3693 0
-3682 3693 0
-205 -3682 3694 0
-3683 3694 0
-205 -3683 3695 0
-3684 3695 0
-205 -3684 3696 0
-3685 3696 0
-205 -3685 3697 0
-3686 3697 0
-205 -3686 3698 0
-3687 3698 0
-205 -3687 3699 0
-3688 3699 0
-205 -3688 3700 0
-3689 3700 0
-205 -3689 3701 0
-3690 3701 0
-205 -3690 3702 0
-3691 3702 0
-205 -3691 3703 0
-3692 3703 0
-205 -3692 0
-206 3704 0
-3693 3704 0
-206 -3693 3705 0
-3694 3705 0
-206 -3694 3706 0
-3695 3706 0
-206 -3695 3707 0
-3696 3707 0
-206 -3696 3708 0
-3697 3708 0
-206 -3697 3709 0
-3698 3709 0
-206 -3698 3710 0
-3699 3710 0
-206 -3699 3711 0
-3700 3711 0
-206 -3700 3712 0
-3701 3712 0
-206 -3701 3713 0
-3702 3713 0
-206 -3702 3714 0
-3703 3714 0
-206 -3703 0
-207 3715 0
-3704 3715 0
-207 -3704 3716 0
-3705 3716 0
-207 -3705 3717 0
-3706 3717 0
-207 -3706 3718 0
-3707 3718 0
-207 -3707 3719 0
-3708 3719 0
-207 -3708 3720 0
-3709 3720 0
-207 -3709 3721 0
-3710 3721 0
-207 -3710 3722 0
-3711 3722 0
-207 -3711 3723 0
-3712 3723 0
-207 -3712 3724 0
-3713 3724 0
-207 -3713 3725 0
-3714 3725 0
-207 -3714 0
-208 3726 0
-3715 3726 0
-208 -3715 3727 0
-3716 3727 0
-208 -3716 3728 0
-3717 3728 0
-208 -3717 3729 0
-3718 3729 0
-208 -3718 3730 0
-3719 3730 0
-208 -3719 3731 0
-3720 3731 0
-208 -3720 3732 0
-3721 3732 0
-208 -3721 3733 0
-3722 3733 0
-208 -3722 3734 0
-3723 3734 0
-208 -3723 3735 0
-3724 3735 0
-208 -3724 3736 0
-3725 3736 0
-208 -3725 0
-209 3737 0
-3726 3737 0
-209 -3726 3738 0
-3727 3738 0
-209 -3727 3739 0
-3728 3739 0
-209 -3728 3740 0
-3729 3740 0
-209 -3729 3741 0
-3730 3741 0
-209 -3730 3742 0
-3731 3742 0
-209 -3731 3743 0
-3732 3743 0
-209 -3732 3744 0
-3733 3744 0
-209 -3733 3745 0
-3734 3745 0
-209 -3734 3746 0
-3735 3746 0
-209 -3735 3747 0
-3736 3747 0
-209 -3736 0
-210 3748 0
-3737 3748 0
-210 -3737 3749 0
-3738 3749 0
-210 -3738 3750 0
-3739 3750 0
-210 -3739 3751 0
-3740 3751 0
-210 -3740 3752 0
-3741 3752 0
-210 -3741 3753 0
-3742 3753 0
-210 -3742 3754 0
-3743 3754 0
-210 -3743 3755 0
-3744 3755 0
-210 -3744 3756 0
-3745 3756 0
-210 -3745 3757 0
-3746 3757 0
-210 -3746 3758 0
-3747 3758 0
-210 -3747 0
-211 3759 0
-3748 3759 0
-211 -3748 3760 0
-3749 3760 0
-211 -3749 3761 0
-3750 3761 0
-211 -3750 3762 0
-3751 3762 0
-211 -3751 3763 0
-3752 3763 0
-211 -3752 3764 0
-3753 3764 0
-211 -3753 3765 0
-3754 3765 0
-211 -3754 3766 0
-3755 3766 0
-211 -3755 3767 0
-3756 3767 0
-211 -3756 3768 0
-3757 3768 0
-211 -3757 3769 0
-3758 3769 0
-211 -3758 0
-212 3770 0
-3759 3770 0
-212 -3759 3771 0
-3760 3771 0
-212 -3760 3772 0
-3761 3772 0
-212 -3761 3773 0
-3762 3773 0
-212 -3762 3774 0
-3763 3774 0
-212 -3763 3775 0
-3764 3775 0
-212 -3764 3776 0
-3765 3776 0
-212 -3765 3777 0
-3766 3777 0
-212 -3766 3778 0
-3767 3778 0
-212 -3767 3779 0
-3768 3779 0
-212 -3768 3780 0
-3769 3780 0
-212 -3769 0
-213 3781 0
-3770 3781 0
-213 -3770 3782 0
-3771 3782 0
-213 -3771 3783 0
-3772 3783 0
-213 -3772 3784 0
-3773 3784 0
-213 -3773 3785 0
-3774 3785 0
-213 -3774 3786 0
-3775 3786 0
-213 -3775 3787 0
-3776 3787 0
-213 -3776 3788 0
-3777 3788 0
-213 -3777 3789 0
-3778 3789 0
-213 -3778 3790 0
-3779 3790 0
-213 -3779 3791 0
-3780 3791 0
-213 -3780 0
-214 3792 0
-3781 3792 0
-214 -3781 3793 0
-3782 3793 0
-214 -3782 3794 0
-3783 3794 0
-214 -3783 3795 0
-3784 3795 0
-214 -3784 3796 0
-3785 3796 0
-214 -3785 3797 0
-3786 3797 0
-214 -3786 3798 0
-3787 3798 0
-214 -3787 3799 0
-3788 3799 0
-214 -3788 3800 0
-3789 3800 0
-214 -3789 3801 0
-3790 3801 0
-214 -3790 3802 0
-3791 3802 0
-214 -3791 0
-215 3803 0
-3792 3803 0
-215 -3792 3804 0
-3793 3804 0
-215 -3793 3805 0
-3794 3805 0
-215 -3794 3806 0
-3795 3806 0
-215 -3795 3807 0
-3796 3807 0
-215 -3796 3808 0
-3797 3808 0
-215 -3797 3809 0
-3798 3809 0
-215 -3798 3810 0
-3799 3810 0
-215 -3799 3811 0
-3800 3811 0
-215 -3800 3812 0
-3801 3812 0
-215 -3801 3813 0
-3802 3813 0
-215 -3802 0
-216 3814 0
-3803 3814 0
-216 -3803 3815 0
-3804 3815 0
-216 -3804 3816 0
-3805 3816 0
-216 -3805 3817 0
-3806 3817 0
-216 -3806 3818 0
-3807 3818 0
-216 -3807 3819 0
-3808 3819 0
-216 -3808 3820 0
-3809 3820 0
-216 -3809 3821 0
-3810 3821 0
-216 -3810 3822 0
-3811 3822 0
-216 -3811 3823 0
-3812 3823 0
-216 -3812 3824 0
-3813 3824 0
-216 -3813 0
-217 3825 0
-3814 3825 0
-217 -3814 3826 0
-3815 3826 0
-217 -3815 3827 0
-3816 3827 0
-217 -3816 3828 0
-3817 3828 0
-217 -3817 3829 0
-3818 3829 0
-217 -3818 3830 0
-3819 3830 0
-217 -3819 3831 0
-3820 3831 0
-217 -3820 3832 0
-3821 3832 0
-217 -3821 3833 0
-3822 3833 0
-217 -3822 3834 0
-3823 3834 0
-217 -3823 3835 0
-3824 3835 0
-217 -3824 0
-218 3836 0
-3825 3836 0
-218 -3825 3837 0
-3826 3837 0
-218 -3826 3838 0
-3827 3838 0
-218 -3827 3839 0
-3828 3839 0
-218 -3828 3840 0
-3829 3840 0
-218 -3829 3841 0
-3830 3841 0
-218 -3830 3842 0
-3831 3842 0
-218 -3831 3843 0
-3832 3843 0
-218 -3832 3844 0
-3833 3844 0
-218 -3833 3845 0
-3834 3845 0
-218 -3834 3846 0
-3835 3846 0
-218 -3835 0
-219 3847 0
-3836 3847 0
-219 -3836 3848 0
-3837 3848 0
-219 -3837 3849 0
-3838 3849 0
-219 -3838 3850 0
-3839 3850 0
-219 -3839 3851 0
-3840 3851 0
-219 -3840 3852 0
-3841 3852 0
-219 -3841 3853 0
-3842 3853 0
-219 -3842 3854 0
-3843 3854 0
-219 -3843 3855 0
-3844 3855 0
-219 -3844 3856 0
-3845 3856 0
-219 -3845 3857 0
-3846 3857 0
-219 -3846 0
-220 3858 0
-3847 3858 0
-220 -3847 3859 0
-3848 3859 0
-220 -3848 3860 0
-3849 3860 0
-220 -3849 3861 0
-3850 3861 0
-220 -3850 3862 0
-3851 3862 0
-220 -3851 3863 0
-3852 3863 0
-220 -3852 3864 0
-3853 3864 0
-220 -3853 3865 0
-3854 3865 0
-220 -3854 3866 0
-3855 3866 0
-220 -3855 3867 0
-3856 3867 0
-220 -3856 3868 0
-3857 3868 0
-220 -3857 0
-221 3869 0
-3858 3869 0
-221 -3858 3870 0
-3859 3870 0
-221 -3859 3871 0
-3860 3871 0
-221 -3860 3872 0
-3861 3872 0
-221 -3861 3873 0
-3862 3873 0
-221 -3862 3874 0
-3863 3874 0
-221 -3863 3875 0
-3864 3875 0
-221 -3864 3876 0
-3865 3876 0
-221 -3865 3877 0
-3866 3877 0
-221 -3866 3878 0
-3867 3878 0
-221 -3867 3879 0
-3868 3879 0
-221 -3868 0
-222 3880 0
-3869 3880 0
-222 -3869 3881 0
-3870 3881 0
-222 -3870 3882 0
-3871 3882 0
-222 -3871 3883 0
-3872 3883 0
-222 -3872 3884 0
-3873 3884 0
-222 -3873 3885 0
-3874 3885 0
-222 -3874 3886 0
-3875 3886 0
-222 -3875 3887 0
-3876 3887 0
-222 -3876 3888 0
-3877 3888 0
-222 -3877 3889 0
-3878 3889 0
-222 -3878 3890 0
-3879 3890 0
-222 -3879 0
-223 3891 0
-3880 3891 0
-223 -3880 3892 0
-3881 3892 0
-223 -3881 3893 0
-3882 3893 0
-223 -3882 3894 0
-3883 3894 0
-223 -3883 3895 0
-3884 3895 0
-223 -3884 3896 0
-3885 3896 0
-223 -3885 3897 0
-3886 3897 0
-223 -3886 3898 0
-3887 3898 0
-223 -3887 3899 0
-3888 3899 0
-223 -3888 3900 0
-3889 3900 0
-223 -3889 3901 0
-3890 3901 0
-223 -3890 0
-224 3902 0
-3891 3902 0
-224 -3891 3903 0
-3892 3903 0
-224 -3892 3904 0
-3893 3904 0
-224 -3893 3905 0
-3894 3905 0
-224 -3894 3906 0
-3895 3906 0
-224 -3895 3907 0
-3896 3907 0
-224 -3896 3908 0
-3897 3908 0
-224 -3897 3909 0
-3898 3909 0
-224 -3898 3910 0
-3899 3910 0
-224 -3899 3911 0
-3900 3911 0
-224 -3900 3912 0
-3901 3912 0
-224 -3901 0
-225 3913 0
-3902 3913 0
-225 -3902 3914 0
-3903 3914 0
-225 -3903 3915 0
-3904 3915 0
-225 -3904 3916 0
-3905 3916 0
-225 -3905 3917 0
-3906 3917 0
-225 -3906 3918 0
-3907 3918 0
-225 -3907 3919 0
-3908 3919 0
-225 -3908 3920 0
-3909 3920 0
-225 -3909 3921 0
-3910 3921 0
-225 -3910 3922 0
-3911 3922 0
-225 -3911 3923 0
-3912 3923 0
-225 -3912 0
-226 3924 0
-3913 3924 0
-226 -3913 3925 0
-3914 3925 0
-226 -3914 3926 0
-3915 3926 0
-226 -3915 3927 0
-3916 3927 0
-226 -3916 3928 0
-3917 3928 0
-226 -3917 3929 0
-3918 3929 0
-226 -3918 3930 0
-3919 3930 0
-226 -3919 3931 0
-3920 3931 0
-226 -3920 3932 0
-3921 3932 0
-226 -3921 3933 0
-3922 3933 0
-226 -3922 3934 0
-3923 3934 0
-226 -3923 0
-227 3935 0
-3924 3935 0
-227 -3924 3936 0
-3925 3936 0
-227 -3925 3937 0
-3926 3937 0
-227 -3926 3938 0
-3927 3938 0
-227 -3927 3939 0
-3928 3939 0
-227 -3928 3940 0
-3929 3940 0
-227 -3929 3941 0
-3930 3941 0
-227 -3930 3942 0
-3931 3942 0
-227 -3931 3943 0
-3932 3943 0
-227 -3932 3944 0
-3933 3944 0
-227 -3933 3945 0
-3934 3945 0
-227 -3934 0
-228 3946 0
-3935 3946 0
-228 -3935 3947 0
-3936 3947 0
-228 -3936 3948 0
-3937 3948 0
-228 -3937 3949 0
-3938 3949 0
-228 -3938 3950 0
-3939 3950 0
-228 -3939 3951 0
-3940 3951 0
-228 -3940 3952 0
-3941 3952 0
-228 -3941 3953 0
-3942 3953 0
-228 -3942 3954 0
-3943 3954 0
-228 -3943 3955 0
-3944 3955 0
-228 -3944 3956 0
-3945 3956 0
-228 -3945 0
-229 3957 0
-3946 3957 0
-229 -3946 3958 0
-3947 3958 0
-229 -3947 3959 0
-3948 3959 0
-229 -3948 3960 0
-3949 3960 0
-229 -3949 3961 0
-3950 3961 0
-229 -3950 3962 0
-3951 3962 0
-229 -3951 3963 0
-3952 3963 0
-229 -3952 3964 0
-3953 3964 0
-229 -3953 3965 0
-3954 3965 0
-229 -3954 3966 0
-3955 3966 0
-229 -3955 3967 0
-3956 3967 0
-229 -3956 0
-230 3968 0
-3957 3968 0
-230 -3957 3969 0
-3958 3969 0
-230 -3958 3970 0
-3959 3970 0
-230 -3959 3971 0
-3960 3971 0
-230 -3960 3972 0
-3961 3972 0
-230 -3961 3973 0
-3962 3973 0
-230 -3962 3974 0
-3963 3974 0
-230 -3963 3975 0
-3964 3975 0
-230 -3964 3976 0
-3965 3976 0
-230 -3965 3977 0
-3966 3977 0
-230 -3966 3978 0
-3967 3978 0
-230 -3967 0
-231 3979 0
-3968 3979 0
-231 -3968 3980 0
-3969 3980 0
-231 -3969 3981 0
-3970 3981 0
-231 -3970 3982 0
-3971 3982 0
-231 -3971 3983 0
-3972 3983 0
-231 -3972 3984 0
-3973 3984 0
-231 -3973 3985 0
-3974 3985 0
-231 -3974 3986 0
-3975 3986 0
-231 -3975 3987 0
-3976 3987 0
-231 -3976 3988 0
-3977 3988 0
-231 -3977 3989 0
-3978 3989 0
-231 -3978 0
-232 3990 0
-3979 3990 0
-232 -3979 3991 0
-3980 3991 0
-232 -3980 3992 0
-3981 3992 0
-232 -3981 3993 0
-3982 3993 0
-232 -3982 3994 0
-3983 3994 0
-232 -3983 3995 0
-3984 3995 0
-232 -3984 3996 0
-3985 3996 0
-232 -3985 3997 0
-3986 3997 0
-232 -3986 3998 0
-3987 3998 0
-232 -3987 3999 0
-3988 3999 0
-232 -3988 4000 0
-3989 4000 0
-232 -3989 0
-233 4001 0
-3990 4001 0
-233 -3990 4002 0
-3991 4002 0
-233 -3991 4003 0
-3992 4003 0
-233 -3992 4004 0
-3993 4004 0
-233 -3993 4005 0
-3994 4005 0
-233 -3994 4006 0
-3995 4006 0
-233 -3995 4007 0
-3996 4007 0
-233 -3996 4008 0
-3997 4008 0
-233 -3997 4009 0
-3998 4009 0
-233 -3998 4010 0
-3999 4010 0
-233 -3999 4011 0
-4000 4011 0
-233 -4000 0
-234 4012 0
-4001 4012 0
-234 -4001 4013 0
-4002 4013 0
-234 -4002 4014 0
-4003 4014 0
-234 -4003 4015 0
-4004 4015 0
-234 -4004 4016 0
-4005 4016 0
-234 -4005 4017 0
-4006 4017 0
-234 -4006 4018 0
-4007 4018 0
-234 -4007 4019 0
-4008 4019 0
-234 -4008 4020 0
-4009 4020 0
-234 -4009 4021 0
-4010 4021 0
-234 -4010 4022 0
-4011 4022 0
-234 -4011 0
-235 4023 0
-4012 4023 0
-235 -4012 4024 0
-4013 4024 0
-235 -4013 4025 0
-4014 4025 0
-235 -4014 4026 0
-4015 4026 0
-235 -4015 4027 0
-4016 4027 0
-235 -4016 4028 0
-4017 4028 0
-235 -4017 4029 0
-4018 4029 0
-235 -4018 4030 0
-4019 4030 0
-235 -4019 4031 0
-4020 4031 0
-235 -4020 4032 0
-4021 4032 0
-235 -4021 4033 0
-4022 4033 0
-235 -4022 0
-236 4034 0
-4023 4034 0
-236 -4023 4035 0
-4024 4035 0
-236 -4024 4036 0
-4025 4036 0
-236 -4025 4037 0
-4026 4037 0
-236 -4026 4038 0
-4027 4038 0
-236 -4027 4039 0
-4028 4039 0
-236 -4028 4040 0
-4029 4040 0
-236 -4029 4041 0
-4030 4041 0
-236 -4030 4042 0
-4031 4042 0
-236 -4031 4043 0
-4032 4043 0
-236 -4032 4044 0
-4033 4044 0
-236 -4033 0
-237 4045 0
-4034 4045 0
-237 -4034 4046 0
-4035 4046 0
-237 -4035 4047 0
-4036 4047 0
-237 -4036 4048 0
-4037 4048 0
-237 -4037 4049 0
-4038 4049 0
-237 -4038 4050 0
-4039 4050 0
-237 -4039 4051 0
-4040 4051 0
-237 -4040 4052 0
-4041 4052 0
-237 -4041 4053 0
-4042 4053 0
-237 -4042 4054 0
-4043 4054 0
-237 -4043 4055 0
-4044 4055 0
-237 -4044 0
-238 4056 0
-4045 4056 0
-238 -4045 4057 0
-4046 4057 0
-238 -4046 4058 0
-4047 4058 0
-238 -4047 4059 0
-4048 4059 0
-238 -4048 4060 0
-4049 4060 0
-238 -4049 4061 0
-4050 4061 0
-238 -4050 4062 0
-4051 4062 0
-238 -4051 4063 0
-4052 4063 0
-238 -4052 4064 0
-4053 4064 0
-238 -4053 4065 0
-4054 4065 0
-238 -4054 4066 0
-4055 4066 0
-238 -4055 0
-239 4067 0
-4056 4067 0
-239 -4056 4068 0
-4057 4068 0
-239 -4057 4069 0
-4058 4069 0
-239 -4058 4070 0
-4059 4070 0
-239 -4059 4071 0
-4060 4071 0
-239 -4060 4072 0
-4061 4072 0
-239 -4061 4073 0
-4062 4073 0
-239 -4062 4074 0
-4063 4074 0
-239 -4063 4075 0
-4064 4075 0
-239 -4064 4076 0
-4065 4076 0
-239 -4065 4077 0
-4066 4077 0
-239 -4066 0
-240 4078 0
-4067 4078 0
-240 -4067 4079 0
-4068 4079 0
-240 -4068 4080 0
-4069 4080 0
-240 -4069 4081 0
-4070 4081 0
-240 -4070 4082 0
-4071 4082 0
-240 -4071 4083 0
-4072 4083 0
-240 -4072 4084 0
-4073 4084 0
-240 -4073 4085 0
-4074 4085 0
-240 -4074 4086 0
-4075 4086 0
-240 -4075 4087 0
-4076 4087 0
-240 -4076 4088 0
-4077 4088 0
-240 -4077 0
-241 4089 0
-4078 4089 0
-241 -4078 4090 0
-4079 4090 0
-241 -4079 4091 0
-4080 4091 0
-241 -4080 4092 0
-4081 4092 0
-241 -4081 4093 0
-4082 4093 0
-241 -4082 4094 0
-4083 4094 0
-241 -4083 4095 0
-4084 4095 0
-241 -4084 4096 0
-4085 4096 0
-241 -4085 4097 0
-4086 4097 0
-241 -4086 4098 0
-4087 4098 0
-241 -4087 4099 0
-4088 4099 0
-241 -4088 0
-242 4100 0
-4089 4100 0
-242 -4089 4101 0
-4090 4101 0
-242 -4090 4102 0
-4091 4102 0
-242 -4091 4103 0
-4092 4103 0
-242 -4092 4104 0
-4093 4104 0
-242 -4093 4105 0
-4094 4105 0
-242 -4094 4106 0
-4095 4106 0
-242 -4095 4107 0
-4096 4107 0
-242 -4096 4108 0
-4097 4108 0
-242 -4097 4109 0
-4098 4109 0
-242 -4098 4110 0
-4099 4110 0
-242 -4099 0
-243 4111 0
-4100 4111 0
-243 -4100 4112 0
-4101 4112 0
-243 -4101 4113 0
-4102 4113 0
-243 -4102 4114 0
-4103 4114 0
-243 -4103 4115 0
-4104 4115 0
-243 -4104 4116 0
-4105 4116 0
-243 -4105 4117 0
-4106 4117 0
-243 -4106 4118 0
-4107 4118 0
-243 -4107 4119 0
-4108 4119 0
-243 -4108 4120 0
-4109 4120 0
-243 -4109 4121 0
-4110 4121 0
-243 -4110 0
-244 4122 0
-4111 4122 0
-244 -4111 4123 0
-4112 4123 0
-244 -4112 4124 0
-4113 4124 0
-244 -4113 4125 0
-4114 4125 0
-244 -4114 4126 0
-4115 4126 0
-244 -4115 4127 0
-4116 4127 0
-244 -4116 4128 0
-4117 4128 0
-244 -4117 4129 0
-4118 4129 0
-244 -4118 4130 0
-4119 4130 0
-244 -4119 4131 0
-4120 4131 0
-244 -4120 4132 0
-4121 4132 0
-244 -4121 0
-245 4133 0
-4122 4133 0
-245 -4122 4134 0
-4123 4134 0
-245 -4123 4135 0
-4124 4135 0
-245 -4124 4136 0
-4125 4136 0
-245 -4125 4137 0
-4126 4137 0
-245 -4126 4138 0
-4127 4138 0
-245 -4127 4139 0
-4128 4139 0
-245 -4128 4140 0
-4129 4140 0
-245 -4129 4141 0
-4130 4141 0
-245 -4130 4142 0
-4131 4142 0
-245 -4131 4143 0
-4132 4143 0
-245 -4132 0
-246 4144 0
-4133 4144 0
-246 -4133 4145 0
-4134 4145 0
-246 -4134 4146 0
-4135 4146 0
-246 -4135 4147 0
-4136 4147 0
-246 -4136 4148 0
-4137 4148 0
-246 -4137 4149 0
-4138 4149 0
-246 -4138 4150 0
-4139 4150 0
-246 -4139 4151 0
-4140 4151 0
-246 -4140 4152 0
-4141 4152 0
-246 -4141 4153 0
-4142 4153 0
-246 -4142 4154 0
-4143 4154 0
-246 -4143 0
-247 4155 0
-4144 4155 0
-247 -4144 4156 0
-4145 4156 0
-247 -4145 4157 0
-4146 4157 0
-247 -4146 4158 0
-4147 4158 0
-247 -4147 4159 0
-4148 4159 0
-247 -4148 4160 0
-4149 4160 0
-247 -4149 4161 0
-4150 4161 0
-247 -4150 4162 0
-4151 4162 0
-247 -4151 4163 0
-4152 4163 0
-247 -4152 4164 0
-4153 4164 0
-247 -4153 4165 0
-4154 4165 0
-247 -4154 0
-248 4166 0
-4155 4166 0
-248 -4155 4167 0
-4156 4167 0
-248 -4156 4168 0
-4157 4168 0
-248 -4157 4169 0
-4158 4169 0
-248 -4158 4170 0
-4159 4170 0
-248 -4159 4171 0
-4160 4171 0
-248 -4160 4172 0
-4161 4172 0
-248 -4161 4173 0
-4162 4173 0
-248 -4162 4174 0
-4163 4174 0
-248 -4163 4175 0
-4164 4175 0
-248 -4164 4176 0
-4165 4176 0
-248 -4165 0
-249 4177 0
-4166 4177 0
-249 -4166 4178 0
-4167 4178 0
-249 -4167 4179 0
-4168 4179 0
-249 -4168 4180 0
-4169 4180 0
-249 -4169 4181 0
-4170 4181 0
-249 -4170 4182 0
-4171 4182 0
-249 -4171 4183 0
-4172 4183 0
-249 -4172 4184 0
-4173 4184 0
-249 -4173 4185 0
-4174 4185 0
-249 -4174 4186 0
-4175 4186 0
-249 -4175 4187 0
-4176 4187 0
-249 -4176 0
-250 4188 0
-4177 4188 0
-250 -4177 4189 0
-4178 4189 0
-250 -4178 4190 0
-4179 4190 0
-250 -4179 4191 0
-4180 4191 0
-250 -4180 4192 0
-4181 4192 0
-250 -4181 4193 0
-4182 4193 0
-250 -4182 4194 0
-4183 4194 0
-250 -4183 4195 0
-4184 4195 0
-250 -4184 4196 0
-4185 4196 0
-250 -4185 4197 0
-4186 4197 0
-250 -4186 4198 0
-4187 4198 0
-250 -4187 0
-251 4199 0
-4188 4199 0
-251 -4188 4200 0
-4189 4200 0
-251 -4189 4201 0
-4190 4201 0
-251 -4190 4202 0
-4191 4202 0
-251 -4191 4203 0
-4192 4203 0
-251 -4192 4204 0
-4193 4204 0
-251 -4193 4205 0
-4194 4205 0
-251 -4194 4206 0
-4195 4206 0
-251 -4195 4207 0
-4196 4207 0
-251 -4196 4208 0
-4197 4208 0
-251 -4197 4209 0
-4198 4209 0
-251 -4198 0
-252 4210 0
-4199 4210 0
-252 -4199 4211 0
-4200 4211 0
-252 -4200 4212 0
-4201 4212 0
-252 -4201 4213 0
-4202 4213 0
-252 -4202 4214 0
-4203 4214 0
-252 -4203 4215 0
-4204 4215 0
-252 -4204 4216 0
-4205 4216 0
-252 -4205 4217 0
-4206 4217 0
-252 -4206 4218 0
-4207 4218 0
-252 -4207 4219 0
-4208 4219 0
-252 -4208 4220 0
-4209 4220 0
-252 -4209 0
-253 4221 0
-4210 4221 0
-253 -4210 4222 0
-4211 4222 0
-253 -4211 4223 0
-4212 4223 0
-253 -4212 4224 0
-4213 4224 0
-253 -4213 4225 0
-4214 4225 0
-253 -4214 4226 0
-4215 4226 0
-253 -4215 4227 0
-4216 4227 0
-253 -4216 4228 0
-4217 4228 0
-253 -4217 4229 0
-4218 4229 0
-253 -4218 4230 0
-4219 4230 0
-253 -4219 4231 0
-4220 4231 0
-253 -4220 0
-254 4232 0
-4221 4232 0
-254 -4221 4233 0
-4222 4233 0
-254 -4222 4234 0
-4223 4234 0
-254 -4223 4235 0
-4224 4235 0
-254 -4224 4236 0
-4225 4236 0
-254 -4225 4237 0
-4226 4237 0
-254 -4226 4238 0
-4227 4238 0
-254 -4227 4239 0
-4228 4239 0
-254 -4228 4240 0
-4229 4240 0
-254 -4229 4241 0
-4230 4241 0
-254 -4230 4242 0
-4231 4242 0
-254 -4231 0
-255 4243 0
-4232 4243 0
-255 -4232 4244 0
-4233 4244 0
-255 -4233 4245 0
-4234 4245 0
-255 -4234 4246 0
-4235 4246 0
-255 -4235 4247 0
-4236 4247 0
-255 -4236 4248 0
-4237 4248 0
-255 -4237 4249 0
-4238 4249 0
-255 -4238 4250 0
-4239 4250 0
-255 -4239 4251 0
-4240 4251 0
-255 -4240 4252 0
-4241 4252 0
-255 -4241 4253 0
-4242 4253 0
-255 -4242 0
-256 4254 0
-4243 4254 0
-256 -4243 4255 0
-4244 4255 0
-256 -4244 4256 0
-4245 4256 0
-256 -4245 4257 0
-4246 4257 0
-256 -4246 4258 0
-4247 4258 0
-256 -4247 4259 0
-4248 4259 0
-256 -4248 4260 0
-4249 4260 0
-256 -4249 4261 0
-4250 4261 0
-256 -4250 4262 0
-4251 4262 0
-256 -4251 4263 0
-4252 4263 0
-256 -4252 4264 0
-4253 4264 0
-256 -4253 0
-257 4265 0
-4254 4265 0
-257 -4254 4266 0
-4255 4266 0
-257 -4255 4267 0
-4256 4267 0
-257 -4256 4268 0
-4257 4268 0
-257 -4257 4269 0
-4258 4269 0
-257 -4258 4270 0
-4259 4270 0
-257 -4259 4271 0
-4260 4271 0
-257 -4260 4272 0
-4261 4272 0
-257 -4261 4273 0
-4262 4273 0
-257 -4262 4274 0
-4263 4274 0
-257 -4263 4275 0
-4264 4275 0
-257 -4264 0
-258 4276 0
-4265 4276 0
-258 -4265 4277 0
-4266 4277 0
-258 -4266 4278 0
-4267 4278 0
-258 -4267 4279 0
-4268 4279 0
-258 -4268 4280 0
-4269 4280 0
-258 -4269 4281 0
-4270 4281 0
-258 -4270 4282 0
-4271 4282 0
-258 -4271 4283 0
-4272 4283 0
-258 -4272 4284 0
-4273 4284 0
-258 -4273 4285 0
-4274 4285 0
-258 -4274 4286 0
-4275 4286 0
-258 -4275 0
-259 4287 0
-4276 4287 0
-259 -4276 4288 0
-4277 4288 0
-259 -4277 4289 0
-4278 4289 0
-259 -4278 4290 0
-4279 4290 0
-259 -4279 4291 0
-4280 4291 0
-259 -4280 4292 0
-4281 4292 0
-259 -4281 4293 0
-4282 4293 0
-259 -4282 4294 0
-4283 4294 0
-259 -4283 4295 0
-4284 4295 0
-259 -4284 4296 0
-4285 4296 0
-259 -4285 4297 0
-4286 4297 0
-259 -4286 0
-260 4298 0
-4287 4298 0
-260 -4287 4299 0
-4288 4299 0
-260 -4288 4300 0
-4289 4300 0
-260 -4289 4301 0
-4290 4301 0
-260 -4290 4302 0
-4291 4302 0
-260 -4291 4303 0
-4292 4303 0
-260 -4292 4304 0
-4293 4304 0
-260 -4293 4305 0
-4294 4305 0
-260 -4294 4306 0
-4295 4306 0
-260 -4295 4307 0
-4296 4307 0
-260 -4296 4308 0
-4297 4308 0
-260 -4297 0
-261 4309 0
-4298 4309 0
-261 -4298 4310 0
-4299 4310 0
-261 -4299 4311 0
-4300 4311 0
-261 -4300 4312 0
-4301 4312 0
-261 -4301 4313 0
-4302 4313 0
-261 -4302 4314 0
-4303 4314 0
-261 -4303 4315 0
-4304 4315 0
-261 -4304 4316 0
-4305 4316 0
-261 -4305 4317 0
-4306 4317 0
-261 -4306 4318 0
-4307 4318 0
-261 -4307 4319 0
-4308 4319 0
-261 -4308 0
-262 4320 0
-4309 4320 0
-262 -4309 4321 0
-4310 4321 0
-262 -4310 4322 0
-4311 4322 0
-262 -4311 4323 0
-4312 4323 0
-262 -4312 4324 0
-4313 4324 0
-262 -4313 4325 0
-4314 4325 0
-262 -4314 4326 0
-4315 4326 0
-262 -4315 4327 0
-4316 4327 0
-262 -4316 4328 0
-4317 4328 0
-262 -4317 4329 0
-4318 4329 0
-262 -4318 4330 0
-4319 4330 0
-262 -4319 0
-263 4331 0
-4320 4331 0
-263 -4320 4332 0
-4321 4332 0
-263 -4321 4333 0
-4322 4333 0
-263 -4322 4334 0
-4323 4334 0
-263 -4323 4335 0
-4324 4335 0
-263 -4324 4336 0
-4325 4336 0
-263 -4325 4337 0
-4326 4337 0
-263 -4326 4338 0
-4327 4338 0
-263 -4327 4339 0
-4328 4339 0
-263 -4328 4340 0
-4329 4340 0
-263 -4329 4341 0
-4330 4341 0
-263 -4330 0
-264 4342 0
-4331 4342 0
-264 -4331 4343 0
-4332 4343 0
-264 -4332 4344 0
-4333 4344 0
-264 -4333 4345 0
-4334 4345 0
-264 -4334 4346 0
-4335 4346 0
-264 -4335 4347 0
-4336 4347 0
-264 -4336 4348 0
-4337 4348 0
-264 -4337 4349 0
-4338 4349 0
-264 -4338 4350 0
-4339 4350 0
-264 -4339 4351 0
-4340 4351 0
-264 -4340 4352 0
-4341 4352 0
-264 -4341 0
-265 4353 0
-4342 4353 0
-265 -4342 4354 0
-4343 4354 0
-265 -4343 4355 0
-4344 4355 0
-265 -4344 4356 0
-4345 4356 0
-265 -4345 4357 0
-4346 4357 0
-265 -4346 4358 0
-4347 4358 0
-265 -4347 4359 0
-4348 4359 0
-265 -4348 4360 0
-4349 4360 0
-265 -4349 4361 0
-4350 4361 0
-265 -4350 4362 0
-4351 4362 0
-265 -4351 4363 0
-4352 4363 0
-265 -4352 0
-266 4364 0
-4353 4364 0
-266 -4353 4365 0
-4354 4365 0
-266 -4354 4366 0
-4355 4366 0
-266 -4355 4367 0
-4356 4367 0
-266 -4356 4368 0
-4357 4368 0
-266 -4357 4369 0
-4358 4369 0
-266 -4358 4370 0
-4359 4370 0
-266 -4359 4371 0
-4360 4371 0
-266 -4360 4372 0
-4361 4372 0
-266 -4361 4373 0
-4362 4373 0
-266 -4362 4374 0
-4363 4374 0
-266 -4363 0
-267 4375 0
-4364 4375 0
-267 -4364 4376 0
-4365 4376 0
-267 -4365 4377 0
-4366 4377 0
-267 -4366 4378 0
-4367 4378 0
-267 -4367 4379 0
-4368 4379 0
-267 -4368 4380 0
-4369 4380 0
-267 -4369 4381 0
-4370 4381 0
-267 -4370 4382 0
-4371 4382 0
-267 -4371 4383 0
-4372 4383 0
-267 -4372 4384 0
-4373 4384 0
-267 -4373 4385 0
-4374 4385 0
-267 -4374 0
-268 4386 0
-4375 4386 0
-268 -4375 4387 0
-4376 4387 0
-268 -4376 4388 0
-4377 4388 0
-268 -4377 4389 0
-4378 4389 0
-268 -4378 4390 0
-4379 4390 0
-268 -4379 4391 0
-4380 4391 0
-268 -4380 4392 0
-4381 4392 0
-268 -4381 4393 0
-4382 4393 0
-268 -4382 4394 0
-4383 4394 0
-268 -4383 4395 0
-4384 4395 0
-268 -4384 4396 0
-4385 4396 0
-268 -4385 0
-269 4397 0
-4386 4397 0
-269 -4386 4398 0
-4387 4398 0
-269 -4387 4399 0
-4388 4399 0
-269 -4388 4400 0
-4389 4400 0
-269 -4389 4401 0
-4390 4401 0
-269 -4390 4402 0
-4391 4402 0
-269 -4391 4403 0
-4392 4403 0
-269 -4392 4404 0
-4393 4404 0
-269 -4393 4405 0
-4394 4405 0
-269 -4394 4406 0
-4395 4406 0
-269 -4395 4407 0
-4396 4407 0
-269 -4396 0
-270 4408 0
-4397 4408 0
-270 -4397 4409 0
-4398 4409 0
-270 -4398 4410 0
-4399 4410 0
-270 -4399 4411 0
-4400 4411 0
-270 -4400 4412 0
-4401 4412 0
-270 -4401 4413 0
-4402 4413 0
-270 -4402 4414 0
-4403 4414 0
-270 -4403 4415 0
-4404 4415 0
-270 -4404 4416 0
-4405 4416 0
-270 -4405 4417 0
-4406 4417 0
-270 -4406 4418 0
-4407 4418 0
-270 -4407 0
-271 4419 0
-4408 4419 0
-271 -4408 4420 0
-4409 4420 0
-271 -4409 4421 0
-4410 4421 0
-271 -4410 4422 0
-4411 4422 0
-271 -4411 4423 0
-4412 4423 0
-271 -4412 4424 0
-4413 4424 0
-271 -4413 4425 0
-4414 4425 0
-271 -4414 4426 0
-4415 4426 0
-271 -4415 4427 0
-4416 4427 0
-271 -4416 4428 0
-4417 4428 0
-271 -4417 4429 0
-4418 4429 0
-271 -4418 0
-272 4430 0
-4419 4430 0
-272 -4419 4431 0
-4420 4431 0
-272 -4420 4432 0
-4421 4432 0
-272 -4421 4433 0
-4422 4433 0
-272 -4422 4434 0
-4423 4434 0
-272 -4423 4435 0
-4424 4435 0
-272 -4424 4436 0
-4425 4436 0
-272 -4425 4437 0
-4426 4437 0
-272 -4426 4438 0
-4427 4438 0
-272 -4427 4439 0
-4428 4439 0
-272 -4428 4440 0
-4429 4440 0
-272 -4429 0
-273 4441 0
-4430 4441 0
-273 -4430 4442 0
-4431 4442 0
-273 -4431 4443 0
-4432 4443 0
-273 -4432 4444 0
-4433 4444 0
-273 -4433 4445 0
-4434 4445 0
-273 -4434 4446 0
-4435 4446 0
-273 -4435 4447 0
-4436 4447 0
-273 -4436 4448 0
-4437 4448 0
-273 -4437 4449 0
-4438 4449 0
-273 -4438 4450 0
-4439 4450 0
-273 -4439 4451 0
-4440 4451 0
-273 -4440 0
-274 4452 0
-4441 4452 0
-274 -4441 4453 0
-4442 4453 0
-274 -4442 4454 0
-4443 4454 0
-274 -4443 4455 0
-4444 4455 0
-274 -4444 4456 0
-4445 4456 0
-274 -4445 4457 0
-4446 4457 0
-274 -4446 4458 0
-4447 4458 0
-274 -4447 4459 0
-4448 4459 0
-274 -4448 4460 0
-4449 4460 0
-274 -4449 4461 0
-4450 4461 0
-274 -4450 4462 0
-4451 4462 0
-274 -4451 0
-275 4463 0
-4452 4463 0
-275 -4452 4464 0
-4453 4464 0
-275 -4453 4465 0
-4454 4465 0
-275 -4454 4466 0
-4455 4466 0
-275 -4455 4467 0
-4456 4467 0
-275 -4456 4468 0
-4457 4468 0
-275 -4457 4469 0
-4458 4469 0
-275 -4458 4470 0
-4459 4470 0
-275 -4459 4471 0
-4460 4471 0
-275 -4460 4472 0
-4461 4472 0
-275 -4461 4473 0
-4462 4473 0
-275 -4462 0
-276 4474 0
-4463 4474 0
-276 -4463 4475 0
-4464 4475 0
-276 -4464 4476 0
-4465 4476 0
-276 -4465 4477 0
-4466 4477 0
-276 -4466 4478 0
-4467 4478 0
-276 -4467 4479 0
-4468 4479 0
-276 -4468 4480 0
-4469 4480 0
-276 -4469 4481 0
-4470 4481 0
-276 -4470 4482 0
-4471 4482 0
-276 -4471 4483 0
-4472 4483 0
-276 -4472 4484 0
-4473 4484 0
-276 -4473 0
-277 4485 0
-4474 4485 0
-277 -4474 4486 0
-4475 4486 0
-277 -4475 4487 0
-4476 4487 0
-277 -4476 4488 0
-4477 4488 0
-277 -4477 4489 0
-4478 4489 0
-277 -4478 4490 0
-4479 4490 0
-277 -4479 4491 0
-4480 4491 0
-277 -4480 4492 0
-4481 4492 0
-277 -4481 4493 0
-4482 4493 0
-277 -4482 4494 0
-4483 4494 0
-277 -4483 4495 0
-4484 4495 0
-277 -4484 0
-278 4496 0
-4485 4496 0
-278 -4485 4497 0
-4486 4497 0
-278 -4486 4498 0
-4487 4498 0
-278 -4487 4499 0
-4488 4499 0
-278 -4488 4500 0
-4489 4500 0
-278 -4489 4501 0
-4490 4501 0
-278 -4490 4502 0
-4491 4502 0
-278 -4491 4503 0
-4492 4503 0
-278 -4492 4504 0
-4493 4504 0
-278 -4493 4505 0
-4494 4505 0
-278 -4494 4506 0
-4495 4506 0
-278 -4495 0
-279 4507 0
-4496 4507 0
-279 -4496 4508 0
-4497 4508 0
-279 -4497 4509 0
-4498 4509 0
-279 -4498 4510 0
-4499 4510 0
-279 -4499 4511 0
-4500 4511 0
-279 -4500 4512 0
-4501 4512 0
-279 -4501 4513 0
-4502 4513 0
-279 -4502 4514 0
-4503 4514 0
-279 -4503 4515 0
-4504 4515 0
-279 -4504 4516 0
-4505 4516 0
-279 -4505 4517 0
-4506 4517 0
-279 -4506 0
-280 4518 0
-4507 4518 0
-280 -4507 4519 0
-4508 4519 0
-280 -4508 4520 0
-4509 4520 0
-280 -4509 4521 0
-4510 4521 0
-280 -4510 4522 0
-4511 4522 0
-280 -4511 4523 0
-4512 4523 0
-280 -4512 4524 0
-4513 4524 0
-280 -4513 4525 0
-4514 4525 0
-280 -4514 4526 0
-4515 4526 0
-280 -4515 4527 0
-4516 4527 0
-280 -4516 4528 0
-4517 4528 0
-280 -4517 0
-281 4529 0
-4518 4529 0
-281 -4518 4530 0
-4519 4530 0
-281 -4519 4531 0
-4520 4531 0
-281 -4520 4532 0
-4521 4532 0
-281 -4521 4533 0
-4522 4533 0
-281 -4522 4534 0
-4523 4534 0
-281 -4523 4535 0
-4524 4535 0
-281 -4524 4536 0
-4525 4536 0
-281 -4525 4537 0
-4526 4537 0
-281 -4526 4538 0
-4527 4538 0
-281 -4527 4539 0
-4528 4539 0
-281 -4528 0
-282 4540 0
-4529 4540 0
-282 -4529 4541 0
-4530 4541 0
-282 -4530 4542 0
-4531 4542 0
-282 -4531 4543 0
-4532 4543 0
-282 -4532 4544 0
-4533 4544 0
-282 -4533 4545 0
-4534 4545 0
-282 -4534 4546 0
-4535 4546 0
-282 -4535 4547 0
-4536 4547 0
-282 -4536 4548 0
-4537 4548 0
-282 -4537 4549 0
-4538 4549 0
-282 -4538 4550 0
-4539 4550 0
-282 -4539 0
-283 4551 0
-4540 4551 0
-283 -4540 4552 0
-4541 4552 0
-283 -4541 4553 0
-4542 4553 0
-283 -4542 4554 0
-4543 4554 0
-283 -4543 4555 0
-4544 4555 0
-283 -4544 4556 0
-4545 4556 0
-283 -4545 4557 0
-4546 4557 0
-283 -4546 4558 0
-4547 4558 0
-283 -4547 4559 0
-4548 4559 0
-283 -4548 4560 0
-4549 4560 0
-283 -4549 4561 0
-4550 4561 0
-283 -4550 0
-284 4562 0
-4551 4562 0
-284 -4551 4563 0
-4552 4563 0
-284 -4552 4564 0
-4553 4564 0
-284 -4553 4565 0
-4554 4565 0
-284 -4554 4566 0
-4555 4566 0
-284 -4555 4567 0
-4556 4567 0
-284 -4556 4568 0
-4557 4568 0
-284 -4557 4569 0
-4558 4569 0
-284 -4558 4570 0
-4559 4570 0
-284 -4559 4571 0
-4560 4571 0
-284 -4560 4572 0
-4561 4572 0
-284 -4561 0
-285 4573 0
-4562 4573 0
-285 -4562 4574 0
-4563 4574 0
-285 -4563 4575 0
-4564 4575 0
-285 -4564 4576 0
-4565 4576 0
-285 -4565 4577 0
-4566 4577 0
-285 -4566 4578 0
-4567 4578 0
-285 -4567 4579 0
-4568 4579 0
-285 -4568 4580 0
-4569 4580 0
-285 -4569 4581 0
-4570 4581 0
-285 -4570 4582 0
-4571 4582 0
-285 -4571 4583 0
-4572 4583 0
-285 -4572 0
-286 4584 0
-4573 4584 0
-286 -4573 4585 0
-4574 4585 0
-286 -4574 4586 0
-4575 4586 0
-286 -4575 4587 0
-4576 4587 0
-286 -4576 4588 0
-4577 4588 0
-286 -4577 4589 0
-4578 4589 0
-286 -4578 4590 0
-4579 4590 0
-286 -4579 4591 0
-4580 4591 0
-286 -4580 4592 0
-4581 4592 0
-286 -4581 4593 0
-4582 4593 0
-286 -4582 4594 0
-4583 4594 0
-286 -4583 0
-287 4595 0
-4584 4595 0
-287 -4584 4596 0
-4585 4596 0
-287 -4585 4597 0
-4586 4597 0
-287 -4586 4598 0
-4587 4598 0
-287 -4587 4599 0
-4588 4599 0
-287 -4588 4600 0
-4589 4600 0
-287 -4589 4601 0
-4590 4601 0
-287 -4590 4602 0
-4591 4602 0
-287 -4591 4603 0
-4592 4603 0
-287 -4592 4604 0
-4593 4604 0
-287 -4593 4605 0
-4594 4605 0
-287 -4594 0
-288 -4605 0
1 0
