p cnf 5179 12666
-289 10 121 0
-289 -10 -121 0
289 -10 121 0
289 10 -121 0
-290 289 133 0
-290 -289 -133 0
290 -289 133 0
290 289 -133 0
-291 290 150 0
-291 -290 -150 0
291 -290 150 0
291 290 -150 0
-292 291 155 0
-292 -291 -155 0
292 -291 155 0
292 291 -155 0
-293 292 253 0
-293 -292 -253 0
293 -292 253 0
293 292 -253 0
-293 0
-294 11 122 0
-294 -11 -122 0
294 -11 122 0
294 11 -122 0
-295 294 134 0
-295 -294 -134 0
295 -294 134 0
295 294 -134 0
-296 295 151 0
-296 -295 -151 0
296 -295 151 0
296 295 -151 0
-297 296 156 0
-297 -296 -156 0
297 -296 156 0
297 296 -156 0
-298 297 254 0
-298 -297 -254 0
298 -297 254 0
298 297 -254 0
-298 0
-299 12 123 0
-299 -12 -123 0
299 -12 123 0
299 12 -123 0
-300 299 135 0
-300 -299 -135 0
300 -299 135 0
300 299 -135 0
-301 300 145 0
-301 -300 -145 0
301 -300 145 0
301 300 -145 0
-302 301 152 0
-302 -301 -152 0
302 -301 152 0
302 301 -152 0
-303 302 255 0
-303 -302 -255 0
303 -302 255 0
303 302 -255 0
-303 0
-304 1 124 0
-304 -1 -124 0
304 -1 124 0
304 1 -124 0
-305 304 136 0
-305 -304 -136 0
305 -304 136 0
305 304 -136 0
-306 305 146 0
-306 -305 -146 0
306 -305 146 0
306 305 -146 0
-307 306 153 0
-307 -306 -153 0
307 -306 153 0
307 306 -153 0
-308 307 256 0
-308 -307 -256 0
308 -307 256 0
308 307 -256 0
-308 0
-309 2 125 0
-309 -2 -125 0
309 -2 125 0
309 2 -125 0
-310 309 137 0
-310 -309 -137 0
310 -309 137 0
310 309 -137 0
-311 310 147 0
-311 -310 -147 0
311 -310 147 0
311 310 -147 0
-312 311 154 0
-312 -311 -154 0
312 -311 154 0
312 311 -154 0
-313 312 257 0
-313 -312 -257 0
313 -312 257 0
313 312 -257 0
-313 0
-314 3 126 0
-314 -3 -126 0
314 -3 126 0
314 3 -126 0
-315 314 138 0
-315 -314 -138 0
315 -314 138 0
315 314 -138 0
-316 315 148 0
-316 -315 -148 0
316 -315 148 0
316 315 -148 0
-317 316 155 0
-317 -316 -155 0
317 -316 155 0
317 316 -155 0
-318 317 258 0
-318 -317 -258 0
318 -317 258 0
318 317 -258 0
-318 0
-319 4 127 0
-319 -4 -127 0
319 -4 127 0
319 4 -127 0
-320 319 139 0
-320 -319 -139 0
320 -319 139 0
320 319 -139 0
-321 320 149 0
-321 -320 -149 0
321 -320 149 0
321 320 -149 0
-322 321 156 0
-322 -321 -156 0
322 -321 156 0
322 321 -156 0
-323 322 259 0
-323 -322 -259 0
323 -322 259 0
323 322 -259 0
-323 0
-324 5 128 0
-324 -5 -128 0
324 -5 128 0
324 5 -128 0
-325 324 140 0
-325 -324 -140 0
325 -324 140 0
325 324 -140 0
-326 325 145 0
-326 -325 -145 0
326 -325 145 0
326 325 -145 0
-327 326 150 0
-327 -326 -150 0
327 -326 150 0
327 326 -150 0
-328 327 260 0
-328 -327 -260 0
328 -327 260 0
328 327 -260 0
-328 0
-329 6 129 0
-329 -6 -129 0
329 -6 129 0
329 6 -129 0
-330 329 141 0
-330 -329 -141 0
330 -329 141 0
330 329 -141 0
-331 330 146 0
-331 -330 -146 0
331 -330 146 0
331 330 -146 0
-332 331 151 0
-332 -331 -151 0
332 -331 151 0
332 331 -151 0
-333 332 261 0
-333 -332 -261 0
333 -332 261 0
333 332 -261 0
-333 0
-334 7 130 0
-334 -7 -130 0
334 -7 130 0
334 7 -130 0
-335 334 142 0
-335 -334 -142 0
335 -334 142 0
335 334 -142 0
-336 335 147 0
-336 -335 -147 0
336 -335 147 0
336 335 -147 0
-337 336 152 0
-337 -336 -152 0
337 -336 152 0
337 336 -152 0
-338 337 262 0
-338 -337 -262 0
338 -337 262 0
338 337 -262 0
-338 0
-339 8 131 0
-339 -8 -131 0
339 -8 131 0
339 8 -131 0
-340 339 143 0
-340 -339 -143 0
340 -339 143 0
340 339 -143 0
-341 340 148 0
-341 -340 -148 0
341 -340 148 0
341 340 -148 0
-342 341 153 0
-342 -341 -153 0
342 -341 153 0
342 341 -153 0
-343 342 263 0
-343 -342 -263 0
343 -342 263 0
343 342 -263 0
-343 0
-344 9 132 0
-344 -9 -132 0
344 -9 132 0
344 9 -132 0
-345 344 144 0
-345 -344 -144 0
345 -344 144 0
345 344 -144 0
-346 345 149 0
-346 -345 -149 0
346 -345 149 0
346 345 -149 0
-347 346 154 0
-347 -346 -154 0
347 -346 154 0
347 346 -154 0
-348 347 264 0
-348 -347 -264 0
348 -347 264 0
348 347 -264 0
-348 0
-349 1 22 0
-349 -1 -22 0
349 -1 22 0
349 1 -22 0
-350 349 133 0
-350 -349 -133 0
350 -349 133 0
350 349 -133 0
-351 350 162 0
-351 -350 -162 0
351 -350 162 0
351 350 -162 0
-352 351 167 0
-352 -351 -167 0
352 -351 167 0
352 351 -167 0
-353 352 265 0
-353 -352 -265 0
353 -352 265 0
353 352 -265 0
-353 0
-354 2 23 0
-354 -2 -23 0
354 -2 23 0
354 2 -23 0
-355 354 134 0
-355 -354 -134 0
355 -354 134 0
355 354 -134 0
-356 355 163 0
-356 -355 -163 0
356 -355 163 0
356 355 -163 0
-357 356 168 0
-357 -356 -168 0
357 -356 168 0
357 356 -168 0
-358 357 266 0
-358 -357 -266 0
358 -357 266 0
358 357 -266 0
-358 0
-359 3 24 0
-359 -3 -24 0
359 -3 24 0
359 3 -24 0
-360 359 135 0
-360 -359 -135 0
360 -359 135 0
360 359 -135 0
-361 360 157 0
-361 -360 -157 0
361 -360 157 0
361 360 -157 0
-362 361 164 0
-362 -361 -164 0
362 -361 164 0
362 361 -164 0
-363 362 267 0
-363 -362 -267 0
363 -362 267 0
363 362 -267 0
-363 0
-364 4 13 0
-364 -4 -13 0
364 -4 13 0
364 4 -13 0
-365 364 136 0
-365 -364 -136 0
365 -364 136 0
365 364 -136 0
-366 365 158 0
-366 -365 -158 0
366 -365 158 0
366 365 -158 0
-367 366 165 0
-367 -366 -165 0
367 -366 165 0
367 366 -165 0
-368 367 268 0
-368 -367 -268 0
368 -367 268 0
368 367 -268 0
-368 0
-369 5 14 0
-369 -5 -14 0
369 -5 14 0
369 5 -14 0
-370 369 137 0
-370 -369 -137 0
370 -369 137 0
370 369 -137 0
-371 370 159 0
-371 -370 -159 0
371 -370 159 0
371 370 -159 0
-372 371 166 0
-372 -371 -166 0
372 -371 166 0
372 371 -166 0
-373 372 269 0
-373 -372 -269 0
373 -372 269 0
373 372 -269 0
-373 0
-374 6 15 0
-374 -6 -15 0
374 -6 15 0
374 6 -15 0
-375 374 138 0
-375 -374 -138 0
375 -374 138 0
375 374 -138 0
-376 375 160 0
-376 -375 -160 0
376 -375 160 0
376 375 -160 0
-377 376 167 0
-377 -376 -167 0
377 -376 167 0
377 376 -167 0
-378 377 270 0
-378 -377 -270 0
378 -377 270 0
378 377 -270 0
-378 0
-379 7 16 0
-379 -7 -16 0
379 -7 16 0
379 7 -16 0
-380 379 139 0
-380 -379 -139 0
380 -379 139 0
380 379 -139 0
-381 380 161 0
-381 -380 -161 0
381 -380 161 0
381 380 -161 0
-382 381 168 0
-382 -381 -168 0
382 -381 168 0
382 381 -168 0
-383 382 271 0
-383 -382 -271 0
383 -382 271 0
383 382 -271 0
-383 0
-384 8 17 0
-384 -8 -17 0
384 -8 17 0
384 8 -17 0
-385 384 140 0
-385 -384 -140 0
385 -384 140 0
385 384 -140 0
-386 385 157 0
-386 -385 -157 0
386 -385 157 0
386 385 -157 0
-387 386 162 0
-387 -386 -162 0
387 -386 162 0
387 386 -162 0
-388 387 272 0
-388 -387 -272 0
388 -387 272 0
388 387 -272 0
-388 0
-389 9 18 0
-389 -9 -18 0
389 -9 18 0
389 9 -18 0
-390 389 141 0
-390 -389 -141 0
390 -389 141 0
390 389 -141 0
-391 390 158 0
-391 -390 -158 0
391 -390 158 0
391 390 -158 0
-392 391 163 0
-392 -391 -163 0
392 -391 163 0
392 391 -163 0
-393 392 273 0
-393 -392 -273 0
393 -392 273 0
393 392 -273 0
-393 0
-394 10 19 0
-394 -10 -19 0
394 -10 19 0
394 10 -19 0
-395 394 142 0
-395 -394 -142 0
395 -394 142 0
395 394 -142 0
-396 395 159 0
-396 -395 -159 0
396 -395 159 0
396 395 -159 0
-397 396 164 0
-397 -396 -164 0
397 -396 164 0
397 396 -164 0
-398 397 274 0
-398 -397 -274 0
398 -397 274 0
398 397 -274 0
-398 0
-399 11 20 0
-399 -11 -20 0
399 -11 20 0
399 11 -20 0
-400 399 143 0
-400 -399 -143 0
400 -399 143 0
400 399 -143 0
-401 400 160 0
-401 -400 -160 0
401 -400 160 0
401 400 -160 0
-402 401 165 0
-402 -401 -165 0
402 -401 165 0
402 401 -165 0
-403 402 275 0
-403 -402 -275 0
403 -402 275 0
403 402 -275 0
-403 0
-404 12 21 0
-404 -12 -21 0
404 -12 21 0
404 12 -21 0
-405 404 144 0
-405 -404 -144 0
405 -404 144 0
405 404 -144 0
-406 405 161 0
-406 -405 -161 0
406 -405 161 0
406 405 -161 0
-407 406 166 0
-407 -406 -166 0
407 -406 166 0
407 406 -166 0
-408 407 276 0
-408 -407 -276 0
408 -407 276 0
408 407 -276 0
-408 0
-409 1 13 0
-409 -1 -13 0
409 -1 13 0
409 1 -13 0
-410 409 34 0
-410 -409 -34 0
410 -409 34 0
410 409 -34 0
-411 410 174 0
-411 -410 -174 0
411 -410 174 0
411 410 -174 0
-412 411 179 0
-412 -411 -179 0
412 -411 179 0
412 411 -179 0
-413 412 277 0
-413 -412 -277 0
413 -412 277 0
413 412 -277 0
-413 0
-414 2 14 0
-414 -2 -14 0
414 -2 14 0
414 2 -14 0
-415 414 35 0
-415 -414 -35 0
415 -414 35 0
415 414 -35 0
-416 415 175 0
-416 -415 -175 0
416 -415 175 0
416 415 -175 0
-417 416 180 0
-417 -416 -180 0
417 -416 180 0
417 416 -180 0
-418 417 278 0
-418 -417 -278 0
418 -417 278 0
418 417 -278 0
-418 0
-419 3 15 0
-419 -3 -15 0
419 -3 15 0
419 3 -15 0
-420 419 36 0
-420 -419 -36 0
420 -419 36 0
420 419 -36 0
-421 420 169 0
-421 -420 -169 0
421 -420 169 0
421 420 -169 0
-422 421 176 0
-422 -421 -176 0
422 -421 176 0
422 421 -176 0
-423 422 279 0
-423 -422 -279 0
423 -422 279 0
423 422 -279 0
-423 0
-424 4 16 0
-424 -4 -16 0
424 -4 16 0
424 4 -16 0
-425 424 25 0
-425 -424 -25 0
425 -424 25 0
425 424 -25 0
-426 425 170 0
-426 -425 -170 0
426 -425 170 0
426 425 -170 0
-427 426 177 0
-427 -426 -177 0
427 -426 177 0
427 426 -177 0
-428 427 280 0
-428 -427 -280 0
428 -427 280 0
428 427 -280 0
-428 0
-429 5 17 0
-429 -5 -17 0
429 -5 17 0
429 5 -17 0
-430 429 26 0
-430 -429 -26 0
430 -429 26 0
430 429 -26 0
-431 430 171 0
-431 -430 -171 0
431 -430 171 0
431 430 -171 0
-432 431 178 0
-432 -431 -178 0
432 -431 178 0
432 431 -178 0
-433 432 281 0
-433 -432 -281 0
433 -432 281 0
433 432 -281 0
-433 0
-434 6 18 0
-434 -6 -18 0
434 -6 18 0
434 6 -18 0
-435 434 27 0
-435 -434 -27 0
435 -434 27 0
435 434 -27 0
-436 435 172 0
-436 -435 -172 0
436 -435 172 0
436 435 -172 0
-437 436 179 0
-437 -436 -179 0
437 -436 179 0
437 436 -179 0
-438 437 282 0
-438 -437 -282 0
438 -437 282 0
438 437 -282 0
-438 0
-439 7 19 0
-439 -7 -19 0
439 -7 19 0
439 7 -19 0
-440 439 28 0
-440 -439 -28 0
440 -439 28 0
440 439 -28 0
-441 440 173 0
-441 -440 -173 0
441 -440 173 0
441 440 -173 0
-442 441 180 0
-442 -441 -180 0
442 -441 180 0
442 441 -180 0
-443 442 283 0
-443 -442 -283 0
443 -442 283 0
443 442 -283 0
-443 0
-444 8 20 0
-444 -8 -20 0
444 -8 20 0
444 8 -20 0
-445 444 29 0
-445 -444 -29 0
445 -444 29 0
445 444 -29 0
-446 445 169 0
-446 -445 -169 0
446 -445 169 0
446 445 -169 0
-447 446 174 0
-447 -446 -174 0
447 -446 174 0
447 446 -174 0
-448 447 284 0
-448 -447 -284 0
448 -447 284 0
448 447 -284 0
-448 0
-449 9 21 0
-449 -9 -21 0
449 -9 21 0
449 9 -21 0
-450 449 30 0
-450 -449 -30 0
450 -449 30 0
450 449 -30 0
-451 450 170 0
-451 -450 -170 0
451 -450 170 0
451 450 -170 0
-452 451 175 0
-452 -451 -175 0
452 -451 175 0
452 451 -175 0
-453 452 285 0
-453 -452 -285 0
453 -452 285 0
453 452 -285 0
-453 0
-454 10 22 0
-454 -10 -22 0
454 -10 22 0
454 10 -22 0
-455 454 31 0
-455 -454 -31 0
455 -454 31 0
455 454 -31 0
-456 455 171 0
-456 -455 -171 0
456 -455 171 0
456 455 -171 0
-457 456 176 0
-457 -456 -176 0
457 -456 176 0
457 456 -176 0
-458 457 286 0
-458 -457 -286 0
458 -457 286 0
458 457 -286 0
-458 0
-459 11 23 0
-459 -11 -23 0
459 -11 23 0
459 11 -23 0
-460 459 32 0
-460 -459 -32 0
460 -459 32 0
460 459 -32 0
-461 460 172 0
-461 -460 -172 0
461 -460 172 0
461 460 -172 0
-462 461 177 0
-462 -461 -177 0
462 -461 177 0
462 461 -177 0
-463 462 287 0
-463 -462 -287 0
463 -462 287 0
463 462 -287 0
-463 0
-464 12 24 0
-464 -12 -24 0
464 -12 24 0
464 12 -24 0
-465 464 33 0
-465 -464 -33 0
465 -464 33 0
465 464 -33 0
-466 465 173 0
-466 -465 -173 0
466 -465 173 0
466 465 -173 0
-467 466 178 0
-467 -466 -178 0
467 -466 178 0
467 466 -178 0
-468 467 288 0
-468 -467 -288 0
468 -467 288 0
468 467 -288 0
-468 0
-469 13 25 0
-469 -13 -25 0
469 -13 25 0
469 13 -25 0
-470 469 46 0
-470 -469 -46 0
470 -469 46 0
470 469 -46 0
-471 470 145 0
-471 -470 -145 0
471 -470 145 0
471 470 -145 0
-472 471 186 0
-472 -471 -186 0
472 -471 186 0
472 471 -186 0
-473 472 191 0
-473 -472 -191 0
473 -472 191 0
473 472 -191 0
-473 0
-474 14 26 0
-474 -14 -26 0
474 -14 26 0
474 14 -26 0
-475 474 47 0
-475 -474 -47 0
475 -474 47 0
475 474 -47 0
-476 475 146 0
-476 -475 -146 0
476 -475 146 0
476 475 -146 0
-477 476 187 0
-477 -476 -187 0
477 -476 187 0
477 476 -187 0
-478 477 192 0
-478 -477 -192 0
478 -477 192 0
478 477 -192 0
-478 0
-479 15 27 0
-479 -15 -27 0
479 -15 27 0
479 15 -27 0
-480 479 48 0
-480 -479 -48 0
480 -479 48 0
480 479 -48 0
-481 480 147 0
-481 -480 -147 0
481 -480 147 0
481 480 -147 0
-482 481 181 0
-482 -481 -181 0
482 -481 181 0
482 481 -181 0
-483 482 188 0
-483 -482 -188 0
483 -482 188 0
483 482 -188 0
-483 0
-484 16 28 0
-484 -16 -28 0
484 -16 28 0
484 16 -28 0
-485 484 37 0
-485 -484 -37 0
485 -484 37 0
485 484 -37 0
-486 485 148 0
-486 -485 -148 0
486 -485 148 0
486 485 -148 0
-487 486 182 0
-487 -486 -182 0
487 -486 182 0
487 486 -182 0
-488 487 189 0
-488 -487 -189 0
488 -487 189 0
488 487 -189 0
-488 0
-489 17 29 0
-489 -17 -29 0
489 -17 29 0
489 17 -29 0
-490 489 38 0
-490 -489 -38 0
490 -489 38 0
490 489 -38 0
-491 490 149 0
-491 -490 -149 0
491 -490 149 0
491 490 -149 0
-492 491 183 0
-492 -491 -183 0
492 -491 183 0
492 491 -183 0
-493 492 190 0
-493 -492 -190 0
493 -492 190 0
493 492 -190 0
-493 0
-494 18 30 0
-494 -18 -30 0
494 -18 30 0
494 18 -30 0
-495 494 39 0
-495 -494 -39 0
495 -494 39 0
495 494 -39 0
-496 495 150 0
-496 -495 -150 0
496 -495 150 0
496 495 -150 0
-497 496 184 0
-497 -496 -184 0
497 -496 184 0
497 496 -184 0
-498 497 191 0
-498 -497 -191 0
498 -497 191 0
498 497 -191 0
-498 0
-499 19 31 0
-499 -19 -31 0
499 -19 31 0
499 19 -31 0
-500 499 40 0
-500 -499 -40 0
500 -499 40 0
500 499 -40 0
-501 500 151 0
-501 -500 -151 0
501 -500 151 0
501 500 -151 0
-502 501 185 0
-502 -501 -185 0
502 -501 185 0
502 501 -185 0
-503 502 192 0
-503 -502 -192 0
503 -502 192 0
503 502 -192 0
-503 0
-504 20 32 0
-504 -20 -32 0
504 -20 32 0
504 20 -32 0
-505 504 41 0
-505 -504 -41 0
505 -504 41 0
505 504 -41 0
-506 505 152 0
-506 -505 -152 0
506 -505 152 0
506 505 -152 0
-507 506 181 0
-507 -506 -181 0
507 -506 181 0
507 506 -181 0
-508 507 186 0
-508 -507 -186 0
508 -507 186 0
508 507 -186 0
-508 0
-509 21 33 0
-509 -21 -33 0
509 -21 33 0
509 21 -33 0
-510 509 42 0
-510 -509 -42 0
510 -509 42 0
510 509 -42 0
-511 510 153 0
-511 -510 -153 0
511 -510 153 0
511 510 -153 0
-512 511 182 0
-512 -511 -182 0
512 -511 182 0
512 511 -182 0
-513 512 187 0
-513 -512 -187 0
513 -512 187 0
513 512 -187 0
-513 0
-514 22 34 0
-514 -22 -34 0
514 -22 34 0
514 22 -34 0
-515 514 43 0
-515 -514 -43 0
515 -514 43 0
515 514 -43 0
-516 515 154 0
-516 -515 -154 0
516 -515 154 0
516 515 -154 0
-517 516 183 0
-517 -516 -183 0
517 -516 183 0
517 516 -183 0
-518 517 188 0
-518 -517 -188 0
518 -517 188 0
518 517 -188 0
-518 0
-519 23 35 0
-519 -23 -35 0
519 -23 35 0
519 23 -35 0
-520 519 44 0
-520 -519 -44 0
520 -519 44 0
520 519 -44 0
-521 520 155 0
-521 -520 -155 0
521 -520 155 0
521 520 -155 0
-522 521 184 0
-522 -521 -184 0
522 -521 184 0
522 521 -184 0
-523 522 189 0
-523 -522 -189 0
523 -522 189 0
523 522 -189 0
-523 0
-524 24 36 0
-524 -24 -36 0
524 -24 36 0
524 24 -36 0
-525 524 45 0
-525 -524 -45 0
525 -524 45 0
525 524 -45 0
-526 525 156 0
-526 -525 -156 0
526 -525 156 0
526 525 -156 0
-527 526 185 0
-527 -526 -185 0
527 -526 185 0
527 526 -185 0
-528 527 190 0
-528 -527 -190 0
528 -527 190 0
528 527 -190 0
-528 0
-529 25 37 0
-529 -25 -37 0
529 -25 37 0
529 25 -37 0
-530 529 58 0
-530 -529 -58 0
530 -529 58 0
530 529 -58 0
-531 530 157 0
-531 -530 -157 0
531 -530 157 0
531 530 -157 0
-532 531 198 0
-532 -531 -198 0
532 -531 198 0
532 531 -198 0
-533 532 203 0
-533 -532 -203 0
533 -532 203 0
533 532 -203 0
-533 0
-534 26 38 0
-534 -26 -38 0
534 -26 38 0
534 26 -38 0
-535 534 59 0
-535 -534 -59 0
535 -534 59 0
535 534 -59 0
-536 535 158 0
-536 -535 -158 0
536 -535 158 0
536 535 -158 0
-537 536 199 0
-537 -536 -199 0
537 -536 199 0
537 536 -199 0
-538 537 204 0
-538 -537 -204 0
538 -537 204 0
538 537 -204 0
-538 0
-539 27 39 0
-539 -27 -39 0
539 -27 39 0
539 27 -39 0
-540 539 60 0
-540 -539 -60 0
540 -539 60 0
540 539 -60 0
-541 540 159 0
-541 -540 -159 0
541 -540 159 0
541 540 -159 0
-542 541 193 0
-542 -541 -193 0
542 -541 193 0
542 541 -193 0
-543 542 200 0
-543 -542 -200 0
543 -542 200 0
543 542 -200 0
-543 0
-544 28 40 0
-544 -28 -40 0
544 -28 40 0
544 28 -40 0
-545 544 49 0
-545 -544 -49 0
545 -544 49 0
545 544 -49 0
-546 545 160 0
-546 -545 -160 0
546 -545 160 0
546 545 -160 0
-547 546 194 0
-547 -546 -194 0
547 -546 194 0
547 546 -194 0
-548 547 201 0
-548 -547 -201 0
548 -547 201 0
548 547 -201 0
-548 0
-549 29 41 0
-549 -29 -41 0
549 -29 41 0
549 29 -41 0
-550 549 50 0
-550 -549 -50 0
550 -549 50 0
550 549 -50 0
-551 550 161 0
-551 -550 -161 0
551 -550 161 0
551 550 -161 0
-552 551 195 0
-552 -551 -195 0
552 -551 195 0
552 551 -195 0
-553 552 202 0
-553 -552 -202 0
553 -552 202 0
553 552 -202 0
-553 0
-554 30 42 0
-554 -30 -42 0
554 -30 42 0
554 30 -42 0
-555 554 51 0
-555 -554 -51 0
555 -554 51 0
555 554 -51 0
-556 555 162 0
-556 -555 -162 0
556 -555 162 0
556 555 -162 0
-557 556 196 0
-557 -556 -196 0
557 -556 196 0
557 556 -196 0
-558 557 203 0
-558 -557 -203 0
558 -557 203 0
558 557 -203 0
-558 0
-559 31 43 0
-559 -31 -43 0
559 -31 43 0
559 31 -43 0
-560 559 52 0
-560 -559 -52 0
560 -559 52 0
560 559 -52 0
-561 560 163 0
-561 -560 -163 0
561 -560 163 0
561 560 -163 0
-562 561 197 0
-562 -561 -197 0
562 -561 197 0
562 561 -197 0
-563 562 204 0
-563 -562 -204 0
563 -562 204 0
563 562 -204 0
-563 0
-564 32 44 0
-564 -32 -44 0
564 -32 44 0
564 32 -44 0
-565 564 53 0
-565 -564 -53 0
565 -564 53 0
565 564 -53 0
-566 565 164 0
-566 -565 -164 0
566 -565 164 0
566 565 -164 0
-567 566 193 0
-567 -566 -193 0
567 -566 193 0
567 566 -193 0
-568 567 198 0
-568 -567 -198 0
568 -567 198 0
568 567 -198 0
-568 0
-569 33 45 0
-569 -33 -45 0
569 -33 45 0
569 33 -45 0
-570 569 54 0
-570 -569 -54 0
570 -569 54 0
570 569 -54 0
-571 570 165 0
-571 -570 -165 0
571 -570 165 0
571 570 -165 0
-572 571 194 0
-572 -571 -194 0
572 -571 194 0
572 571 -194 0
-573 572 199 0
-573 -572 -199 0
573 -572 199 0
573 572 -199 0
-573 0
-574 34 46 0
-574 -34 -46 0
574 -34 46 0
574 34 -46 0
-575 574 55 0
-575 -574 -55 0
575 -574 55 0
575 574 -55 0
-576 575 166 0
-576 -575 -166 0
576 -575 166 0
576 575 -166 0
-577 576 195 0
-577 -576 -195 0
577 -576 195 0
577 576 -195 0
-578 577 200 0
-578 -577 -200 0
578 -577 200 0
578 577 -200 0
-578 0
-579 35 47 0
-579 -35 -47 0
579 -35 47 0
579 35 -47 0
-580 579 56 0
-580 -579 -56 0
580 -579 56 0
580 579 -56 0
-581 580 167 0
-581 -580 -167 0
581 -580 167 0
581 580 -167 0
-582 581 196 0
-582 -581 -196 0
582 -581 196 0
582 581 -196 0
-583 582 201 0
-583 -582 -201 0
583 -582 201 0
583 582 -201 0
-583 0
-584 36 48 0
-584 -36 -48 0
584 -36 48 0
584 36 -48 0
-585 584 57 0
-585 -584 -57 0
585 -584 57 0
585 584 -57 0
-586 585 168 0
-586 -585 -168 0
586 -585 168 0
586 585 -168 0
-587 586 197 0
-587 -586 -197 0
587 -586 197 0
587 586 -197 0
-588 587 202 0
-588 -587 -202 0
588 -587 202 0
588 587 -202 0
-588 0
-589 37 49 0
-589 -37 -49 0
589 -37 49 0
589 37 -49 0
-590 589 70 0
-590 -589 -70 0
590 -589 70 0
590 589 -70 0
-591 590 169 0
-591 -590 -169 0
591 -590 169 0
591 590 -169 0
-592 591 210 0
-592 -591 -210 0
592 -591 210 0
592 591 -210 0
-593 592 215 0
-593 -592 -215 0
593 -592 215 0
593 592 -215 0
-593 0
-594 38 50 0
-594 -38 -50 0
594 -38 50 0
594 38 -50 0
-595 594 71 0
-595 -594 -71 0
595 -594 71 0
595 594 -71 0
-596 595 170 0
-596 -595 -170 0
596 -595 170 0
596 595 -170 0
-597 596 211 0
-597 -596 -211 0
597 -596 211 0
597 596 -211 0
-598 597 216 0
-598 -597 -216 0
598 -597 216 0
598 597 -216 0
-598 0
-599 39 51 0
-599 -39 -51 0
599 -39 51 0
599 39 -51 0
-600 599 72 0
-600 -599 -72 0
600 -599 72 0
600 599 -72 0
-601 600 171 0
-601 -600 -171 0
601 -600 171 0
601 600 -171 0
-602 601 205 0
-602 -601 -205 0
602 -601 205 0
602 601 -205 0
-603 602 212 0
-603 -602 -212 0
603 -602 212 0
603 602 -212 0
-603 0
-604 40 52 0
-604 -40 -52 0
604 -40 52 0
604 40 -52 0
-605 604 61 0
-605 -604 -61 0
605 -604 61 0
605 604 -61 0
-606 605 172 0
-606 -605 -172 0
606 -605 172 0
606 605 -172 0
-607 606 206 0
-607 -606 -206 0
607 -606 206 0
607 606 -206 0
-608 607 213 0
-608 -607 -213 0
608 -607 213 0
608 607 -213 0
-608 0
-609 41 53 0
-609 -41 -53 0
609 -41 53 0
609 41 -53 0
-610 609 62 0
-610 -609 -62 0
610 -609 62 0
610 609 -62 0
-611 610 173 0
-611 -610 -173 0
611 -610 173 0
611 610 -173 0
-612 611 207 0
-612 -611 -207 0
612 -611 207 0
612 611 -207 0
-613 612 214 0
-613 -612 -214 0
613 -612 214 0
613 612 -214 0
-613 0
-614 42 54 0
-614 -42 -54 0
614 -42 54 0
614 42 -54 0
-615 614 63 0
-615 -614 -63 0
615 -614 63 0
615 614 -63 0
-616 615 174 0
-616 -615 -174 0
616 -615 174 0
616 615 -174 0
-617 616 208 0
-617 -616 -208 0
617 -616 208 0
617 616 -208 0
-618 617 215 0
-618 -617 -215 0
618 -617 215 0
618 617 -215 0
-618 0
-619 43 55 0
-619 -43 -55 0
619 -43 55 0
619 43 -55 0
-620 619 64 0
-620 -619 -64 0
620 -619 64 0
620 619 -64 0
-621 620 175 0
-621 -620 -175 0
621 -620 175 0
621 620 -175 0
-622 621 209 0
-622 -621 -209 0
622 -621 209 0
622 621 -209 0
-623 622 216 0
-623 -622 -216 0
623 -622 216 0
623 622 -216 0
-623 0
-624 44 56 0
-624 -44 -56 0
624 -44 56 0
624 44 -56 0
-625 624 65 0
-625 -624 -65 0
625 -624 65 0
625 624 -65 0
-626 625 176 0
-626 -625 -176 0
626 -625 176 0
626 625 -176 0
-627 626 205 0
-627 -626 -205 0
627 -626 205 0
627 626 -205 0
-628 627 210 0
-628 -627 -210 0
628 -627 210 0
628 627 -210 0
-628 0
-629 45 57 0
-629 -45 -57 0
629 -45 57 0
629 45 -57 0
-630 629 66 0
-630 -629 -66 0
630 -629 66 0
630 629 -66 0
-631 630 177 0
-631 -630 -177 0
631 -630 177 0
631 630 -177 0
-632 631 206 0
-632 -631 -206 0
632 -631 206 0
632 631 -206 0
-633 632 211 0
-633 -632 -211 0
633 -632 211 0
633 632 -211 0
-633 0
-634 46 58 0
-634 -46 -58 0
634 -46 58 0
634 46 -58 0
-635 634 67 0
-635 -634 -67 0
635 -634 67 0
635 634 -67 0
-636 635 178 0
-636 -635 -178 0
636 -635 178 0
636 635 -178 0
-637 636 207 0
-637 -636 -207 0
637 -636 207 0
637 636 -207 0
-638 637 212 0
-638 -637 -212 0
638 -637 212 0
638 637 -212 0
-638 0
-639 47 59 0
-639 -47 -59 0
639 -47 59 0
639 47 -59 0
-640 639 68 0
-640 -639 -68 0
640 -639 68 0
640 639 -68 0
-641 640 179 0
-641 -640 -179 0
641 -640 179 0
641 640 -179 0
-642 641 208 0
-642 -641 -208 0
642 -641 208 0
642 641 -208 0
-643 642 213 0
-643 -642 -213 0
643 -642 213 0
643 642 -213 0
-643 0
-644 48 60 0
-644 -48 -60 0
644 -48 60 0
644 48 -60 0
-645 644 69 0
-645 -644 -69 0
645 -644 69 0
645 644 -69 0
-646 645 180 0
-646 -645 -180 0
646 -645 180 0
646 645 -180 0
-647 646 209 0
-647 -646 -209 0
647 -646 209 0
647 646 -209 0
-648 647 214 0
-648 -647 -214 0
648 -647 214 0
648 647 -214 0
-648 0
-649 49 61 0
-649 -49 -61 0
649 -49 61 0
649 49 -61 0
-650 649 82 0
-650 -649 -82 0
650 -649 82 0
650 649 -82 0
-651 650 181 0
-651 -650 -181 0
651 -650 181 0
651 650 -181 0
-652 651 222 0
-652 -651 -222 0
652 -651 222 0
652 651 -222 0
-653 652 227 0
-653 -652 -227 0
653 -652 227 0
653 652 -227 0
-653 0
-654 50 62 0
-654 -50 -62 0
654 -50 62 0
654 50 -62 0
-655 654 83 0
-655 -654 -83 0
655 -654 83 0
655 654 -83 0
-656 655 182 0
-656 -655 -182 0
656 -655 182 0
656 655 -182 0
-657 656 223 0
-657 -656 -223 0
657 -656 223 0
657 656 -223 0
-658 657 228 0
-658 -657 -228 0
658 -657 228 0
658 657 -228 0
-658 0
-659 51 63 0
-659 -51 -63 0
659 -51 63 0
659 51 -63 0
-660 659 84 0
-660 -659 -84 0
660 -659 84 0
660 659 -84 0
-661 660 183 0
-661 -660 -183 0
661 -660 183 0
661 660 -183 0
-662 661 217 0
-662 -661 -217 0
662 -661 217 0
662 661 -217 0
-663 662 224 0
-663 -662 -224 0
663 -662 224 0
663 662 -224 0
-663 0
-664 52 64 0
-664 -52 -64 0
664 -52 64 0
664 52 -64 0
-665 664 73 0
-665 -664 -73 0
665 -664 73 0
665 664 -73 0
-666 665 184 0
-666 -665 -184 0
666 -665 184 0
666 665 -184 0
-667 666 218 0
-667 -666 -218 0
667 -666 218 0
667 666 -218 0
-668 667 225 0
-668 -667 -225 0
668 -667 225 0
668 667 -225 0
-668 0
-669 53 65 0
-669 -53 -65 0
669 -53 65 0
669 53 -65 0
-670 669 74 0
-670 -669 -74 0
670 -669 74 0
670 669 -74 0
-671 670 185 0
-671 -670 -185 0
671 -670 185 0
671 670 -185 0
-672 671 219 0
-672 -671 -219 0
672 -671 219 0
672 671 -219 0
-673 672 226 0
-673 -672 -226 0
673 -672 226 0
673 672 -226 0
-673 0
-674 54 66 0
-674 -54 -66 0
674 -54 66 0
674 54 -66 0
-675 674 75 0
-675 -674 -75 0
675 -674 75 0
675 674 -75 0
-676 675 186 0
-676 -675 -186 0
676 -675 186 0
676 675 -186 0
-677 676 220 0
-677 -676 -220 0
677 -676 220 0
677 676 -220 0
-678 677 227 0
-678 -677 -227 0
678 -677 227 0
678 677 -227 0
-678 0
-679 55 67 0
-679 -55 -67 0
679 -55 67 0
679 55 -67 0
-680 679 76 0
-680 -679 -76 0
680 -679 76 0
680 679 -76 0
-681 680 187 0
-681 -680 -187 0
681 -680 187 0
681 680 -187 0
-682 681 221 0
-682 -681 -221 0
682 -681 221 0
682 681 -221 0
-683 682 228 0
-683 -682 -228 0
683 -682 228 0
683 682 -228 0
-683 0
-684 56 68 0
-684 -56 -68 0
684 -56 68 0
684 56 -68 0
-685 684 77 0
-685 -684 -77 0
685 -684 77 0
685 684 -77 0
-686 685 188 0
-686 -685 -188 0
686 -685 188 0
686 685 -188 0
-687 686 217 0
-687 -686 -217 0
687 -686 217 0
687 686 -217 0
-688 687 222 0
-688 -687 -222 0
688 -687 222 0
688 687 -222 0
-688 0
-689 57 69 0
-689 -57 -69 0
689 -57 69 0
689 57 -69 0
-690 689 78 0
-690 -689 -78 0
690 -689 78 0
690 689 -78 0
-691 690 189 0
-691 -690 -189 0
691 -690 189 0
691 690 -189 0
-692 691 218 0
-692 -691 -218 0
692 -691 218 0
692 691 -218 0
-693 692 223 0
-693 -692 -223 0
693 -692 223 0
693 692 -223 0
-693 0
-694 58 70 0
-694 -58 -70 0
694 -58 70 0
694 58 -70 0
-695 694 79 0
-695 -694 -79 0
695 -694 79 0
695 694 -79 0
-696 695 190 0
-696 -695 -190 0
696 -695 190 0
696 695 -190 0
-697 696 219 0
-697 -696 -219 0
697 -696 219 0
697 696 -219 0
-698 697 224 0
-698 -697 -224 0
698 -697 224 0
698 697 -224 0
-698 0
-699 59 71 0
-699 -59 -71 0
699 -59 71 0
699 59 -71 0
-700 699 80 0
-700 -699 -80 0
700 -699 80 0
700 699 -80 0
-701 700 191 0
-701 -700 -191 0
701 -700 191 0
701 700 -191 0
-702 701 220 0
-702 -701 -220 0
702 -701 220 0
702 701 -220 0
-703 702 225 0
-703 -702 -225 0
703 -702 225 0
703 702 -225 0
-703 0
-704 60 72 0
-704 -60 -72 0
704 -60 72 0
704 60 -72 0
-705 704 81 0
-705 -704 -81 0
705 -704 81 0
705 704 -81 0
-706 705 192 0
-706 -705 -192 0
706 -705 192 0
706 705 -192 0
-707 706 221 0
-707 -706 -221 0
707 -706 221 0
707 706 -221 0
-708 707 226 0
-708 -707 -226 0
708 -707 226 0
708 707 -226 0
-708 0
-709 61 73 0
-709 -61 -73 0
709 -61 73 0
709 61 -73 0
-710 709 94 0
-710 -709 -94 0
710 -709 94 0
710 709 -94 0
-711 710 193 0
-711 -710 -193 0
711 -710 193 0
711 710 -193 0
-712 711 234 0
-712 -711 -234 0
712 -711 234 0
712 711 -234 0
-713 712 239 0
-713 -712 -239 0
713 -712 239 0
713 712 -239 0
-713 0
-714 62 74 0
-714 -62 -74 0
714 -62 74 0
714 62 -74 0
-715 714 95 0
-715 -714 -95 0
715 -714 95 0
715 714 -95 0
-716 715 194 0
-716 -715 -194 0
716 -715 194 0
716 715 -194 0
-717 716 235 0
-717 -716 -235 0
717 -716 235 0
717 716 -235 0
-718 717 240 0
-718 -717 -240 0
718 -717 240 0
718 717 -240 0
-718 0
-719 63 75 0
-719 -63 -75 0
719 -63 75 0
719 63 -75 0
-720 719 96 0
-720 -719 -96 0
720 -719 96 0
720 719 -96 0
-721 720 195 0
-721 -720 -195 0
721 -720 195 0
721 720 -195 0
-722 721 229 0
-722 -721 -229 0
722 -721 229 0
722 721 -229 0
-723 722 236 0
-723 -722 -236 0
723 -722 236 0
723 722 -236 0
-723 0
-724 64 76 0
-724 -64 -76 0
724 -64 76 0
724 64 -76 0
-725 724 85 0
-725 -724 -85 0
725 -724 85 0
725 724 -85 0
-726 725 196 0
-726 -725 -196 0
726 -725 196 0
726 725 -196 0
-727 726 230 0
-727 -726 -230 0
727 -726 230 0
727 726 -230 0
-728 727 237 0
-728 -727 -237 0
728 -727 237 0
728 727 -237 0
-728 0
-729 65 77 0
-729 -65 -77 0
729 -65 77 0
729 65 -77 0
-730 729 86 0
-730 -729 -86 0
730 -729 86 0
730 729 -86 0
-731 730 197 0
-731 -730 -197 0
731 -730 197 0
731 730 -197 0
-732 731 231 0
-732 -731 -231 0
732 -731 231 0
732 731 -231 0
-733 732 238 0
-733 -732 -238 0
733 -732 238 0
733 732 -238 0
-733 0
-734 66 78 0
-734 -66 -78 0
734 -66 78 0
734 66 -78 0
-735 734 87 0
-735 -734 -87 0
735 -734 87 0
735 734 -87 0
-736 735 198 0
-736 -735 -198 0
736 -735 198 0
736 735 -198 0
-737 736 232 0
-737 -736 -232 0
737 -736 232 0
737 736 -232 0
-738 737 239 0
-738 -737 -239 0
738 -737 239 0
738 737 -239 0
-738 0
-739 67 79 0
-739 -67 -79 0
739 -67 79 0
739 67 -79 0
-740 739 88 0
-740 -739 -88 0
740 -739 88 0
740 739 -88 0
-741 740 199 0
-741 -740 -199 0
741 -740 199 0
741 740 -199 0
-742 741 233 0
-742 -741 -233 0
742 -741 233 0
742 741 -233 0
-743 742 240 0
-743 -742 -240 0
743 -742 240 0
743 742 -240 0
-743 0
-744 68 80 0
-744 -68 -80 0
744 -68 80 0
744 68 -80 0
-745 744 89 0
-745 -744 -89 0
745 -744 89 0
745 744 -89 0
-746 745 200 0
-746 -745 -200 0
746 -745 200 0
746 745 -200 0
-747 746 229 0
-747 -746 -229 0
747 -746 229 0
747 746 -229 0
-748 747 234 0
-748 -747 -234 0
748 -747 234 0
748 747 -234 0
-748 0
-749 69 81 0
-749 -69 -81 0
749 -69 81 0
749 69 -81 0
-750 749 90 0
-750 -749 -90 0
750 -749 90 0
750 749 -90 0
-751 750 201 0
-751 -750 -201 0
751 -750 201 0
751 750 -201 0
-752 751 230 0
-752 -751 -230 0
752 -751 230 0
752 751 -230 0
-753 752 235 0
-753 -752 -235 0
753 -752 235 0
753 752 -235 0
-753 0
-754 70 82 0
-754 -70 -82 0
754 -70 82 0
754 70 -82 0
-755 754 91 0
-755 -754 -91 0
755 -754 91 0
755 754 -91 0
-756 755 202 0
-756 -755 -202 0
756 -755 202 0
756 755 -202 0
-757 756 231 0
-757 -756 -231 0
757 -756 231 0
757 756 -231 0
-758 757 236 0
-758 -757 -236 0
758 -757 236 0
758 757 -236 0
-758 0
-759 71 83 0
-759 -71 -83 0
759 -71 83 0
759 71 -83 0
-760 759 92 0
-760 -759 -92 0
760 -759 92 0
760 759 -92 0
-761 760 203 0
-761 -760 -203 0
761 -760 203 0
761 760 -203 0
-762 761 232 0
-762 -761 -232 0
762 -761 232 0
762 761 -232 0
-763 762 237 0
-763 -762 -237 0
763 -762 237 0
763 762 -237 0
-763 0
-764 72 84 0
-764 -72 -84 0
764 -72 84 0
764 72 -84 0
-765 764 93 0
-765 -764 -93 0
765 -764 93 0
765 764 -93 0
-766 765 204 0
-766 -765 -204 0
766 -765 204 0
766 765 -204 0
-767 766 233 0
-767 -766 -233 0
767 -766 233 0
767 766 -233 0
-768 767 238 0
-768 -767 -238 0
768 -767 238 0
768 767 -238 0
-768 0
-769 73 85 0
-769 -73 -85 0
769 -73 85 0
769 73 -85 0
-770 769 106 0
-770 -769 -106 0
770 -769 106 0
770 769 -106 0
-771 770 205 0
-771 -770 -205 0
771 -770 205 0
771 770 -205 0
-772 771 246 0
-772 -771 -246 0
772 -771 246 0
772 771 -246 0
-773 772 251 0
-773 -772 -251 0
773 -772 251 0
773 772 -251 0
-773 0
-774 74 86 0
-774 -74 -86 0
774 -74 86 0
774 74 -86 0
-775 774 107 0
-775 -774 -107 0
775 -774 107 0
775 774 -107 0
-776 775 206 0
-776 -775 -206 0
776 -775 206 0
776 775 -206 0
-777 776 247 0
-777 -776 -247 0
777 -776 247 0
777 776 -247 0
-778 777 252 0
-778 -777 -252 0
778 -777 252 0
778 777 -252 0
-778 0
-779 75 87 0
-779 -75 -87 0
779 -75 87 0
779 75 -87 0
-780 779 108 0
-780 -779 -108 0
780 -779 108 0
780 779 -108 0
-781 780 207 0
-781 -780 -207 0
781 -780 207 0
781 780 -207 0
-782 781 241 0
-782 -781 -241 0
782 -781 241 0
782 781 -241 0
-783 782 248 0
-783 -782 -248 0
783 -782 248 0
783 782 -248 0
-783 0
-784 76 88 0
-784 -76 -88 0
784 -76 88 0
784 76 -88 0
-785 784 97 0
-785 -784 -97 0
785 -784 97 0
785 784 -97 0
-786 785 208 0
-786 -785 -208 0
786 -785 208 0
786 785 -208 0
-787 786 242 0
-787 -786 -242 0
787 -786 242 0
787 786 -242 0
-788 787 249 0
-788 -787 -249 0
788 -787 249 0
788 787 -249 0
-788 0
-789 77 89 0
-789 -77 -89 0
789 -77 89 0
789 77 -89 0
-790 789 98 0
-790 -789 -98 0
790 -789 98 0
790 789 -98 0
-791 790 209 0
-791 -790 -209 0
791 -790 209 0
791 790 -209 0
-792 791 243 0
-792 -791 -243 0
792 -791 243 0
792 791 -243 0
-793 792 250 0
-793 -792 -250 0
793 -792 250 0
793 792 -250 0
-793 0
-794 78 90 0
-794 -78 -90 0
794 -78 90 0
794 78 -90 0
-795 794 99 0
-795 -794 -99 0
795 -794 99 0
795 794 -99 0
-796 795 210 0
-796 -795 -210 0
796 -795 210 0
796 795 -210 0
-797 796 244 0
-797 -796 -244 0
797 -796 244 0
797 796 -244 0
-798 797 251 0
-798 -797 -251 0
798 -797 251 0
798 797 -251 0
-798 0
-799 79 91 0
-799 -79 -91 0
799 -79 91 0
799 79 -91 0
-800 799 100 0
-800 -799 -100 0
800 -799 100 0
800 799 -100 0
-801 800 211 0
-801 -800 -211 0
801 -800 211 0
801 800 -211 0
-802 801 245 0
-802 -801 -245 0
802 -801 245 0
802 801 -245 0
-803 802 252 0
-803 -802 -252 0
803 -802 252 0
803 802 -252 0
-803 0
-804 80 92 0
-804 -80 -92 0
804 -80 92 0
804 80 -92 0
-805 804 101 0
-805 -804 -101 0
805 -804 101 0
805 804 -101 0
-806 805 212 0
-806 -805 -212 0
806 -805 212 0
806 805 -212 0
-807 806 241 0
-807 -806 -241 0
807 -806 241 0
807 806 -241 0
-808 807 246 0
-808 -807 -246 0
808 -807 246 0
808 807 -246 0
-808 0
-809 81 93 0
-809 -81 -93 0
809 -81 93 0
809 81 -93 0
-810 809 102 0
-810 -809 -102 0
810 -809 102 0
810 809 -102 0
-811 810 213 0
-811 -810 -213 0
811 -810 213 0
811 810 -213 0
-812 811 242 0
-812 -811 -242 0
812 -811 242 0
812 811 -242 0
-813 812 247 0
-813 -812 -247 0
813 -812 247 0
813 812 -247 0
-813 0
-814 82 94 0
-814 -82 -94 0
814 -82 94 0
814 82 -94 0
-815 814 103 0
-815 -814 -103 0
815 -814 103 0
815 814 -103 0
-816 815 214 0
-816 -815 -214 0
816 -815 214 0
816 815 -214 0
-817 816 243 0
-817 -816 -243 0
817 -816 243 0
817 816 -243 0
-818 817 248 0
-818 -817 -248 0
818 -817 248 0
818 817 -248 0
-818 0
-819 83 95 0
-819 -83 -95 0
819 -83 95 0
819 83 -95 0
-820 819 104 0
-820 -819 -104 0
820 -819 104 0
820 819 -104 0
-821 820 215 0
-821 -820 -215 0
821 -820 215 0
821 820 -215 0
-822 821 244 0
-822 -821 -244 0
822 -821 244 0
822 821 -244 0
-823 822 249 0
-823 -822 -249 0
823 -822 249 0
823 822 -249 0
-823 0
-824 84 96 0
-824 -84 -96 0
824 -84 96 0
824 84 -96 0
-825 824 105 0
-825 -824 -105 0
825 -824 105 0
825 824 -105 0
-826 825 216 0
-826 -825 -216 0
826 -825 216 0
826 825 -216 0
-827 826 245 0
-827 -826 -245 0
827 -826 245 0
827 826 -245 0
-828 827 250 0
-828 -827 -250 0
828 -827 250 0
828 827 -250 0
-828 0
-829 85 97 0
-829 -85 -97 0
829 -85 97 0
829 85 -97 0
-830 829 118 0
-830 -829 -118 0
830 -829 118 0
830 829 -118 0
-831 830 217 0
-831 -830 -217 0
831 -830 217 0
831 830 -217 0
-832 831 258 0
-832 -831 -258 0
832 -831 258 0
832 831 -258 0
-833 832 263 0
-833 -832 -263 0
833 -832 263 0
833 832 -263 0
-833 0
-834 86 98 0
-834 -86 -98 0
834 -86 98 0
834 86 -98 0
-835 834 119 0
-835 -834 -119 0
835 -834 119 0
835 834 -119 0
-836 835 218 0
-836 -835 -218 0
836 -835 218 0
836 835 -218 0
-837 836 259 0
-837 -836 -259 0
837 -836 259 0
837 836 -259 0
-838 837 264 0
-838 -837 -264 0
838 -837 264 0
838 837 -264 0
-838 0
-839 87 99 0
-839 -87 -99 0
839 -87 99 0
839 87 -99 0
-840 839 120 0
-840 -839 -120 0
840 -839 120 0
840 839 -120 0
-841 840 219 0
-841 -840 -219 0
841 -840 219 0
841 840 -219 0
-842 841 253 0
-842 -841 -253 0
842 -841 253 0
842 841 -253 0
-843 842 260 0
-843 -842 -260 0
843 -842 260 0
843 842 -260 0
-843 0
-844 88 100 0
-844 -88 -100 0
844 -88 100 0
844 88 -100 0
-845 844 109 0
-845 -844 -109 0
845 -844 109 0
845 844 -109 0
-846 845 220 0
-846 -845 -220 0
846 -845 220 0
846 845 -220 0
-847 846 254 0
-847 -846 -254 0
847 -846 254 0
847 846 -254 0
-848 847 261 0
-848 -847 -261 0
848 -847 261 0
848 847 -261 0
-848 0
-849 89 101 0
-849 -89 -101 0
849 -89 101 0
849 89 -101 0
-850 849 110 0
-850 -849 -110 0
850 -849 110 0
850 849 -110 0
-851 850 221 0
-851 -850 -221 0
851 -850 221 0
851 850 -221 0
-852 851 255 0
-852 -851 -255 0
852 -851 255 0
852 851 -255 0
-853 852 262 0
-853 -852 -262 0
853 -852 262 0
853 852 -262 0
-853 0
-854 90 102 0
-854 -90 -102 0
854 -90 102 0
854 90 -102 0
-855 854 111 0
-855 -854 -111 0
855 -854 111 0
855 854 -111 0
-856 855 222 0
-856 -855 -222 0
856 -855 222 0
856 855 -222 0
-857 856 256 0
-857 -856 -256 0
857 -856 256 0
857 856 -256 0
-858 857 263 0
-858 -857 -263 0
858 -857 263 0
858 857 -263 0
-858 0
-859 91 103 0
-859 -91 -103 0
859 -91 103 0
859 91 -103 0
-860 859 112 0
-860 -859 -112 0
860 -859 112 0
860 859 -112 0
-861 860 223 0
-861 -860 -223 0
861 -860 223 0
861 860 -223 0
-862 861 257 0
-862 -861 -257 0
862 -861 257 0
862 861 -257 0
-863 862 264 0
-863 -862 -264 0
863 -862 264 0
863 862 -264 0
-863 0
-864 92 104 0
-864 -92 -104 0
864 -92 104 0
864 92 -104 0
-865 864 113 0
-865 -864 -113 0
865 -864 113 0
865 864 -113 0
-866 865 224 0
-866 -865 -224 0
866 -865 224 0
866 865 -224 0
-867 866 253 0
-867 -866 -253 0
867 -866 253 0
867 866 -253 0
-868 867 258 0
-868 -867 -258 0
868 -867 258 0
868 867 -258 0
-868 0
-869 93 105 0
-869 -93 -105 0
869 -93 105 0
869 93 -105 0
-870 869 114 0
-870 -869 -114 0
870 -869 114 0
870 869 -114 0
-871 870 225 0
-871 -870 -225 0
871 -870 225 0
871 870 -225 0
-872 871 254 0
-872 -871 -254 0
872 -871 254 0
872 871 -254 0
-873 872 259 0
-873 -872 -259 0
873 -872 259 0
873 872 -259 0
-873 0
-874 94 106 0
-874 -94 -106 0
874 -94 106 0
874 94 -106 0
-875 874 115 0
-875 -874 -115 0
875 -874 115 0
875 874 -115 0
-876 875 226 0
-876 -875 -226 0
876 -875 226 0
876 875 -226 0
-877 876 255 0
-877 -876 -255 0
877 -876 255 0
877 876 -255 0
-878 877 260 0
-878 -877 -260 0
878 -877 260 0
878 877 -260 0
-878 0
-879 95 107 0
-879 -95 -107 0
879 -95 107 0
879 95 -107 0
-880 879 116 0
-880 -879 -116 0
880 -879 116 0
880 879 -116 0
-881 880 227 0
-881 -880 -227 0
881 -880 227 0
881 880 -227 0
-882 881 256 0
-882 -881 -256 0
882 -881 256 0
882 881 -256 0
-883 882 261 0
-883 -882 -261 0
883 -882 261 0
883 882 -261 0
-883 0
-884 96 108 0
-884 -96 -108 0
884 -96 108 0
884 96 -108 0
-885 884 117 0
-885 -884 -117 0
885 -884 117 0
885 884 -117 0
-886 885 228 0
-886 -885 -228 0
886 -885 228 0
886 885 -228 0
-887 886 257 0
-887 -886 -257 0
887 -886 257 0
887 886 -257 0
-888 887 262 0
-888 -887 -262 0
888 -887 262 0
888 887 -262 0
-888 0
-889 97 109 0
-889 -97 -109 0
889 -97 109 0
889 97 -109 0
-890 889 130 0
-890 -889 -130 0
890 -889 130 0
890 889 -130 0
-891 890 229 0
-891 -890 -229 0
891 -890 229 0
891 890 -229 0
-892 891 270 0
-892 -891 -270 0
892 -891 270 0
892 891 -270 0
-893 892 275 0
-893 -892 -275 0
893 -892 275 0
893 892 -275 0
-893 0
-894 98 110 0
-894 -98 -110 0
894 -98 110 0
894 98 -110 0
-895 894 131 0
-895 -894 -131 0
895 -894 131 0
895 894 -131 0
-896 895 230 0
-896 -895 -230 0
896 -895 230 0
896 895 -230 0
-897 896 271 0
-897 -896 -271 0
897 -896 271 0
897 896 -271 0
-898 897 276 0
-898 -897 -276 0
898 -897 276 0
898 897 -276 0
-898 0
-899 99 111 0
-899 -99 -111 0
899 -99 111 0
899 99 -111 0
-900 899 132 0
-900 -899 -132 0
900 -899 132 0
900 899 -132 0
-901 900 231 0
-901 -900 -231 0
901 -900 231 0
901 900 -231 0
-902 901 265 0
-902 -901 -265 0
902 -901 265 0
902 901 -265 0
-903 902 272 0
-903 -902 -272 0
903 -902 272 0
903 902 -272 0
-903 0
-904 100 112 0
-904 -100 -112 0
904 -100 112 0
904 100 -112 0
-905 904 121 0
-905 -904 -121 0
905 -904 121 0
905 904 -121 0
-906 905 232 0
-906 -905 -232 0
906 -905 232 0
906 905 -232 0
-907 906 266 0
-907 -906 -266 0
907 -906 266 0
907 906 -266 0
-908 907 273 0
-908 -907 -273 0
908 -907 273 0
908 907 -273 0
-908 0
-909 101 113 0
-909 -101 -113 0
909 -101 113 0
909 101 -113 0
-910 909 122 0
-910 -909 -122 0
910 -909 122 0
910 909 -122 0
-911 910 233 0
-911 -910 -233 0
911 -910 233 0
911 910 -233 0
-912 911 267 0
-912 -911 -267 0
912 -911 267 0
912 911 -267 0
-913 912 274 0
-913 -912 -274 0
913 -912 274 0
913 912 -274 0
-913 0
-914 102 114 0
-914 -102 -114 0
914 -102 114 0
914 102 -114 0
-915 914 123 0
-915 -914 -123 0
915 -914 123 0
915 914 -123 0
-916 915 234 0
-916 -915 -234 0
916 -915 234 0
916 915 -234 0
-917 916 268 0
-917 -916 -268 0
917 -916 268 0
917 916 -268 0
-918 917 275 0
-918 -917 -275 0
918 -917 275 0
918 917 -275 0
-918 0
-919 103 115 0
-919 -103 -115 0
919 -103 115 0
919 103 -115 0
-920 919 124 0
-920 -919 -124 0
920 -919 124 0
920 919 -124 0
-921 920 235 0
-921 -920 -235 0
921 -920 235 0
921 920 -235 0
-922 921 269 0
-922 -921 -269 0
922 -921 269 0
922 921 -269 0
-923 922 276 0
-923 -922 -276 0
923 -922 276 0
923 922 -276 0
-923 0
-924 104 116 0
-924 -104 -116 0
924 -104 116 0
924 104 -116 0
-925 924 125 0
-925 -924 -125 0
925 -924 125 0
925 924 -125 0
-926 925 236 0
-926 -925 -236 0
926 -925 236 0
926 925 -236 0
-927 926 265 0
-927 -926 -265 0
927 -926 265 0
927 926 -265 0
-928 927 270 0
-928 -927 -270 0
928 -927 270 0
928 927 -270 0
-928 0
-929 105 117 0
-929 -105 -117 0
929 -105 117 0
929 105 -117 0
-930 929 126 0
-930 -929 -126 0
930 -929 126 0
930 929 -126 0
-931 930 237 0
-931 -930 -237 0
931 -930 237 0
931 930 -237 0
-932 931 266 0
-932 -931 -266 0
932 -931 266 0
932 931 -266 0
-933 932 271 0
-933 -932 -271 0
933 -932 271 0
933 932 -271 0
-933 0
-934 106 118 0
-934 -106 -118 0
934 -106 118 0
934 106 -118 0
-935 934 127 0
-935 -934 -127 0
935 -934 127 0
935 934 -127 0
-936 935 238 0
-936 -935 -238 0
936 -935 238 0
936 935 -238 0
-937 936 267 0
-937 -936 -267 0
937 -936 267 0
937 936 -267 0
-938 937 272 0
-938 -937 -272 0
938 -937 272 0
938 937 -272 0
-938 0
-939 107 119 0
-939 -107 -119 0
939 -107 119 0
939 107 -119 0
-940 939 128 0
-940 -939 -128 0
940 -939 128 0
940 939 -128 0
-941 940 239 0
-941 -940 -239 0
941 -940 239 0
941 940 -239 0
-942 941 268 0
-942 -941 -268 0
942 -941 268 0
942 941 -268 0
-943 942 273 0
-943 -942 -273 0
943 -942 273 0
943 942 -273 0
-943 0
-944 108 120 0
-944 -108 -120 0
944 -108 120 0
944 108 -120 0
-945 944 129 0
-945 -944 -129 0
945 -944 129 0
945 944 -129 0
-946 945 240 0
-946 -945 -240 0
946 -945 240 0
946 945 -240 0
-947 946 269 0
-947 -946 -269 0
947 -946 269 0
947 946 -269 0
-948 947 274 0
-948 -947 -274 0
948 -947 274 0
948 947 -274 0
-948 0
-949 109 121 0
-949 -109 -121 0
949 -109 121 0
949 109 -121 0
-950 949 142 0
-950 -949 -142 0
950 -949 142 0
950 949 -142 0
-951 950 241 0
-951 -950 -241 0
951 -950 241 0
951 950 -241 0
-952 951 282 0
-952 -951 -282 0
952 -951 282 0
952 951 -282 0
-953 952 287 0
-953 -952 -287 0
953 -952 287 0
953 952 -287 0
-953 0
-954 110 122 0
-954 -110 -122 0
954 -110 122 0
954 110 -122 0
-955 954 143 0
-955 -954 -143 0
955 -954 143 0
955 954 -143 0
-956 955 242 0
-956 -955 -242 0
956 -955 242 0
956 955 -242 0
-957 956 283 0
-957 -956 -283 0
957 -956 283 0
957 956 -283 0
-958 957 288 0
-958 -957 -288 0
958 -957 288 0
958 957 -288 0
-958 0
-959 111 123 0
-959 -111 -123 0
959 -111 123 0
959 111 -123 0
-960 959 144 0
-960 -959 -144 0
960 -959 144 0
960 959 -144 0
-961 960 243 0
-961 -960 -243 0
961 -960 243 0
961 960 -243 0
-962 961 277 0
-962 -961 -277 0
962 -961 277 0
962 961 -277 0
-963 962 284 0
-963 -962 -284 0
963 -962 284 0
963 962 -284 0
-963 0
-964 112 124 0
-964 -112 -124 0
964 -112 124 0
964 112 -124 0
-965 964 133 0
-965 -964 -133 0
965 -964 133 0
965 964 -133 0
-966 965 244 0
-966 -965 -244 0
966 -965 244 0
966 965 -244 0
-967 966 278 0
-967 -966 -278 0
967 -966 278 0
967 966 -278 0
-968 967 285 0
-968 -967 -285 0
968 -967 285 0
968 967 -285 0
-968 0
-969 113 125 0
-969 -113 -125 0
969 -113 125 0
969 113 -125 0
-970 969 134 0
-970 -969 -134 0
970 -969 134 0
970 969 -134 0
-971 970 245 0
-971 -970 -245 0
971 -970 245 0
971 970 -245 0
-972 971 279 0
-972 -971 -279 0
972 -971 279 0
972 971 -279 0
-973 972 286 0
-973 -972 -286 0
973 -972 286 0
973 972 -286 0
-973 0
-974 114 126 0
-974 -114 -126 0
974 -114 126 0
974 114 -126 0
-975 974 135 0
-975 -974 -135 0
975 -974 135 0
975 974 -135 0
-976 975 246 0
-976 -975 -246 0
976 -975 246 0
976 975 -246 0
-977 976 280 0
-977 -976 -280 0
977 -976 280 0
977 976 -280 0
-978 977 287 0
-978 -977 -287 0
978 -977 287 0
978 977 -287 0
-978 0
-979 115 127 0
-979 -115 -127 0
979 -115 127 0
979 115 -127 0
-980 979 136 0
-980 -979 -136 0
980 -979 136 0
980 979 -136 0
-981 980 247 0
-981 -980 -247 0
981 -980 247 0
981 980 -247 0
-982 981 281 0
-982 -981 -281 0
982 -981 281 0
982 981 -281 0
-983 982 288 0
-983 -982 -288 0
983 -982 288 0
983 982 -288 0
-983 0
-984 116 128 0
-984 -116 -128 0
984 -116 128 0
984 116 -128 0
-985 984 137 0
-985 -984 -137 0
985 -984 137 0
985 984 -137 0
-986 985 248 0
-986 -985 -248 0
986 -985 248 0
986 985 -248 0
-987 986 277 0
-987 -986 -277 0
987 -986 277 0
987 986 -277 0
-988 987 282 0
-988 -987 -282 0
988 -987 282 0
988 987 -282 0
-988 0
-989 117 129 0
-989 -117 -129 0
989 -117 129 0
989 117 -129 0
-990 989 138 0
-990 -989 -138 0
990 -989 138 0
990 989 -138 0
-991 990 249 0
-991 -990 -249 0
991 -990 249 0
991 990 -249 0
-992 991 278 0
-992 -991 -278 0
992 -991 278 0
992 991 -278 0
-993 992 283 0
-993 -992 -283 0
993 -992 283 0
993 992 -283 0
-993 0
-994 118 130 0
-994 -118 -130 0
994 -118 130 0
994 118 -130 0
-995 994 139 0
-995 -994 -139 0
995 -994 139 0
995 994 -139 0
-996 995 250 0
-996 -995 -250 0
996 -995 250 0
996 995 -250 0
-997 996 279 0
-997 -996 -279 0
997 -996 279 0
997 996 -279 0
-998 997 284 0
-998 -997 -284 0
998 -997 284 0
998 997 -284 0
-998 0
-999 119 131 0
-999 -119 -131 0
999 -119 131 0
999 119 -131 0
-1000 999 140 0
-1000 -999 -140 0
1000 -999 140 0
1000 999 -140 0
-1001 1000 251 0
-1001 -1000 -251 0
1001 -1000 251 0
1001 1000 -251 0
-1002 1001 280 0
-1002 -1001 -280 0
1002 -1001 280 0
1002 1001 -280 0
-1003 1002 285 0
-1003 -1002 -285 0
1003 -1002 285 0
1003 1002 -285 0
-1003 0
-1004 120 132 0
-1004 -120 -132 0
1004 -120 132 0
1004 120 -132 0
-1005 1004 141 0
-1005 -1004 -141 0
1005 -1004 141 0
1005 1004 -141 0
-1006 1005 252 0
-1006 -1005 -252 0
1006 -1005 252 0
1006 1005 -252 0
-1007 1006 281 0
-1007 -1006 -281 0
1007 -1006 281 0
1007 1006 -281 0
-1008 1007 286 0
-1008 -1007 -286 0
1008 -1007 286 0
1008 1007 -286 0
-1008 0
-1009 3 6 0
-1009 -3 -6 0
1009 -3 6 0
1009 3 -6 0
-1010 1009 10 0
-1010 -1009 -10 0
1010 -1009 10 0
1010 1009 -10 0
-1011 1010 11 0
-1011 -1010 -11 0
1011 -1010 11 0
1011 1010 -11 0
-1012 1011 37 0
-1012 -1011 -37 0
1012 -1011 37 0
1012 1011 -37 0
-1013 1012 39 0
-1013 -1012 -39 0
1013 -1012 39 0
1013 1012 -39 0
-1014 1013 45 0
-1014 -1013 -45 0
1014 -1013 45 0
1014 1013 -45 0
-1015 1014 47 0
-1015 -1014 -47 0
1015 -1014 47 0
1015 1014 -47 0
-1016 1015 73 0
-1016 -1015 -73 0
1016 -1015 73 0
1016 1015 -73 0
-1017 1016 74 0
-1017 -1016 -74 0
1017 -1016 74 0
1017 1016 -74 0
-1018 1017 76 0
-1018 -1017 -76 0
1018 -1017 76 0
1018 1017 -76 0
-1019 1018 78 0
-1019 -1018 -78 0
1019 -1018 78 0
1019 1018 -78 0
-1020 1019 79 0
-1020 -1019 -79 0
1020 -1019 79 0
1020 1019 -79 0
-1021 1020 80 0
-1021 -1020 -80 0
1021 -1020 80 0
1021 1020 -80 0
-1022 1021 81 0
-1022 -1021 -81 0
1022 -1021 81 0
1022 1021 -81 0
-1023 1022 83 0
-1023 -1022 -83 0
1023 -1022 83 0
1023 1022 -83 0
-1024 1023 109 0
-1024 -1023 -109 0
1024 -1023 109 0
1024 1023 -109 0
-1025 1024 113 0
-1025 -1024 -113 0
1025 -1024 113 0
1025 1024 -113 0
-1026 4 7 0
-1026 -4 -7 0
1026 -4 7 0
1026 4 -7 0
-1027 1026 11 0
-1027 -1026 -11 0
1027 -1026 11 0
1027 1026 -11 0
-1028 1027 12 0
-1028 -1027 -12 0
1028 -1027 12 0
1028 1027 -12 0
-1029 1028 38 0
-1029 -1028 -38 0
1029 -1028 38 0
1029 1028 -38 0
-1030 1029 40 0
-1030 -1029 -40 0
1030 -1029 40 0
1030 1029 -40 0
-1031 1030 46 0
-1031 -1030 -46 0
1031 -1030 46 0
1031 1030 -46 0
-1032 1031 48 0
-1032 -1031 -48 0
1032 -1031 48 0
1032 1031 -48 0
-1033 1032 74 0
-1033 -1032 -74 0
1033 -1032 74 0
1033 1032 -74 0
-1034 1033 75 0
-1034 -1033 -75 0
1034 -1033 75 0
1034 1033 -75 0
-1035 1034 77 0
-1035 -1034 -77 0
1035 -1034 77 0
1035 1034 -77 0
-1036 1035 79 0
-1036 -1035 -79 0
1036 -1035 79 0
1036 1035 -79 0
-1037 1036 80 0
-1037 -1036 -80 0
1037 -1036 80 0
1037 1036 -80 0
-1038 1037 81 0
-1038 -1037 -81 0
1038 -1037 81 0
1038 1037 -81 0
-1039 1038 82 0
-1039 -1038 -82 0
1039 -1038 82 0
1039 1038 -82 0
-1040 1039 84 0
-1040 -1039 -84 0
1040 -1039 84 0
1040 1039 -84 0
-1041 1040 110 0
-1041 -1040 -110 0
1041 -1040 110 0
1041 1040 -110 0
-1042 1041 114 0
-1042 -1041 -114 0
1042 -1041 114 0
1042 1041 -114 0
-1043 1 5 0
-1043 -1 -5 0
1043 -1 5 0
1043 1 -5 0
-1044 1043 8 0
-1044 -1043 -8 0
1044 -1043 8 0
1044 1043 -8 0
-1045 1044 12 0
-1045 -1044 -12 0
1045 -1044 12 0
1045 1044 -12 0
-1046 1045 37 0
-1046 -1045 -37 0
1046 -1045 37 0
1046 1045 -37 0
-1047 1046 39 0
-1047 -1046 -39 0
1047 -1046 39 0
1047 1046 -39 0
-1048 1047 41 0
-1048 -1047 -41 0
1048 -1047 41 0
1048 1047 -41 0
-1049 1048 47 0
-1049 -1048 -47 0
1049 -1048 47 0
1049 1048 -47 0
-1050 1049 73 0
-1050 -1049 -73 0
1050 -1049 73 0
1050 1049 -73 0
-1051 1050 75 0
-1051 -1050 -75 0
1051 -1050 75 0
1051 1050 -75 0
-1052 1051 76 0
-1052 -1051 -76 0
1052 -1051 76 0
1052 1051 -76 0
-1053 1052 78 0
-1053 -1052 -78 0
1053 -1052 78 0
1053 1052 -78 0
-1054 1053 80 0
-1054 -1053 -80 0
1054 -1053 80 0
1054 1053 -80 0
-1055 1054 81 0
-1055 -1054 -81 0
1055 -1054 81 0
1055 1054 -81 0
-1056 1055 82 0
-1056 -1055 -82 0
1056 -1055 82 0
1056 1055 -82 0
-1057 1056 83 0
-1057 -1056 -83 0
1057 -1056 83 0
1057 1056 -83 0
-1058 1057 111 0
-1058 -1057 -111 0
1058 -1057 111 0
1058 1057 -111 0
-1059 1058 115 0
-1059 -1058 -115 0
1059 -1058 115 0
1059 1058 -115 0
-1060 1 2 0
-1060 -1 -2 0
1060 -1 2 0
1060 1 -2 0
-1061 1060 6 0
-1061 -1060 -6 0
1061 -1060 6 0
1061 1060 -6 0
-1062 1061 9 0
-1062 -1061 -9 0
1062 -1061 9 0
1062 1061 -9 0
-1063 1062 38 0
-1063 -1062 -38 0
1063 -1062 38 0
1063 1062 -38 0
-1064 1063 40 0
-1064 -1063 -40 0
1064 -1063 40 0
1064 1063 -40 0
-1065 1064 42 0
-1065 -1064 -42 0
1065 -1064 42 0
1065 1064 -42 0
-1066 1065 48 0
-1066 -1065 -48 0
1066 -1065 48 0
1066 1065 -48 0
-1067 1066 74 0
-1067 -1066 -74 0
1067 -1066 74 0
1067 1066 -74 0
-1068 1067 76 0
-1068 -1067 -76 0
1068 -1067 76 0
1068 1067 -76 0
-1069 1068 77 0
-1069 -1068 -77 0
1069 -1068 77 0
1069 1068 -77 0
-1070 1069 79 0
-1070 -1069 -79 0
1070 -1069 79 0
1070 1069 -79 0
-1071 1070 81 0
-1071 -1070 -81 0
1071 -1070 81 0
1071 1070 -81 0
-1072 1071 82 0
-1072 -1071 -82 0
1072 -1071 82 0
1072 1071 -82 0
-1073 1072 83 0
-1073 -1072 -83 0
1073 -1072 83 0
1073 1072 -83 0
-1074 1073 84 0
-1074 -1073 -84 0
1074 -1073 84 0
1074 1073 -84 0
-1075 1074 112 0
-1075 -1074 -112 0
1075 -1074 112 0
1075 1074 -112 0
-1076 1075 116 0
-1076 -1075 -116 0
1076 -1075 116 0
1076 1075 -116 0
-1077 15 18 0
-1077 -15 -18 0
1077 -15 18 0
1077 15 -18 0
-1078 1077 22 0
-1078 -1077 -22 0
1078 -1077 22 0
1078 1077 -22 0
-1079 1078 23 0
-1079 -1078 -23 0
1079 -1078 23 0
1079 1078 -23 0
-1080 1079 49 0
-1080 -1079 -49 0
1080 -1079 49 0
1080 1079 -49 0
-1081 1080 51 0
-1081 -1080 -51 0
1081 -1080 51 0
1081 1080 -51 0
-1082 1081 57 0
-1082 -1081 -57 0
1082 -1081 57 0
1082 1081 -57 0
-1083 1082 59 0
-1083 -1082 -59 0
1083 -1082 59 0
1083 1082 -59 0
-1084 1083 85 0
-1084 -1083 -85 0
1084 -1083 85 0
1084 1083 -85 0
-1085 1084 86 0
-1085 -1084 -86 0
1085 -1084 86 0
1085 1084 -86 0
-1086 1085 88 0
-1086 -1085 -88 0
1086 -1085 88 0
1086 1085 -88 0
-1087 1086 90 0
-1087 -1086 -90 0
1087 -1086 90 0
1087 1086 -90 0
-1088 1087 91 0
-1088 -1087 -91 0
1088 -1087 91 0
1088 1087 -91 0
-1089 1088 92 0
-1089 -1088 -92 0
1089 -1088 92 0
1089 1088 -92 0
-1090 1089 93 0
-1090 -1089 -93 0
1090 -1089 93 0
1090 1089 -93 0
-1091 1090 95 0
-1091 -1090 -95 0
1091 -1090 95 0
1091 1090 -95 0
-1092 1091 121 0
-1092 -1091 -121 0
1092 -1091 121 0
1092 1091 -121 0
-1093 1092 125 0
-1093 -1092 -125 0
1093 -1092 125 0
1093 1092 -125 0
-1094 16 19 0
-1094 -16 -19 0
1094 -16 19 0
1094 16 -19 0
-1095 1094 23 0
-1095 -1094 -23 0
1095 -1094 23 0
1095 1094 -23 0
-1096 1095 24 0
-1096 -1095 -24 0
1096 -1095 24 0
1096 1095 -24 0
-1097 1096 50 0
-1097 -1096 -50 0
1097 -1096 50 0
1097 1096 -50 0
-1098 1097 52 0
-1098 -1097 -52 0
1098 -1097 52 0
1098 1097 -52 0
-1099 1098 58 0
-1099 -1098 -58 0
1099 -1098 58 0
1099 1098 -58 0
-1100 1099 60 0
-1100 -1099 -60 0
1100 -1099 60 0
1100 1099 -60 0
-1101 1100 86 0
-1101 -1100 -86 0
1101 -1100 86 0
1101 1100 -86 0
-1102 1101 87 0
-1102 -1101 -87 0
1102 -1101 87 0
1102 1101 -87 0
-1103 1102 89 0
-1103 -1102 -89 0
1103 -1102 89 0
1103 1102 -89 0
-1104 1103 91 0
-1104 -1103 -91 0
1104 -1103 91 0
1104 1103 -91 0
-1105 1104 92 0
-1105 -1104 -92 0
1105 -1104 92 0
1105 1104 -92 0
-1106 1105 93 0
-1106 -1105 -93 0
1106 -1105 93 0
1106 1105 -93 0
-1107 1106 94 0
-1107 -1106 -94 0
1107 -1106 94 0
1107 1106 -94 0
-1108 1107 96 0
-1108 -1107 -96 0
1108 -1107 96 0
1108 1107 -96 0
-1109 1108 122 0
-1109 -1108 -122 0
1109 -1108 122 0
1109 1108 -122 0
-1110 1109 126 0
-1110 -1109 -126 0
1110 -1109 126 0
1110 1109 -126 0
-1111 1 2 0
-1111 -1 -2 0
1111 -1 2 0
1111 1 -2 0
-1112 1111 6 0
-1112 -1111 -6 0
1112 -1111 6 0
1112 1111 -6 0
-1113 1112 7 0
-1113 -1112 -7 0
1113 -1112 7 0
1113 1112 -7 0
-1114 1113 8 0
-1114 -1113 -8 0
1114 -1113 8 0
1114 1113 -8 0
-1115 1114 9 0
-1115 -1114 -9 0
1115 -1114 9 0
1115 1114 -9 0
-1116 1115 11 0
-1116 -1115 -11 0
1116 -1115 11 0
1116 1115 -11 0
-1117 1116 12 0
-1117 -1116 -12 0
1117 -1116 12 0
1117 1116 -12 0
-1118 1117 13 0
-1118 -1117 -13 0
1118 -1117 13 0
1118 1117 -13 0
-1119 1118 16 0
-1119 -1118 -16 0
1119 -1118 16 0
1119 1118 -16 0
-1120 1119 18 0
-1120 -1119 -18 0
1120 -1119 18 0
1120 1119 -18 0
-1121 1120 21 0
-1121 -1120 -21 0
1121 -1120 21 0
1121 1120 -21 0
-1122 1121 24 0
-1122 -1121 -24 0
1122 -1121 24 0
1122 1121 -24 0
-1123 1122 37 0
-1123 -1122 -37 0
1123 -1122 37 0
1123 1122 -37 0
-1124 1123 39 0
-1124 -1123 -39 0
1124 -1123 39 0
1124 1123 -39 0
-1125 1124 42 0
-1125 -1124 -42 0
1125 -1124 42 0
1125 1124 -42 0
-1126 1125 43 0
-1126 -1125 -43 0
1126 -1125 43 0
1126 1125 -43 0
-1127 1126 45 0
-1127 -1126 -45 0
1127 -1126 45 0
1127 1126 -45 0
-1128 1127 47 0
-1128 -1127 -47 0
1128 -1127 47 0
1128 1127 -47 0
-1129 1128 49 0
-1129 -1128 -49 0
1129 -1128 49 0
1129 1128 -49 0
-1130 1129 51 0
-1130 -1129 -51 0
1130 -1129 51 0
1130 1129 -51 0
-1131 1130 53 0
-1131 -1130 -53 0
1131 -1130 53 0
1131 1130 -53 0
-1132 1131 54 0
-1132 -1131 -54 0
1132 -1131 54 0
1132 1131 -54 0
-1133 1132 55 0
-1133 -1132 -55 0
1133 -1132 55 0
1133 1132 -55 0
-1134 1133 57 0
-1134 -1133 -57 0
1134 -1133 57 0
1134 1133 -57 0
-1135 1134 59 0
-1135 -1134 -59 0
1135 -1134 59 0
1135 1134 -59 0
-1136 1135 73 0
-1136 -1135 -73 0
1136 -1135 73 0
1136 1135 -73 0
-1137 1136 74 0
-1137 -1136 -74 0
1137 -1136 74 0
1137 1136 -74 0
-1138 1137 77 0
-1138 -1137 -77 0
1138 -1137 77 0
1138 1137 -77 0
-1139 1138 78 0
-1139 -1138 -78 0
1139 -1138 78 0
1139 1138 -78 0
-1140 1139 79 0
-1140 -1139 -79 0
1140 -1139 79 0
1140 1139 -79 0
-1141 1140 80 0
-1141 -1140 -80 0
1141 -1140 80 0
1141 1140 -80 0
-1142 1141 81 0
-1142 -1141 -81 0
1142 -1141 81 0
1142 1141 -81 0
-1143 1142 84 0
-1143 -1142 -84 0
1143 -1142 84 0
1143 1142 -84 0
-1144 1143 85 0
-1144 -1143 -85 0
1144 -1143 85 0
1144 1143 -85 0
-1145 1144 86 0
-1145 -1144 -86 0
1145 -1144 86 0
1145 1144 -86 0
-1146 1145 87 0
-1146 -1145 -87 0
1146 -1145 87 0
1146 1145 -87 0
-1147 1146 89 0
-1147 -1146 -89 0
1147 -1146 89 0
1147 1146 -89 0
-1148 1147 90 0
-1148 -1147 -90 0
1148 -1147 90 0
1148 1147 -90 0
-1149 1148 91 0
-1149 -1148 -91 0
1149 -1148 91 0
1149 1148 -91 0
-1150 1149 92 0
-1150 -1149 -92 0
1150 -1149 92 0
1150 1149 -92 0
-1151 1150 93 0
-1151 -1150 -93 0
1151 -1150 93 0
1151 1150 -93 0
-1152 1151 94 0
-1152 -1151 -94 0
1152 -1151 94 0
1152 1151 -94 0
-1153 1152 96 0
-1153 -1152 -96 0
1153 -1152 96 0
1153 1152 -96 0
-1154 1153 109 0
-1154 -1153 -109 0
1154 -1153 109 0
1154 1153 -109 0
-1155 1154 110 0
-1155 -1154 -110 0
1155 -1154 110 0
1155 1154 -110 0
-1156 1155 111 0
-1156 -1155 -111 0
1156 -1155 111 0
1156 1155 -111 0
-1157 1156 112 0
-1157 -1156 -112 0
1157 -1156 112 0
1157 1156 -112 0
-1158 1157 122 0
-1158 -1157 -122 0
1158 -1157 122 0
1158 1157 -122 0
-1159 1158 124 0
-1159 -1158 -124 0
1159 -1158 124 0
1159 1158 -124 0
-1160 1159 145 0
-1160 -1159 -145 0
1160 -1159 145 0
1160 1159 -145 0
-1161 1160 146 0
-1161 -1160 -146 0
1161 -1160 146 0
1161 1160 -146 0
-1162 1161 148 0
-1162 -1161 -148 0
1162 -1161 148 0
1162 1161 -148 0
-1163 1162 150 0
-1163 -1162 -150 0
1163 -1162 150 0
1163 1162 -150 0
-1164 1163 151 0
-1164 -1163 -151 0
1164 -1163 151 0
1164 1163 -151 0
-1165 1164 157 0
-1165 -1164 -157 0
1165 -1164 157 0
1165 1164 -157 0
-1166 1165 158 0
-1166 -1165 -158 0
1166 -1165 158 0
1166 1165 -158 0
-1167 1166 160 0
-1167 -1166 -160 0
1167 -1166 160 0
1167 1166 -160 0
-1168 1167 162 0
-1168 -1167 -162 0
1168 -1167 162 0
1168 1167 -162 0
-1169 1168 163 0
-1169 -1168 -163 0
1169 -1168 163 0
1169 1168 -163 0
-1170 14 15 0
-1170 -14 -15 0
1170 -14 15 0
1170 14 -15 0
-1171 1170 16 0
-1171 -1170 -16 0
1171 -1170 16 0
1171 1170 -16 0
-1172 1171 17 0
-1172 -1171 -17 0
1172 -1171 17 0
1172 1171 -17 0
-1173 1172 19 0
-1173 -1172 -19 0
1173 -1172 19 0
1173 1172 -19 0
-1174 1173 21 0
-1174 -1173 -21 0
1174 -1173 21 0
1174 1173 -21 0
-1175 1174 23 0
-1175 -1174 -23 0
1175 -1174 23 0
1175 1174 -23 0
-1176 1175 24 0
-1176 -1175 -24 0
1176 -1175 24 0
1176 1175 -24 0
-1177 1176 38 0
-1177 -1176 -38 0
1177 -1176 38 0
1177 1176 -38 0
-1178 1177 40 0
-1178 -1177 -40 0
1178 -1177 40 0
1178 1177 -40 0
-1179 1178 42 0
-1179 -1178 -42 0
1179 -1178 42 0
1179 1178 -42 0
-1180 1179 44 0
-1180 -1179 -44 0
1180 -1179 44 0
1180 1179 -44 0
-1181 1180 46 0
-1181 -1180 -46 0
1181 -1180 46 0
1181 1180 -46 0
-1182 1181 48 0
-1182 -1181 -48 0
1182 -1181 48 0
1182 1181 -48 0
-1183 1182 50 0
-1183 -1182 -50 0
1183 -1182 50 0
1183 1182 -50 0
-1184 1183 52 0
-1184 -1183 -52 0
1184 -1183 52 0
1184 1183 -52 0
-1185 1184 53 0
-1185 -1184 -53 0
1185 -1184 53 0
1185 1184 -53 0
-1186 1185 56 0
-1186 -1185 -56 0
1186 -1185 56 0
1186 1185 -56 0
-1187 1186 58 0
-1187 -1186 -58 0
1187 -1186 58 0
1187 1186 -58 0
-1188 1187 60 0
-1188 -1187 -60 0
1188 -1187 60 0
1188 1187 -60 0
-1189 1188 73 0
-1189 -1188 -73 0
1189 -1188 73 0
1189 1188 -73 0
-1190 1189 74 0
-1190 -1189 -74 0
1190 -1189 74 0
1190 1189 -74 0
-1191 1190 75 0
-1191 -1190 -75 0
1191 -1190 75 0
1191 1190 -75 0
-1192 1191 76 0
-1192 -1191 -76 0
1192 -1191 76 0
1192 1191 -76 0
-1193 1192 77 0
-1193 -1192 -77 0
1193 -1192 77 0
1193 1192 -77 0
-1194 1193 78 0
-1194 -1193 -78 0
1194 -1193 78 0
1194 1193 -78 0
-1195 1194 79 0
-1195 -1194 -79 0
1195 -1194 79 0
1195 1194 -79 0
-1196 1195 80 0
-1196 -1195 -80 0
1196 -1195 80 0
1196 1195 -80 0
-1197 1196 81 0
-1197 -1196 -81 0
1197 -1196 81 0
1197 1196 -81 0
-1198 1197 82 0
-1198 -1197 -82 0
1198 -1197 82 0
1198 1197 -82 0
-1199 1198 83 0
-1199 -1198 -83 0
1199 -1198 83 0
1199 1198 -83 0
-1200 1199 84 0
-1200 -1199 -84 0
1200 -1199 84 0
1200 1199 -84 0
-1201 1200 85 0
-1201 -1200 -85 0
1201 -1200 85 0
1201 1200 -85 0
-1202 1201 86 0
-1202 -1201 -86 0
1202 -1201 86 0
1202 1201 -86 0
-1203 1202 89 0
-1203 -1202 -89 0
1203 -1202 89 0
1203 1202 -89 0
-1204 1203 90 0
-1204 -1203 -90 0
1204 -1203 90 0
1204 1203 -90 0
-1205 1204 91 0
-1205 -1204 -91 0
1205 -1204 91 0
1205 1204 -91 0
-1206 1205 92 0
-1206 -1205 -92 0
1206 -1205 92 0
1206 1205 -92 0
-1207 1206 93 0
-1207 -1206 -93 0
1207 -1206 93 0
1207 1206 -93 0
-1208 1207 96 0
-1208 -1207 -96 0
1208 -1207 96 0
1208 1207 -96 0
-1209 1208 121 0
-1209 -1208 -121 0
1209 -1208 121 0
1209 1208 -121 0
-1210 1209 122 0
-1210 -1209 -122 0
1210 -1209 122 0
1210 1209 -122 0
-1211 1210 123 0
-1211 -1210 -123 0
1211 -1210 123 0
1211 1210 -123 0
-1212 1211 124 0
-1212 -1211 -124 0
1212 -1211 124 0
1212 1211 -124 0
-1213 1212 145 0
-1213 -1212 -145 0
1213 -1212 145 0
1213 1212 -145 0
-1214 1213 147 0
-1214 -1213 -147 0
1214 -1213 147 0
1214 1213 -147 0
-1215 1214 148 0
-1215 -1214 -148 0
1215 -1214 148 0
1215 1214 -148 0
-1216 1215 149 0
-1216 -1215 -149 0
1216 -1215 149 0
1216 1215 -149 0
-1217 1216 150 0
-1217 -1216 -150 0
1217 -1216 150 0
1217 1216 -150 0
-1218 1217 152 0
-1218 -1217 -152 0
1218 -1217 152 0
1218 1217 -152 0
-1219 1218 157 0
-1219 -1218 -157 0
1219 -1218 157 0
1219 1218 -157 0
-1220 1219 159 0
-1220 -1219 -159 0
1220 -1219 159 0
1220 1219 -159 0
-1221 1220 160 0
-1221 -1220 -160 0
1221 -1220 160 0
1221 1220 -160 0
-1222 1221 161 0
-1222 -1221 -161 0
1222 -1221 161 0
1222 1221 -161 0
-1223 1222 162 0
-1223 -1222 -162 0
1223 -1222 162 0
1223 1222 -162 0
-1224 1223 164 0
-1224 -1223 -164 0
1224 -1223 164 0
1224 1223 -164 0
-1225 2 7 0
-1225 -2 -7 0
1225 -2 7 0
1225 2 -7 0
-1226 1225 9 0
-1226 -1225 -9 0
1226 -1225 9 0
1226 1225 -9 0
-1227 1226 12 0
-1227 -1226 -12 0
1227 -1226 12 0
1227 1226 -12 0
-1228 1227 13 0
-1228 -1227 -13 0
1228 -1227 13 0
1228 1227 -13 0
-1229 1228 14 0
-1229 -1228 -14 0
1229 -1228 14 0
1229 1228 -14 0
-1230 1229 21 0
-1230 -1229 -21 0
1230 -1229 21 0
1230 1229 -21 0
-1231 1230 24 0
-1231 -1230 -24 0
1231 -1230 24 0
1231 1230 -24 0
-1232 1231 27 0
-1232 -1231 -27 0
1232 -1231 27 0
1232 1231 -27 0
-1233 1232 28 0
-1233 -1232 -28 0
1233 -1232 28 0
1233 1232 -28 0
-1234 1233 29 0
-1234 -1233 -29 0
1234 -1233 29 0
1234 1233 -29 0
-1235 1234 30 0
-1235 -1234 -30 0
1235 -1234 30 0
1235 1234 -30 0
-1236 1235 33 0
-1236 -1235 -33 0
1236 -1235 33 0
1236 1235 -33 0
-1237 1236 36 0
-1237 -1236 -36 0
1237 -1236 36 0
1237 1236 -36 0
-1238 1237 42 0
-1238 -1237 -42 0
1238 -1237 42 0
1238 1237 -42 0
-1239 1238 54 0
-1239 -1238 -54 0
1239 -1238 54 0
1239 1238 -54 0
-1240 1239 61 0
-1240 -1239 -61 0
1240 -1239 61 0
1240 1239 -61 0
-1241 1240 62 0
-1241 -1240 -62 0
1241 -1240 62 0
1241 1240 -62 0
-1242 1241 63 0
-1242 -1241 -63 0
1242 -1241 63 0
1242 1241 -63 0
-1243 1242 64 0
-1243 -1242 -64 0
1243 -1242 64 0
1243 1242 -64 0
-1244 1243 65 0
-1244 -1243 -65 0
1244 -1243 65 0
1244 1243 -65 0
-1245 1244 67 0
-1245 -1244 -67 0
1245 -1244 67 0
1245 1244 -67 0
-1246 1245 68 0
-1246 -1245 -68 0
1246 -1245 68 0
1246 1245 -68 0
-1247 1246 69 0
-1247 -1246 -69 0
1247 -1246 69 0
1247 1246 -69 0
-1248 1247 70 0
-1248 -1247 -70 0
1248 -1247 70 0
1248 1247 -70 0
-1249 1248 71 0
-1249 -1248 -71 0
1249 -1248 71 0
1249 1248 -71 0
-1250 1249 72 0
-1250 -1249 -72 0
1250 -1249 72 0
1250 1249 -72 0
-1251 1250 76 0
-1251 -1250 -76 0
1251 -1250 76 0
1251 1250 -76 0
-1252 1251 83 0
-1252 -1251 -83 0
1252 -1251 83 0
1252 1251 -83 0
-1253 1252 88 0
-1253 -1252 -88 0
1253 -1252 88 0
1253 1252 -88 0
-1254 1253 95 0
-1254 -1253 -95 0
1254 -1253 95 0
1254 1253 -95 0
-1255 1254 100 0
-1255 -1254 -100 0
1255 -1254 100 0
1255 1254 -100 0
-1256 1255 107 0
-1256 -1255 -107 0
1256 -1255 107 0
1256 1255 -107 0
-1257 1256 110 0
-1257 -1256 -110 0
1257 -1256 110 0
1257 1256 -110 0
-1258 1257 112 0
-1258 -1257 -112 0
1258 -1257 112 0
1258 1257 -112 0
-1259 1258 122 0
-1259 -1258 -122 0
1259 -1258 122 0
1259 1258 -122 0
-1260 1259 124 0
-1260 -1259 -124 0
1260 -1259 124 0
1260 1259 -124 0
-1261 1260 134 0
-1261 -1260 -134 0
1261 -1260 134 0
1261 1260 -134 0
-1262 1261 136 0
-1262 -1261 -136 0
1262 -1261 136 0
1262 1261 -136 0
-1263 1262 145 0
-1263 -1262 -145 0
1263 -1262 145 0
1263 1262 -145 0
-1264 1263 151 0
-1264 -1263 -151 0
1264 -1263 151 0
1264 1263 -151 0
-1265 1264 157 0
-1265 -1264 -157 0
1265 -1264 157 0
1265 1264 -157 0
-1266 1265 158 0
-1266 -1265 -158 0
1266 -1265 158 0
1266 1265 -158 0
-1267 1266 159 0
-1267 -1266 -159 0
1267 -1266 159 0
1267 1266 -159 0
-1268 1267 160 0
-1268 -1267 -160 0
1268 -1267 160 0
1268 1267 -160 0
-1269 1268 161 0
-1269 -1268 -161 0
1269 -1268 161 0
1269 1268 -161 0
-1270 1269 162 0
-1270 -1269 -162 0
1270 -1269 162 0
1270 1269 -162 0
-1271 1270 169 0
-1271 -1270 -169 0
1271 -1270 169 0
1271 1270 -169 0
-1272 1271 171 0
-1272 -1271 -171 0
1272 -1271 171 0
1272 1271 -171 0
-1273 1272 173 0
-1273 -1272 -173 0
1273 -1272 173 0
1273 1272 -173 0
-1274 2 7 0
-1274 -2 -7 0
1274 -2 7 0
1274 2 -7 0
-1275 1274 9 0
-1275 -1274 -9 0
1275 -1274 9 0
1275 1274 -9 0
-1276 1275 12 0
-1276 -1275 -12 0
1276 -1275 12 0
1276 1275 -12 0
-1277 1276 14 0
-1277 -1276 -14 0
1277 -1276 14 0
1277 1276 -14 0
-1278 1277 16 0
-1278 -1277 -16 0
1278 -1277 16 0
1278 1277 -16 0
-1279 1278 21 0
-1279 -1278 -21 0
1279 -1278 21 0
1279 1278 -21 0
-1280 1279 23 0
-1280 -1279 -23 0
1280 -1279 23 0
1280 1279 -23 0
-1281 1280 24 0
-1281 -1280 -24 0
1281 -1280 24 0
1281 1280 -24 0
-1282 1281 25 0
-1282 -1281 -25 0
1282 -1281 25 0
1282 1281 -25 0
-1283 1282 27 0
-1283 -1282 -27 0
1283 -1282 27 0
1283 1282 -27 0
-1284 1283 28 0
-1284 -1283 -28 0
1284 -1283 28 0
1284 1283 -28 0
-1285 1284 29 0
-1285 -1284 -29 0
1285 -1284 29 0
1285 1284 -29 0
-1286 1285 31 0
-1286 -1285 -31 0
1286 -1285 31 0
1286 1285 -31 0
-1287 1286 35 0
-1287 -1286 -35 0
1287 -1286 35 0
1287 1286 -35 0
-1288 1287 42 0
-1288 -1287 -42 0
1288 -1287 42 0
1288 1287 -42 0
-1289 1288 53 0
-1289 -1288 -53 0
1289 -1288 53 0
1289 1288 -53 0
-1290 1289 54 0
-1290 -1289 -54 0
1290 -1289 54 0
1290 1289 -54 0
-1291 1290 62 0
-1291 -1290 -62 0
1291 -1290 62 0
1291 1290 -62 0
-1292 1291 64 0
-1292 -1291 -64 0
1292 -1291 64 0
1292 1291 -64 0
-1293 1292 65 0
-1293 -1292 -65 0
1293 -1292 65 0
1293 1292 -65 0
-1294 1293 66 0
-1294 -1293 -66 0
1294 -1293 66 0
1294 1293 -66 0
-1295 1294 68 0
-1295 -1294 -68 0
1295 -1294 68 0
1295 1294 -68 0
-1296 1295 70 0
-1296 -1295 -70 0
1296 -1295 70 0
1296 1295 -70 0
-1297 1296 72 0
-1297 -1296 -72 0
1297 -1296 72 0
1297 1296 -72 0
-1298 1297 76 0
-1298 -1297 -76 0
1298 -1297 76 0
1298 1297 -76 0
-1299 1298 83 0
-1299 -1298 -83 0
1299 -1298 83 0
1299 1298 -83 0
-1300 1299 87 0
-1300 -1299 -87 0
1300 -1299 87 0
1300 1299 -87 0
-1301 1300 88 0
-1301 -1300 -88 0
1301 -1300 88 0
1301 1300 -88 0
-1302 1301 94 0
-1302 -1301 -94 0
1302 -1301 94 0
1302 1301 -94 0
-1303 1302 95 0
-1303 -1302 -95 0
1303 -1302 95 0
1303 1302 -95 0
-1304 1303 97 0
-1304 -1303 -97 0
1304 -1303 97 0
1304 1303 -97 0
-1305 1304 98 0
-1305 -1304 -98 0
1305 -1304 98 0
1305 1304 -98 0
-1306 1305 100 0
-1306 -1305 -100 0
1306 -1305 100 0
1306 1305 -100 0
-1307 1306 101 0
-1307 -1306 -101 0
1307 -1306 101 0
1307 1306 -101 0
-1308 1307 102 0
-1308 -1307 -102 0
1308 -1307 102 0
1308 1307 -102 0
-1309 1308 103 0
-1309 -1308 -103 0
1309 -1308 103 0
1309 1308 -103 0
-1310 1309 104 0
-1310 -1309 -104 0
1310 -1309 104 0
1310 1309 -104 0
-1311 1310 105 0
-1311 -1310 -105 0
1311 -1310 105 0
1311 1310 -105 0
-1312 1311 107 0
-1312 -1311 -107 0
1312 -1311 107 0
1312 1311 -107 0
-1313 1312 108 0
-1313 -1312 -108 0
1313 -1312 108 0
1313 1312 -108 0
-1314 1313 110 0
-1314 -1313 -110 0
1314 -1313 110 0
1314 1313 -110 0
-1315 1314 112 0
-1315 -1314 -112 0
1315 -1314 112 0
1315 1314 -112 0
-1316 1315 121 0
-1316 -1315 -121 0
1316 -1315 121 0
1316 1315 -121 0
-1317 1316 122 0
-1317 -1316 -122 0
1317 -1316 122 0
1317 1316 -122 0
-1318 1317 123 0
-1318 -1317 -123 0
1318 -1317 123 0
1318 1317 -123 0
-1319 1318 124 0
-1319 -1318 -124 0
1319 -1318 124 0
1319 1318 -124 0
-1320 1319 133 0
-1320 -1319 -133 0
1320 -1319 133 0
1320 1319 -133 0
-1321 1320 135 0
-1321 -1320 -135 0
1321 -1320 135 0
1321 1320 -135 0
-1322 1321 145 0
-1322 -1321 -145 0
1322 -1321 145 0
1322 1321 -145 0
-1323 1322 148 0
-1323 -1322 -148 0
1323 -1322 148 0
1323 1322 -148 0
-1324 1323 150 0
-1324 -1323 -150 0
1324 -1323 150 0
1324 1323 -150 0
-1325 1324 151 0
-1325 -1324 -151 0
1325 -1324 151 0
1325 1324 -151 0
-1326 1325 152 0
-1326 -1325 -152 0
1326 -1325 152 0
1326 1325 -152 0
-1327 1326 157 0
-1327 -1326 -157 0
1327 -1326 157 0
1327 1326 -157 0
-1328 1327 159 0
-1328 -1327 -159 0
1328 -1327 159 0
1328 1327 -159 0
-1329 1328 161 0
-1329 -1328 -161 0
1329 -1328 161 0
1329 1328 -161 0
-1330 1329 170 0
-1330 -1329 -170 0
1330 -1329 170 0
1330 1329 -170 0
-1331 1330 172 0
-1331 -1330 -172 0
1331 -1330 172 0
1331 1330 -172 0
-1332 1331 174 0
-1332 -1331 -174 0
1332 -1331 174 0
1332 1331 -174 0
-1333 1 6 0
-1333 -1 -6 0
1333 -1 6 0
1333 1 -6 0
-1334 1333 8 0
-1334 -1333 -8 0
1334 -1333 8 0
1334 1333 -8 0
-1335 1334 11 0
-1335 -1334 -11 0
1335 -1334 11 0
1335 1334 -11 0
-1336 1335 19 0
-1336 -1335 -19 0
1336 -1335 19 0
1336 1335 -19 0
-1337 1336 20 0
-1337 -1336 -20 0
1337 -1336 20 0
1337 1336 -20 0
-1338 1337 21 0
-1338 -1337 -21 0
1338 -1337 21 0
1338 1337 -21 0
-1339 1338 24 0
-1339 -1338 -24 0
1339 -1338 24 0
1339 1338 -24 0
-1340 1339 27 0
-1340 -1339 -27 0
1340 -1339 27 0
1340 1339 -27 0
-1341 1340 29 0
-1341 -1340 -29 0
1341 -1340 29 0
1341 1340 -29 0
-1342 1341 30 0
-1342 -1341 -30 0
1342 -1341 30 0
1342 1341 -30 0
-1343 1342 31 0
-1343 -1342 -31 0
1343 -1342 31 0
1343 1342 -31 0
-1344 1343 33 0
-1344 -1343 -33 0
1344 -1343 33 0
1344 1343 -33 0
-1345 1344 35 0
-1345 -1344 -35 0
1345 -1344 35 0
1345 1344 -35 0
-1346 1345 36 0
-1346 -1345 -36 0
1346 -1345 36 0
1346 1345 -36 0
-1347 1346 37 0
-1347 -1346 -37 0
1347 -1346 37 0
1347 1346 -37 0
-1348 1347 39 0
-1348 -1347 -39 0
1348 -1347 39 0
1348 1347 -39 0
-1349 1348 43 0
-1349 -1348 -43 0
1349 -1348 43 0
1349 1348 -43 0
-1350 1349 45 0
-1350 -1349 -45 0
1350 -1349 45 0
1350 1349 -45 0
-1351 1350 47 0
-1351 -1350 -47 0
1351 -1350 47 0
1351 1350 -47 0
-1352 1351 54 0
-1352 -1351 -54 0
1352 -1351 54 0
1352 1351 -54 0
-1353 1352 61 0
-1353 -1352 -61 0
1353 -1352 61 0
1353 1352 -61 0
-1354 1353 62 0
-1354 -1353 -62 0
1354 -1353 62 0
1354 1353 -62 0
-1355 1354 63 0
-1355 -1354 -63 0
1355 -1354 63 0
1355 1354 -63 0
-1356 1355 64 0
-1356 -1355 -64 0
1356 -1355 64 0
1356 1355 -64 0
-1357 1356 67 0
-1357 -1356 -67 0
1357 -1356 67 0
1357 1356 -67 0
-1358 1357 68 0
-1358 -1357 -68 0
1358 -1357 68 0
1358 1357 -68 0
-1359 1358 69 0
-1359 -1358 -69 0
1359 -1358 69 0
1359 1358 -69 0
-1360 1359 70 0
-1360 -1359 -70 0
1360 -1359 70 0
1360 1359 -70 0
-1361 1360 71 0
-1361 -1360 -71 0
1361 -1360 71 0
1361 1360 -71 0
-1362 1361 72 0
-1362 -1361 -72 0
1362 -1361 72 0
1362 1361 -72 0
-1363 1362 73 0
-1363 -1362 -73 0
1363 -1362 73 0
1363 1362 -73 0
-1364 1363 74 0
-1364 -1363 -74 0
1364 -1363 74 0
1364 1363 -74 0
-1365 1364 76 0
-1365 -1364 -76 0
1365 -1364 76 0
1365 1364 -76 0
-1366 1365 77 0
-1366 -1365 -77 0
1366 -1365 77 0
1366 1365 -77 0
-1367 1366 78 0
-1367 -1366 -78 0
1367 -1366 78 0
1367 1366 -78 0
-1368 1367 79 0
-1368 -1367 -79 0
1368 -1367 79 0
1368 1367 -79 0
-1369 1368 80 0
-1369 -1368 -80 0
1369 -1368 80 0
1369 1368 -80 0
-1370 1369 81 0
-1370 -1369 -81 0
1370 -1369 81 0
1370 1369 -81 0
-1371 1370 83 0
-1371 -1370 -83 0
1371 -1370 83 0
1371 1370 -83 0
-1372 1371 84 0
-1372 -1371 -84 0
1372 -1371 84 0
1372 1371 -84 0
-1373 1372 88 0
-1373 -1372 -88 0
1373 -1372 88 0
1373 1372 -88 0
-1374 1373 95 0
-1374 -1373 -95 0
1374 -1373 95 0
1374 1373 -95 0
-1375 1374 99 0
-1375 -1374 -99 0
1375 -1374 99 0
1375 1374 -99 0
-1376 1375 100 0
-1376 -1375 -100 0
1376 -1375 100 0
1376 1375 -100 0
-1377 1376 106 0
-1377 -1376 -106 0
1377 -1376 106 0
1377 1376 -106 0
-1378 1377 107 0
-1378 -1377 -107 0
1378 -1377 107 0
1378 1377 -107 0
-1379 1378 109 0
-1379 -1378 -109 0
1379 -1378 109 0
1379 1378 -109 0
-1380 1379 111 0
-1380 -1379 -111 0
1380 -1379 111 0
1380 1379 -111 0
-1381 1380 122 0
-1381 -1380 -122 0
1381 -1380 122 0
1381 1380 -122 0
-1382 1381 124 0
-1382 -1381 -124 0
1382 -1381 124 0
1382 1381 -124 0
-1383 1382 133 0
-1383 -1382 -133 0
1383 -1382 133 0
1383 1382 -133 0
-1384 1383 134 0
-1384 -1383 -134 0
1384 -1383 134 0
1384 1383 -134 0
-1385 1384 135 0
-1385 -1384 -135 0
1385 -1384 135 0
1385 1384 -135 0
-1386 1385 136 0
-1386 -1385 -136 0
1386 -1385 136 0
1386 1385 -136 0
-1387 1386 146 0
-1387 -1386 -146 0
1387 -1386 146 0
1387 1386 -146 0
-1388 1387 152 0
-1388 -1387 -152 0
1388 -1387 152 0
1388 1387 -152 0
-1389 1388 157 0
-1389 -1388 -157 0
1389 -1388 157 0
1389 1388 -157 0
-1390 1389 159 0
-1390 -1389 -159 0
1390 -1389 159 0
1390 1389 -159 0
-1391 1390 161 0
-1391 -1390 -161 0
1391 -1390 161 0
1391 1390 -161 0
-1392 1391 169 0
-1392 -1391 -169 0
1392 -1391 169 0
1392 1391 -169 0
-1393 1392 175 0
-1393 -1392 -175 0
1393 -1392 175 0
1393 1392 -175 0
-1394 13 14 0
-1394 -13 -14 0
1394 -13 14 0
1394 13 -14 0
-1395 1394 15 0
-1395 -1394 -15 0
1395 -1394 15 0
1395 1394 -15 0
-1396 1395 17 0
-1396 -1395 -17 0
1396 -1395 17 0
1396 1395 -17 0
-1397 1396 19 0
-1397 -1396 -19 0
1397 -1396 19 0
1397 1396 -19 0
-1398 1397 21 0
-1398 -1397 -21 0
1398 -1397 21 0
1398 1397 -21 0
-1399 1398 24 0
-1399 -1398 -24 0
1399 -1398 24 0
1399 1398 -24 0
-1400 1399 25 0
-1400 -1399 -25 0
1400 -1399 25 0
1400 1399 -25 0
-1401 1400 26 0
-1401 -1400 -26 0
1401 -1400 26 0
1401 1400 -26 0
-1402 1401 27 0
-1402 -1401 -27 0
1402 -1401 27 0
1402 1401 -27 0
-1403 1402 28 0
-1403 -1402 -28 0
1403 -1402 28 0
1403 1402 -28 0
-1404 1403 29 0
-1404 -1403 -29 0
1404 -1403 29 0
1404 1403 -29 0
-1405 1404 30 0
-1405 -1404 -30 0
1405 -1404 30 0
1405 1404 -30 0
-1406 1405 38 0
-1406 -1405 -38 0
1406 -1405 38 0
1406 1405 -38 0
-1407 1406 40 0
-1407 -1406 -40 0
1407 -1406 40 0
1407 1406 -40 0
-1408 1407 42 0
-1408 -1407 -42 0
1408 -1407 42 0
1408 1407 -42 0
-1409 1408 44 0
-1409 -1408 -44 0
1409 -1408 44 0
1409 1408 -44 0
-1410 1409 46 0
-1410 -1409 -46 0
1410 -1409 46 0
1410 1409 -46 0
-1411 1410 48 0
-1411 -1410 -48 0
1411 -1410 48 0
1411 1410 -48 0
-1412 1411 54 0
-1412 -1411 -54 0
1412 -1411 54 0
1412 1411 -54 0
-1413 1412 61 0
-1413 -1412 -61 0
1413 -1412 61 0
1413 1412 -61 0
-1414 1413 62 0
-1414 -1413 -62 0
1414 -1413 62 0
1414 1413 -62 0
-1415 1414 63 0
-1415 -1414 -63 0
1415 -1414 63 0
1415 1414 -63 0
-1416 1415 64 0
-1416 -1415 -64 0
1416 -1415 64 0
1416 1415 -64 0
-1417 1416 65 0
-1417 -1416 -65 0
1417 -1416 65 0
1417 1416 -65 0
-1418 1417 66 0
-1418 -1417 -66 0
1418 -1417 66 0
1418 1417 -66 0
-1419 1418 67 0
-1419 -1418 -67 0
1419 -1418 67 0
1419 1418 -67 0
-1420 1419 68 0
-1420 -1419 -68 0
1420 -1419 68 0
1420 1419 -68 0
-1421 1420 69 0
-1421 -1420 -69 0
1421 -1420 69 0
1421 1420 -69 0
-1422 1421 70 0
-1422 -1421 -70 0
1422 -1421 70 0
1422 1421 -70 0
-1423 1422 71 0
-1423 -1422 -71 0
1423 -1422 71 0
1423 1422 -71 0
-1424 1423 72 0
-1424 -1423 -72 0
1424 -1423 72 0
1424 1423 -72 0
-1425 1424 73 0
-1425 -1424 -73 0
1425 -1424 73 0
1425 1424 -73 0
-1426 1425 74 0
-1426 -1425 -74 0
1426 -1425 74 0
1426 1425 -74 0
-1427 1426 75 0
-1427 -1426 -75 0
1427 -1426 75 0
1427 1426 -75 0
-1428 1427 76 0
-1428 -1427 -76 0
1428 -1427 76 0
1428 1427 -76 0
-1429 1428 77 0
-1429 -1428 -77 0
1429 -1428 77 0
1429 1428 -77 0
-1430 1429 78 0
-1430 -1429 -78 0
1430 -1429 78 0
1430 1429 -78 0
-1431 1430 79 0
-1431 -1430 -79 0
1431 -1430 79 0
1431 1430 -79 0
-1432 1431 80 0
-1432 -1431 -80 0
1432 -1431 80 0
1432 1431 -80 0
-1433 1432 81 0
-1433 -1432 -81 0
1433 -1432 81 0
1433 1432 -81 0
-1434 1433 82 0
-1434 -1433 -82 0
1434 -1433 82 0
1434 1433 -82 0
-1435 1434 83 0
-1435 -1434 -83 0
1435 -1434 83 0
1435 1434 -83 0
-1436 1435 84 0
-1436 -1435 -84 0
1436 -1435 84 0
1436 1435 -84 0
-1437 1436 88 0
-1437 -1436 -88 0
1437 -1436 88 0
1437 1436 -88 0
-1438 1437 95 0
-1438 -1437 -95 0
1438 -1437 95 0
1438 1437 -95 0
-1439 1438 122 0
-1439 -1438 -122 0
1439 -1438 122 0
1439 1438 -122 0
-1440 1439 124 0
-1440 -1439 -124 0
1440 -1439 124 0
1440 1439 -124 0
-1441 1440 145 0
-1441 -1440 -145 0
1441 -1440 145 0
1441 1440 -145 0
-1442 1441 147 0
-1442 -1441 -147 0
1442 -1441 147 0
1442 1441 -147 0
-1443 1442 149 0
-1443 -1442 -149 0
1443 -1442 149 0
1443 1442 -149 0
-1444 1443 158 0
-1444 -1443 -158 0
1444 -1443 158 0
1444 1443 -158 0
-1445 1444 160 0
-1445 -1444 -160 0
1445 -1444 160 0
1445 1444 -160 0
-1446 1445 162 0
-1446 -1445 -162 0
1446 -1445 162 0
1446 1445 -162 0
-1447 1446 170 0
-1447 -1446 -170 0
1447 -1446 170 0
1447 1446 -170 0
-1448 1447 176 0
-1448 -1447 -176 0
1448 -1447 176 0
1448 1447 -176 0
1025 1042 1059 1076 1093 1110 1169 1224 1273 1332 1393 1448 0
-1 1449 0
-1450 0
-1451 0
-1452 0
-1453 0
-1454 0
-1455 0
-1456 0
-1457 0
-1458 0
-1459 0
-1460 0
-1461 0
-2 1462 0
-1449 1462 0
-2 -1449 1463 0
-1450 1463 0
-2 -1450 1464 0
-1451 1464 0
-2 -1451 1465 0
-1452 1465 0
-2 -1452 1466 0
-1453 1466 0
-2 -1453 1467 0
-1454 1467 0
-2 -1454 1468 0
-1455 1468 0
-2 -1455 1469 0
-1456 1469 0
-2 -1456 1470 0
-1457 1470 0
-2 -1457 1471 0
-1458 1471 0
-2 -1458 1472 0
-1459 1472 0
-2 -1459 1473 0
-1460 1473 0
-2 -1460 1474 0
-1461 1474 0
-2 -1461 0
-3 1475 0
-1462 1475 0
-3 -1462 1476 0
-1463 1476 0
-3 -1463 1477 0
-1464 1477 0
-3 -1464 1478 0
-1465 1478 0
-3 -1465 1479 0
-1466 1479 0
-3 -1466 1480 0
-1467 1480 0
-3 -1467 1481 0
-1468 1481 0
-3 -1468 1482 0
-1469 1482 0
-3 -1469 1483 0
-1470 1483 0
-3 -1470 1484 0
-1471 1484 0
-3 -1471 1485 0
-1472 1485 0
-3 -1472 1486 0
-1473 1486 0
-3 -1473 1487 0
-1474 1487 0
-3 -1474 0
-4 1488 0
-1475 1488 0
-4 -1475 1489 0
-1476 1489 0
-4 -1476 1490 0
-1477 1490 0
-4 -1477 1491 0
-1478 1491 0
-4 -1478 1492 0
-1479 1492 0
-4 -1479 1493 0
-1480 1493 0
-4 -1480 1494 0
-1481 1494 0
-4 -1481 1495 0
-1482 1495 0
-4 -1482 1496 0
-1483 1496 0
-4 -1483 1497 0
-1484 1497 0
-4 -1484 1498 0
-1485 1498 0
-4 -1485 1499 0
-1486 1499 0
-4 -1486 1500 0
-1487 1500 0
-4 -1487 0
-5 1501 0
-1488 1501 0
-5 -1488 1502 0
-1489 1502 0
-5 -1489 1503 0
-1490 1503 0
-5 -1490 1504 0
-1491 1504 0
-5 -1491 1505 0
-1492 1505 0
-5 -1492 1506 0
-1493 1506 0
-5 -1493 1507 0
-1494 1507 0
-5 -1494 1508 0
-1495 1508 0
-5 -1495 1509 0
-1496 1509 0
-5 -1496 1510 0
-1497 1510 0
-5 -1497 1511 0
-1498 1511 0
-5 -1498 1512 0
-1499 1512 0
-5 -1499 1513 0
-1500 1513 0
-5 -1500 0
-6 1514 0
-1501 1514 0
-6 -1501 1515 0
-1502 1515 0
-6 -1502 1516 0
-1503 1516 0
-6 -1503 1517 0
-1504 1517 0
-6 -1504 1518 0
-1505 1518 0
-6 -1505 1519 0
-1506 1519 0
-6 -1506 1520 0
-1507 1520 0
-6 -1507 1521 0
-1508 1521 0
-6 -1508 1522 0
-1509 1522 0
-6 -1509 1523 0
-1510 1523 0
-6 -1510 1524 0
-1511 1524 0
-6 -1511 1525 0
-1512 1525 0
-6 -1512 1526 0
-1513 1526 0
-6 -1513 0
-7 1527 0
-1514 1527 0
-7 -1514 1528 0
-1515 1528 0
-7 -1515 1529 0
-1516 1529 0
-7 -1516 1530 0
-1517 1530 0
-7 -1517 1531 0
-1518 1531 0
-7 -1518 1532 0
-1519 1532 0
-7 -1519 1533 0
-1520 1533 0
-7 -1520 1534 0
-1521 1534 0
-7 -1521 1535 0
-1522 1535 0
-7 -1522 1536 0
-1523 1536 0
-7 -1523 1537 0
-1524 1537 0
-7 -1524 1538 0
-1525 1538 0
-7 -1525 1539 0
-1526 1539 0
-7 -1526 0
-8 1540 0
-1527 1540 0
-8 -1527 1541 0
-1528 1541 0
-8 -1528 1542 0
-1529 1542 0
-8 -1529 1543 0
-1530 1543 0
-8 -1530 1544 0
-1531 1544 0
-8 -1531 1545 0
-1532 1545 0
-8 -1532 1546 0
-1533 1546 0
-8 -1533 1547 0
-1534 1547 0
-8 -1534 1548 0
-1535 1548 0
-8 -1535 1549 0
-1536 1549 0
-8 -1536 1550 0
-1537 1550 0
-8 -1537 1551 0
-1538 1551 0
-8 -1538 1552 0
-1539 1552 0
-8 -1539 0
-9 1553 0
-1540 1553 0
-9 -1540 1554 0
-1541 1554 0
-9 -1541 1555 0
-1542 1555 0
-9 -1542 1556 0
-1543 1556 0
-9 -1543 1557 0
-1544 1557 0
-9 -1544 1558 0
-1545 1558 0
-9 -1545 1559 0
-1546 1559 0
-9 -1546 1560 0
-1547 1560 0
-9 -1547 1561 0
-1548 1561 0
-9 -1548 1562 0
-1549 1562 0
-9 -1549 1563 0
-1550 1563 0
-9 -1550 1564 0
-1551 1564 0
-9 -1551 1565 0
-1552 1565 0
-9 -1552 0
-10 1566 0
-1553 1566 0
-10 -1553 1567 0
-1554 1567 0
-10 -1554 1568 0
-1555 1568 0
-10 -1555 1569 0
-1556 1569 0
-10 -1556 1570 0
-1557 1570 0
-10 -1557 1571 0
-1558 1571 0
-10 -1558 1572 0
-1559 1572 0
-10 -1559 1573 0
-1560 1573 0
-10 -1560 1574 0
-1561 1574 0
-10 -1561 1575 0
-1562 1575 0
-10 -1562 1576 0
-1563 1576 0
-10 -1563 1577 0
-1564 1577 0
-10 -1564 1578 0
-1565 1578 0
-10 -1565 0
-11 1579 0
-1566 1579 0
-11 -1566 1580 0
-1567 1580 0
-11 -1567 1581 0
-1568 1581 0
-11 -1568 1582 0
-1569 1582 0
-11 -1569 1583 0
-1570 1583 0
-11 -1570 1584 0
-1571 1584 0
-11 -1571 1585 0
-1572 1585 0
-11 -1572 1586 0
-1573 1586 0
-11 -1573 1587 0
-1574 1587 0
-11 -1574 1588 0
-1575 1588 0
-11 -1575 1589 0
-1576 1589 0
-11 -1576 1590 0
-1577 1590 0
-11 -1577 1591 0
-1578 1591 0
-11 -1578 0
-12 1592 0
-1579 1592 0
-12 -1579 1593 0
-1580 1593 0
-12 -1580 1594 0
-1581 1594 0
-12 -1581 1595 0
-1582 1595 0
-12 -1582 1596 0
-1583 1596 0
-12 -1583 1597 0
-1584 1597 0
-12 -1584 1598 0
-1585 1598 0
-12 -1585 1599 0
-1586 1599 0
-12 -1586 1600 0
-1587 1600 0
-12 -1587 1601 0
-1588 1601 0
-12 -1588 1602 0
-1589 1602 0
-12 -1589 1603 0
-1590 1603 0
-12 -1590 1604 0
-1591 1604 0
-12 -1591 0
-13 1605 0
-1592 1605 0
-13 -1592 1606 0
-1593 1606 0
-13 -1593 1607 0
-1594 1607 0
-13 -1594 1608 0
-1595 1608 0
-13 -1595 1609 0
-1596 1609 0
-13 -1596 1610 0
-1597 1610 0
-13 -1597 1611 0
-1598 1611 0
-13 -1598 1612 0
-1599 1612 0
-13 -1599 1613 0
-1600 1613 0
-13 -1600 1614 0
-1601 1614 0
-13 -1601 1615 0
-1602 1615 0
-13 -1602 1616 0
-1603 1616 0
-13 -1603 1617 0
-1604 1617 0
-13 -1604 0
-14 1618 0
-1605 1618 0
-14 -1605 1619 0
-1606 1619 0
-14 -1606 1620 0
-1607 1620 0
-14 -1607 1621 0
-1608 1621 0
-14 -1608 1622 0
-1609 1622 0
-14 -1609 1623 0
-1610 1623 0
-14 -1610 1624 0
-1611 1624 0
-14 -1611 1625 0
-1612 1625 0
-14 -1612 1626 0
-1613 1626 0
-14 -1613 1627 0
-1614 1627 0
-14 -1614 1628 0
-1615 1628 0
-14 -1615 1629 0
-1616 1629 0
-14 -1616 1630 0
-1617 1630 0
-14 -1617 0
-15 1631 0
-1618 1631 0
-15 -1618 1632 0
-1619 1632 0
-15 -1619 1633 0
-1620 1633 0
-15 -1620 1634 0
-1621 1634 0
-15 -1621 1635 0
-1622 1635 0
-15 -1622 1636 0
-1623 1636 0
-15 -1623 1637 0
-1624 1637 0
-15 -1624 1638 0
-1625 1638 0
-15 -1625 1639 0
-1626 1639 0
-15 -1626 1640 0
-1627 1640 0
-15 -1627 1641 0
-1628 1641 0
-15 -1628 1642 0
-1629 1642 0
-15 -1629 1643 0
-1630 1643 0
-15 -1630 0
-16 1644 0
-1631 1644 0
-16 -1631 1645 0
-1632 1645 0
-16 -1632 1646 0
-1633 1646 0
-16 -1633 1647 0
-1634 1647 0
-16 -1634 1648 0
-1635 1648 0
-16 -1635 1649 0
-1636 1649 0
-16 -1636 1650 0
-1637 1650 0
-16 -1637 1651 0
-1638 1651 0
-16 -1638 1652 0
-1639 1652 0
-16 -1639 1653 0
-1640 1653 0
-16 -1640 1654 0
-1641 1654 0
-16 -1641 1655 0
-1642 1655 0
-16 -1642 1656 0
-1643 1656 0
-16 -1643 0
-17 1657 0
-1644 1657 0
-17 -1644 1658 0
-1645 1658 0
-17 -1645 1659 0
-1646 1659 0
-17 -1646 1660 0
-1647 1660 0
-17 -1647 1661 0
-1648 1661 0
-17 -1648 1662 0
-1649 1662 0
-17 -1649 1663 0
-1650 1663 0
-17 -1650 1664 0
-1651 1664 0
-17 -1651 1665 0
-1652 1665 0
-17 -1652 1666 0
-1653 1666 0
-17 -1653 1667 0
-1654 1667 0
-17 -1654 1668 0
-1655 1668 0
-17 -1655 1669 0
-1656 1669 0
-17 -1656 0
-18 1670 0
-1657 1670 0
-18 -1657 1671 0
-1658 1671 0
-18 -1658 1672 0
-1659 1672 0
-18 -1659 1673 0
-1660 1673 0
-18 -1660 1674 0
-1661 1674 0
-18 -1661 1675 0
-1662 1675 0
-18 -1662 1676 0
-1663 1676 0
-18 -1663 1677 0
-1664 1677 0
-18 -1664 1678 0
-1665 1678 0
-18 -1665 1679 0
-1666 1679 0
-18 -1666 1680 0
-1667 1680 0
-18 -1667 1681 0
-1668 1681 0
-18 -1668 1682 0
-1669 1682 0
-18 -1669 0
-19 1683 0
-1670 1683 0
-19 -1670 1684 0
-1671 1684 0
-19 -1671 1685 0
-1672 1685 0
-19 -1672 1686 0
-1673 1686 0
-19 -1673 1687 0
-1674 1687 0
-19 -1674 1688 0
-1675 1688 0
-19 -1675 1689 0
-1676 1689 0
-19 -1676 1690 0
-1677 1690 0
-19 -1677 1691 0
-1678 1691 0
-19 -1678 1692 0
-1679 1692 0
-19 -1679 1693 0
-1680 1693 0
-19 -1680 1694 0
-1681 1694 0
-19 -1681 1695 0
-1682 1695 0
-19 -1682 0
-20 1696 0
-1683 1696 0
-20 -1683 1697 0
-1684 1697 0
-20 -1684 1698 0
-1685 1698 0
-20 -1685 1699 0
-1686 1699 0
-20 -1686 1700 0
-1687 1700 0
-20 -1687 1701 0
-1688 1701 0
-20 -1688 1702 0
-1689 1702 0
-20 -1689 1703 0
-1690 1703 0
-20 -1690 1704 0
-1691 1704 0
-20 -1691 1705 0
-1692 1705 0
-20 -1692 1706 0
-1693 1706 0
-20 -1693 1707 0
-1694 1707 0
-20 -1694 1708 0
-1695 1708 0
-20 -1695 0
-21 1709 0
-1696 1709 0
-21 -1696 1710 0
-1697 1710 0
-21 -1697 1711 0
-1698 1711 0
-21 -1698 1712 0
-1699 1712 0
-21 -1699 1713 0
-1700 1713 0
-21 -1700 1714 0
-1701 1714 0
-21 -1701 1715 0
-1702 1715 0
-21 -1702 1716 0
-1703 1716 0
-21 -1703 1717 0
-1704 1717 0
-21 -1704 1718 0
-1705 1718 0
-21 -1705 1719 0
-1706 1719 0
-21 -1706 1720 0
-1707 1720 0
-21 -1707 1721 0
-1708 1721 0
-21 -1708 0
-22 1722 0
-1709 1722 0
-22 -1709 1723 0
-1710 1723 0
-22 -1710 1724 0
-1711 1724 0
-22 -1711 1725 0
-1712 1725 0
-22 -1712 1726 0
-1713 1726 0
-22 -1713 1727 0
-1714 1727 0
-22 -1714 1728 0
-1715 1728 0
-22 -1715 1729 0
-1716 1729 0
-22 -1716 1730 0
-1717 1730 0
-22 -1717 1731 0
-1718 1731 0
-22 -1718 1732 0
-1719 1732 0
-22 -1719 1733 0
-1720 1733 0
-22 -1720 1734 0
-1721 1734 0
-22 -1721 0
-23 1735 0
-1722 1735 0
-23 -1722 1736 0
-1723 1736 0
-23 -1723 1737 0
-1724 1737 0
-23 -1724 1738 0
-1725 1738 0
-23 -1725 1739 0
-1726 1739 0
-23 -1726 1740 0
-1727 1740 0
-23 -1727 1741 0
-1728 1741 0
-23 -1728 1742 0
-1729 1742 0
-23 -1729 1743 0
-1730 1743 0
-23 -1730 1744 0
-1731 1744 0
-23 -1731 1745 0
-1732 1745 0
-23 -1732 1746 0
-1733 1746 0
-23 -1733 1747 0
-1734 1747 0
-23 -1734 0
-24 1748 0
-1735 1748 0
-24 -1735 1749 0
-1736 1749 0
-24 -1736 1750 0
-1737 1750 0
-24 -1737 1751 0
-1738 1751 0
-24 -1738 1752 0
-1739 1752 0
-24 -1739 1753 0
-1740 1753 0
-24 -1740 1754 0
-1741 1754 0
-24 -1741 1755 0
-1742 1755 0
-24 -1742 1756 0
-1743 1756 0
-24 -1743 1757 0
-1744 1757 0
-24 -1744 1758 0
-1745 1758 0
-24 -1745 1759 0
-1746 1759 0
-24 -1746 1760 0
-1747 1760 0
-24 -1747 0
-25 1761 0
-1748 1761 0
-25 -1748 1762 0
-1749 1762 0
-25 -1749 1763 0
-1750 1763 0
-25 -1750 1764 0
-1751 1764 0
-25 -1751 1765 0
-1752 1765 0
-25 -1752 1766 0
-1753 1766 0
-25 -1753 1767 0
-1754 1767 0
-25 -1754 1768 0
-1755 1768 0
-25 -1755 1769 0
-1756 1769 0
-25 -1756 1770 0
-1757 1770 0
-25 -1757 1771 0
-1758 1771 0
-25 -1758 1772 0
-1759 1772 0
-25 -1759 1773 0
-1760 1773 0
-25 -1760 0
-26 1774 0
-1761 1774 0
-26 -1761 1775 0
-1762 1775 0
-26 -1762 1776 0
-1763 1776 0
-26 -1763 1777 0
-1764 1777 0
-26 -1764 1778 0
-1765 1778 0
-26 -1765 1779 0
-1766 1779 0
-26 -1766 1780 0
-1767 1780 0
-26 -1767 1781 0
-1768 1781 0
-26 -1768 1782 0
-1769 1782 0
-26 -1769 1783 0
-1770 1783 0
-26 -1770 1784 0
-1771 1784 0
-26 -1771 1785 0
-1772 1785 0
-26 -1772 1786 0
-1773 1786 0
-26 -1773 0
-27 1787 0
-1774 1787 0
-27 -1774 1788 0
-1775 1788 0
-27 -1775 1789 0
-1776 1789 0
-27 -1776 1790 0
-1777 1790 0
-27 -1777 1791 0
-1778 1791 0
-27 -1778 1792 0
-1779 1792 0
-27 -1779 1793 0
-1780 1793 0
-27 -1780 1794 0
-1781 1794 0
-27 -1781 1795 0
-1782 1795 0
-27 -1782 1796 0
-1783 1796 0
-27 -1783 1797 0
-1784 1797 0
-27 -1784 1798 0
-1785 1798 0
-27 -1785 1799 0
-1786 1799 0
-27 -1786 0
-28 1800 0
-1787 1800 0
-28 -1787 1801 0
-1788 1801 0
-28 -1788 1802 0
-1789 1802 0
-28 -1789 1803 0
-1790 1803 0
-28 -1790 1804 0
-1791 1804 0
-28 -1791 1805 0
-1792 1805 0
-28 -1792 1806 0
-1793 1806 0
-28 -1793 1807 0
-1794 1807 0
-28 -1794 1808 0
-1795 1808 0
-28 -1795 1809 0
-1796 1809 0
-28 -1796 1810 0
-1797 1810 0
-28 -1797 1811 0
-1798 1811 0
-28 -1798 1812 0
-1799 1812 0
-28 -1799 0
-29 1813 0
-1800 1813 0
-29 -1800 1814 0
-1801 1814 0
-29 -1801 1815 0
-1802 1815 0
-29 -1802 1816 0
-1803 1816 0
-29 -1803 1817 0
-1804 1817 0
-29 -1804 1818 0
-1805 1818 0
-29 -1805 1819 0
-1806 1819 0
-29 -1806 1820 0
-1807 1820 0
-29 -1807 1821 0
-1808 1821 0
-29 -1808 1822 0
-1809 1822 0
-29 -1809 1823 0
-1810 1823 0
-29 -1810 1824 0
-1811 1824 0
-29 -1811 1825 0
-1812 1825 0
-29 -1812 0
-30 1826 0
-1813 1826 0
-30 -1813 1827 0
-1814 1827 0
-30 -1814 1828 0
-1815 1828 0
-30 -1815 1829 0
-1816 1829 0
-30 -1816 1830 0
-1817 1830 0
-30 -1817 1831 0
-1818 1831 0
-30 -1818 1832 0
-1819 1832 0
-30 -1819 1833 0
-1820 1833 0
-30 -1820 1834 0
-1821 1834 0
-30 -1821 1835 0
-1822 1835 0
-30 -1822 1836 0
-1823 1836 0
-30 -1823 1837 0
-1824 1837 0
-30 -1824 1838 0
-1825 1838 0
-30 -1825 0
-31 1839 0
-1826 1839 0
-31 -1826 1840 0
-1827 1840 0
-31 -1827 1841 0
-1828 1841 0
-31 -1828 1842 0
-1829 1842 0
-31 -1829 1843 0
-1830 1843 0
-31 -1830 1844 0
-1831 1844 0
-31 -1831 1845 0
-1832 1845 0
-31 -1832 1846 0
-1833 1846 0
-31 -1833 1847 0
-1834 1847 0
-31 -1834 1848 0
-1835 1848 0
-31 -1835 1849 0
-1836 1849 0
-31 -1836 1850 0
-1837 1850 0
-31 -1837 1851 0
-1838 1851 0
-31 -1838 0
-32 1852 0
-1839 1852 0
-32 -1839 1853 0
-1840 1853 0
-32 -1840 1854 0
-1841 1854 0
-32 -1841 1855 0
-1842 1855 0
-32 -1842 1856 0
-1843 1856 0
-32 -1843 1857 0
-1844 1857 0
-32 -1844 1858 0
-1845 1858 0
-32 -1845 1859 0
-1846 1859 0
-32 -1846 1860 0
-1847 1860 0
-32 -1847 1861 0
-1848 1861 0
-32 -1848 1862 0
-1849 1862 0
-32 -1849 1863 0
-1850 1863 0
-32 -1850 1864 0
-1851 1864 0
-32 -1851 0
-33 1865 0
-1852 1865 0
-33 -1852 1866 0
-1853 1866 0
-33 -1853 1867 0
-1854 1867 0
-33 -1854 1868 0
-1855 1868 0
-33 -1855 1869 0
-1856 1869 0
-33 -1856 1870 0
-1857 1870 0
-33 -1857 1871 0
-1858 1871 0
-33 -1858 1872 0
-1859 1872 0
-33 -1859 1873 0
-1860 1873 0
-33 -1860 1874 0
-1861 1874 0
-33 -1861 1875 0
-1862 1875 0
-33 -1862 1876 0
-1863 1876 0
-33 -1863 1877 0
-1864 1877 0
-33 -1864 0
-34 1878 0
-1865 1878 0
-34 -1865 1879 0
-1866 1879 0
-34 -1866 1880 0
-1867 1880 0
-34 -1867 1881 0
-1868 1881 0
-34 -1868 1882 0
-1869 1882 0
-34 -1869 1883 0
-1870 1883 0
-34 -1870 1884 0
-1871 1884 0
-34 -1871 1885 0
-1872 1885 0
-34 -1872 1886 0
-1873 1886 0
-34 -1873 1887 0
-1874 1887 0
-34 -1874 1888 0
-1875 1888 0
-34 -1875 1889 0
-1876 1889 0
-34 -1876 1890 0
-1877 1890 0
-34 -1877 0
-35 1891 0
-1878 1891 0
-35 -1878 1892 0
-1879 1892 0
-35 -1879 1893 0
-1880 1893 0
-35 -1880 1894 0
-1881 1894 0
-35 -1881 1895 0
-1882 1895 0
-35 -1882 1896 0
-1883 1896 0
-35 -1883 1897 0
-1884 1897 0
-35 -1884 1898 0
-1885 1898 0
-35 -1885 1899 0
-1886 1899 0
-35 -1886 1900 0
-1887 1900 0
-35 -1887 1901 0
-1888 1901 0
-35 -1888 1902 0
-1889 1902 0
-35 -1889 1903 0
-1890 1903 0
-35 -1890 0
-36 1904 0
-1891 1904 0
-36 -1891 1905 0
-1892 1905 0
-36 -1892 1906 0
-1893 1906 0
-36 -1893 1907 0
-1894 1907 0
-36 -1894 1908 0
-1895 1908 0
-36 -1895 1909 0
-1896 1909 0
-36 -1896 1910 0
-1897 1910 0
-36 -1897 1911 0
-1898 1911 0
-36 -1898 1912 0
-1899 1912 0
-36 -1899 1913 0
-1900 1913 0
-36 -1900 1914 0
-1901 1914 0
-36 -1901 1915 0
-1902 1915 0
-36 -1902 1916 0
-1903 1916 0
-36 -1903 0
-37 1917 0
-1904 1917 0
-37 -1904 1918 0
-1905 1918 0
-37 -1905 1919 0
-1906 1919 0
-37 -1906 1920 0
-1907 1920 0
-37 -1907 1921 0
-1908 1921 0
-37 -1908 1922 0
-1909 1922 0
-37 -1909 1923 0
-1910 1923 0
-37 -1910 1924 0
-1911 1924 0
-37 -1911 1925 0
-1912 1925 0
-37 -1912 1926 0
-1913 1926 0
-37 -1913 1927 0
-1914 1927 0
-37 -1914 1928 0
-1915 1928 0
-37 -1915 1929 0
-1916 1929 0
-37 -1916 0
-38 1930 0
-1917 1930 0
-38 -1917 1931 0
-1918 1931 0
-38 -1918 1932 0
-1919 1932 0
-38 -1919 1933 0
-1920 1933 0
-38 -1920 1934 0
-1921 1934 0
-38 -1921 1935 0
-1922 1935 0
-38 -1922 1936 0
-1923 1936 0
-38 -1923 1937 0
-1924 1937 0
-38 -1924 1938 0
-1925 1938 0
-38 -1925 1939 0
-1926 1939 0
-38 -1926 1940 0
-1927 1940 0
-38 -1927 1941 0
-1928 1941 0
-38 -1928 1942 0
-1929 1942 0
-38 -1929 0
-39 1943 0
-1930 1943 0
-39 -1930 1944 0
-1931 1944 0
-39 -1931 1945 0
-1932 1945 0
-39 -1932 1946 0
-1933 1946 0
-39 -1933 1947 0
-1934 1947 0
-39 -1934 1948 0
-1935 1948 0
-39 -1935 1949 0
-1936 1949 0
-39 -1936 1950 0
-1937 1950 0
-39 -1937 1951 0
-1938 1951 0
-39 -1938 1952 0
-1939 1952 0
-39 -1939 1953 0
-1940 1953 0
-39 -1940 1954 0
-1941 1954 0
-39 -1941 1955 0
-1942 1955 0
-39 -1942 0
-40 1956 0
-1943 1956 0
-40 -1943 1957 0
-1944 1957 0
-40 -1944 1958 0
-1945 1958 0
-40 -1945 1959 0
-1946 1959 0
-40 -1946 1960 0
-1947 1960 0
-40 -1947 1961 0
-1948 1961 0
-40 -1948 1962 0
-1949 1962 0
-40 -1949 1963 0
-1950 1963 0
-40 -1950 1964 0
-1951 1964 0
-40 -1951 1965 0
-1952 1965 0
-40 -1952 1966 0
-1953 1966 0
-40 -1953 1967 0
-1954 1967 0
-40 -1954 1968 0
-1955 1968 0
-40 -1955 0
-41 1969 0
-1956 1969 0
-41 -1956 1970 0
-1957 1970 0
-41 -1957 1971 0
-1958 1971 0
-41 -1958 1972 0
-1959 1972 0
-41 -1959 1973 0
-1960 1973 0
-41 -1960 1974 0
-1961 1974 0
-41 -1961 1975 0
-1962 1975 0
-41 -1962 1976 0
-1963 1976 0
-41 -1963 1977 0
-1964 1977 0
-41 -1964 1978 0
-1965 1978 0
-41 -1965 1979 0
-1966 1979 0
-41 -1966 1980 0
-1967 1980 0
-41 -1967 1981 0
-1968 1981 0
-41 -1968 0
-42 1982 0
-1969 1982 0
-42 -1969 1983 0
-1970 1983 0
-42 -1970 1984 0
-1971 1984 0
-42 -1971 1985 0
-1972 1985 0
-42 -1972 1986 0
-1973 1986 0
-42 -1973 1987 0
-1974 1987 0
-42 -1974 1988 0
-1975 1988 0
-42 -1975 1989 0
-1976 1989 0
-42 -1976 1990 0
-1977 1990 0
-42 -1977 1991 0
-1978 1991 0
-42 -1978 1992 0
-1979 1992 0
-42 -1979 1993 0
-1980 1993 0
-42 -1980 1994 0
-1981 1994 0
-42 -1981 0
-43 1995 0
-1982 1995 0
-43 -1982 1996 0
-1983 1996 0
-43 -1983 1997 0
-1984 1997 0
-43 -1984 1998 0
-1985 1998 0
-43 -1985 1999 0
-1986 1999 0
-43 -1986 2000 0
-1987 2000 0
-43 -1987 2001 0
-1988 2001 0
-43 -1988 2002 0
-1989 2002 0
-43 -1989 2003 0
-1990 2003 0
-43 -1990 2004 0
-1991 2004 0
-43 -1991 2005 0
-1992 2005 0
-43 -1992 2006 0
-1993 2006 0
-43 -1993 2007 0
-1994 2007 0
-43 -1994 0
-44 2008 0
-1995 2008 0
-44 -1995 2009 0
-1996 2009 0
-44 -1996 2010 0
-1997 2010 0
-44 -1997 2011 0
-1998 2011 0
-44 -1998 2012 0
-1999 2012 0
-44 -1999 2013 0
-2000 2013 0
-44 -2000 2014 0
-2001 2014 0
-44 -2001 2015 0
-2002 2015 0
-44 -2002 2016 0
-2003 2016 0
-44 -2003 2017 0
-2004 2017 0
-44 -2004 2018 0
-2005 2018 0
-44 -2005 2019 0
-2006 2019 0
-44 -2006 2020 0
-2007 2020 0
-44 -2007 0
-45 2021 0
-2008 2021 0
-45 -2008 2022 0
-2009 2022 0
-45 -2009 2023 0
-2010 2023 0
-45 -2010 2024 0
-2011 2024 0
-45 -2011 2025 0
-2012 2025 0
-45 -2012 2026 0
-2013 2026 0
-45 -2013 2027 0
-2014 2027 0
-45 -2014 2028 0
-2015 2028 0
-45 -2015 2029 0
-2016 2029 0
-45 -2016 2030 0
-2017 2030 0
-45 -2017 2031 0
-2018 2031 0
-45 -2018 2032 0
-2019 2032 0
-45 -2019 2033 0
-2020 2033 0
-45 -2020 0
-46 2034 0
-2021 2034 0
-46 -2021 2035 0
-2022 2035 0
-46 -2022 2036 0
-2023 2036 0
-46 -2023 2037 0
-2024 2037 0
-46 -2024 2038 0
-2025 2038 0
-46 -2025 2039 0
-2026 2039 0
-46 -2026 2040 0
-2027 2040 0
-46 -2027 2041 0
-2028 2041 0
-46 -2028 2042 0
-2029 2042 0
-46 -2029 2043 0
-2030 2043 0
-46 -2030 2044 0
-2031 2044 0
-46 -2031 2045 0
-2032 2045 0
-46 -2032 2046 0
-2033 2046 0
-46 -2033 0
-47 2047 0
-2034 2047 0
-47 -2034 2048 0
-2035 2048 0
-47 -2035 2049 0
-2036 2049 0
-47 -2036 2050 0
-2037 2050 0
-47 -2037 2051 0
-2038 2051 0
-47 -2038 2052 0
-2039 2052 0
-47 -2039 2053 0
-2040 2053 0
-47 -2040 2054 0
-2041 2054 0
-47 -2041 2055 0
-2042 2055 0
-47 -2042 2056 0
-2043 2056 0
-47 -2043 2057 0
-2044 2057 0
-47 -2044 2058 0
-2045 2058 0
-47 -2045 2059 0
-2046 2059 0
-47 -2046 0
-48 2060 0
-2047 2060 0
-48 -2047 2061 0
-2048 2061 0
-48 -2048 2062 0
-2049 2062 0
-48 -2049 2063 0
-2050 2063 0
-48 -2050 2064 0
-2051 2064 0
-48 -2051 2065 0
-2052 2065 0
-48 -2052 2066 0
-2053 2066 0
-48 -2053 2067 0
-2054 2067 0
-48 -2054 2068 0
-2055 2068 0
-48 -2055 2069 0
-2056 2069 0
-48 -2056 2070 0
-2057 2070 0
-48 -2057 2071 0
-2058 2071 0
-48 -2058 2072 0
-2059 2072 0
-48 -2059 0
-49 2073 0
-2060 2073 0
-49 -2060 2074 0
-2061 2074 0
-49 -2061 2075 0
-2062 2075 0
-49 -2062 2076 0
-2063 2076 0
-49 -2063 2077 0
-2064 2077 0
-49 -2064 2078 0
-2065 2078 0
-49 -2065 2079 0
-2066 2079 0
-49 -2066 2080 0
-2067 2080 0
-49 -2067 2081 0
-2068 2081 0
-49 -2068 2082 0
-2069 2082 0
-49 -2069 2083 0
-2070 2083 0
-49 -2070 2084 0
-2071 2084 0
-49 -2071 2085 0
-2072 2085 0
-49 -2072 0
-50 2086 0
-2073 2086 0
-50 -2073 2087 0
-2074 2087 0
-50 -2074 2088 0
-2075 2088 0
-50 -2075 2089 0
-2076 2089 0
-50 -2076 2090 0
-2077 2090 0
-50 -2077 2091 0
-2078 2091 0
-50 -2078 2092 0
-2079 2092 0
-50 -2079 2093 0
-2080 2093 0
-50 -2080 2094 0
-2081 2094 0
-50 -2081 2095 0
-2082 2095 0
-50 -2082 2096 0
-2083 2096 0
-50 -2083 2097 0
-2084 2097 0
-50 -2084 2098 0
-2085 2098 0
-50 -2085 0
-51 2099 0
-2086 2099 0
-51 -2086 2100 0
-2087 2100 0
-51 -2087 2101 0
-2088 2101 0
-51 -2088 2102 0
-2089 2102 0
-51 -2089 2103 0
-2090 2103 0
-51 -2090 2104 0
-2091 2104 0
-51 -2091 2105 0
-2092 2105 0
-51 -2092 2106 0
-2093 2106 0
-51 -2093 2107 0
-2094 2107 0
-51 -2094 2108 0
-2095 2108 0
-51 -2095 2109 0
-2096 2109 0
-51 -2096 2110 0
-2097 2110 0
-51 -2097 2111 0
-2098 2111 0
-51 -2098 0
-52 2112 0
-2099 2112 0
-52 -2099 2113 0
-2100 2113 0
-52 -2100 2114 0
-2101 2114 0
-52 -2101 2115 0
-2102 2115 0
-52 -2102 2116 0
-2103 2116 0
-52 -2103 2117 0
-2104 2117 0
-52 -2104 2118 0
-2105 2118 0
-52 -2105 2119 0
-2106 2119 0
-52 -2106 2120 0
-2107 2120 0
-52 -2107 2121 0
-2108 2121 0
-52 -2108 2122 0
-2109 2122 0
-52 -2109 2123 0
-2110 2123 0
-52 -2110 2124 0
-2111 2124 0
-52 -2111 0
-53 2125 0
-2112 2125 0
-53 -2112 2126 0
-2113 2126 0
-53 -2113 2127 0
-2114 2127 0
-53 -2114 2128 0
-2115 2128 0
-53 -2115 2129 0
-2116 2129 0
-53 -2116 2130 0
-2117 2130 0
-53 -2117 2131 0
-2118 2131 0
-53 -2118 2132 0
-2119 2132 0
-53 -2119 2133 0
-2120 2133 0
-53 -2120 2134 0
-2121 2134 0
-53 -2121 2135 0
-2122 2135 0
-53 -2122 2136 0
-2123 2136 0
-53 -2123 2137 0
-2124 2137 0
-53 -2124 0
-54 2138 0
-2125 2138 0
-54 -2125 2139 0
-2126 2139 0
-54 -2126 2140 0
-2127 2140 0
-54 -2127 2141 0
-2128 2141 0
-54 -2128 2142 0
-2129 2142 0
-54 -2129 2143 0
-2130 2143 0
-54 -2130 2144 0
-2131 2144 0
-54 -2131 2145 0
-2132 2145 0
-54 -2132 2146 0
-2133 2146 0
-54 -2133 2147 0
-2134 2147 0
-54 -2134 2148 0
-2135 2148 0
-54 -2135 2149 0
-2136 2149 0
-54 -2136 2150 0
-2137 2150 0
-54 -2137 0
-55 2151 0
-2138 2151 0
-55 -2138 2152 0
-2139 2152 0
-55 -2139 2153 0
-2140 2153 0
-55 -2140 2154 0
-2141 2154 0
-55 -2141 2155 0
-2142 2155 0
-55 -2142 2156 0
-2143 2156 0
-55 -2143 2157 0
-2144 2157 0
-55 -2144 2158 0
-2145 2158 0
-55 -2145 2159 0
-2146 2159 0
-55 -2146 2160 0
-2147 2160 0
-55 -2147 2161 0
-2148 2161 0
-55 -2148 2162 0
-2149 2162 0
-55 -2149 2163 0
-2150 2163 0
-55 -2150 0
-56 2164 0
-2151 2164 0
-56 -2151 2165 0
-2152 2165 0
-56 -2152 2166 0
-2153 2166 0
-56 -2153 2167 0
-2154 2167 0
-56 -2154 2168 0
-2155 2168 0
-56 -2155 2169 0
-2156 2169 0
-56 -2156 2170 0
-2157 2170 0
-56 -2157 2171 0
-2158 2171 0
-56 -2158 2172 0
-2159 2172 0
-56 -2159 2173 0
-2160 2173 0
-56 -2160 2174 0
-2161 2174 0
-56 -2161 2175 0
-2162 2175 0
-56 -2162 2176 0
-2163 2176 0
-56 -2163 0
-57 2177 0
-2164 2177 0
-57 -2164 2178 0
-2165 2178 0
-57 -2165 2179 0
-2166 2179 0
-57 -2166 2180 0
-2167 2180 0
-57 -2167 2181 0
-2168 2181 0
-57 -2168 2182 0
-2169 2182 0
-57 -2169 2183 0
-2170 2183 0
-57 -2170 2184 0
-2171 2184 0
-57 -2171 2185 0
-2172 2185 0
-57 -2172 2186 0
-2173 2186 0
-57 -2173 2187 0
-2174 2187 0
-57 -2174 2188 0
-2175 2188 0
-57 -2175 2189 0
-2176 2189 0
-57 -2176 0
-58 2190 0
-2177 2190 0
-58 -2177 2191 0
-2178 2191 0
-58 -2178 2192 0
-2179 2192 0
-58 -2179 2193 0
-2180 2193 0
-58 -2180 2194 0
-2181 2194 0
-58 -2181 2195 0
-2182 2195 0
-58 -2182 2196 0
-2183 2196 0
-58 -2183 2197 0
-2184 2197 0
-58 -2184 2198 0
-2185 2198 0
-58 -2185 2199 0
-2186 2199 0
-58 -2186 2200 0
-2187 2200 0
-58 -2187 2201 0
-2188 2201 0
-58 -2188 2202 0
-2189 2202 0
-58 -2189 0
-59 2203 0
-2190 2203 0
-59 -2190 2204 0
-2191 2204 0
-59 -2191 2205 0
-2192 2205 0
-59 -2192 2206 0
-2193 2206 0
-59 -2193 2207 0
-2194 2207 0
-59 -2194 2208 0
-2195 2208 0
-59 -2195 2209 0
-2196 2209 0
-59 -2196 2210 0
-2197 2210 0
-59 -2197 2211 0
-2198 2211 0
-59 -2198 2212 0
-2199 2212 0
-59 -2199 2213 0
-2200 2213 0
-59 -2200 2214 0
-2201 2214 0
-59 -2201 2215 0
-2202 2215 0
-59 -2202 0
-60 2216 0
-2203 2216 0
-60 -2203 2217 0
-2204 2217 0
-60 -2204 2218 0
-2205 2218 0
-60 -2205 2219 0
-2206 2219 0
-60 -2206 2220 0
-2207 2220 0
-60 -2207 2221 0
-2208 2221 0
-60 -2208 2222 0
-2209 2222 0
-60 -2209 2223 0
-2210 2223 0
-60 -2210 2224 0
-2211 2224 0
-60 -2211 2225 0
-2212 2225 0
-60 -2212 2226 0
-2213 2226 0
-60 -2213 2227 0
-2214 2227 0
-60 -2214 2228 0
-2215 2228 0
-60 -2215 0
-61 2229 0
-2216 2229 0
-61 -2216 2230 0
-2217 2230 0
-61 -2217 2231 0
-2218 2231 0
-61 -2218 2232 0
-2219 2232 0
-61 -2219 2233 0
-2220 2233 0
-61 -2220 2234 0
-2221 2234 0
-61 -2221 2235 0
-2222 2235 0
-61 -2222 2236 0
-2223 2236 0
-61 -2223 2237 0
-2224 2237 0
-61 -2224 2238 0
-2225 2238 0
-61 -2225 2239 0
-2226 2239 0
-61 -2226 2240 0
-2227 2240 0
-61 -2227 2241 0
-2228 2241 0
-61 -2228 0
-62 2242 0
-2229 2242 0
-62 -2229 2243 0
-2230 2243 0
-62 -2230 2244 0
-2231 2244 0
-62 -2231 2245 0
-2232 2245 0
-62 -2232 2246 0
-2233 2246 0
-62 -2233 2247 0
-2234 2247 0
-62 -2234 2248 0
-2235 2248 0
-62 -2235 2249 0
-2236 2249 0
-62 -2236 2250 0
-2237 2250 0
-62 -2237 2251 0
-2238 2251 0
-62 -2238 2252 0
-2239 2252 0
-62 -2239 2253 0
-2240 2253 0
-62 -2240 2254 0
-2241 2254 0
-62 -2241 0
-63 2255 0
-2242 2255 0
-63 -2242 2256 0
-2243 2256 0
-63 -2243 2257 0
-2244 2257 0
-63 -2244 2258 0
-2245 2258 0
-63 -2245 2259 0
-2246 2259 0
-63 -2246 2260 0
-2247 2260 0
-63 -2247 2261 0
-2248 2261 0
-63 -2248 2262 0
-2249 2262 0
-63 -2249 2263 0
-2250 2263 0
-63 -2250 2264 0
-2251 2264 0
-63 -2251 2265 0
-2252 2265 0
-63 -2252 2266 0
-2253 2266 0
-63 -2253 2267 0
-2254 2267 0
-63 -2254 0
-64 2268 0
-2255 2268 0
-64 -2255 2269 0
-2256 2269 0
-64 -2256 2270 0
-2257 2270 0
-64 -2257 2271 0
-2258 2271 0
-64 -2258 2272 0
-2259 2272 0
-64 -2259 2273 0
-2260 2273 0
-64 -2260 2274 0
-2261 2274 0
-64 -2261 2275 0
-2262 2275 0
-64 -2262 2276 0
-2263 2276 0
-64 -2263 2277 0
-2264 2277 0
-64 -2264 2278 0
-2265 2278 0
-64 -2265 2279 0
-2266 2279 0
-64 -2266 2280 0
-2267 2280 0
-64 -2267 0
-65 2281 0
-2268 2281 0
-65 -2268 2282 0
-2269 2282 0
-65 -2269 2283 0
-2270 2283 0
-65 -2270 2284 0
-2271 2284 0
-65 -2271 2285 0
-2272 2285 0
-65 -2272 2286 0
-2273 2286 0
-65 -2273 2287 0
-2274 2287 0
-65 -2274 2288 0
-2275 2288 0
-65 -2275 2289 0
-2276 2289 0
-65 -2276 2290 0
-2277 2290 0
-65 -2277 2291 0
-2278 2291 0
-65 -2278 2292 0
-2279 2292 0
-65 -2279 2293 0
-2280 2293 0
-65 -2280 0
-66 2294 0
-2281 2294 0
-66 -2281 2295 0
-2282 2295 0
-66 -2282 2296 0
-2283 2296 0
-66 -2283 2297 0
-2284 2297 0
-66 -2284 2298 0
-2285 2298 0
-66 -2285 2299 0
-2286 2299 0
-66 -2286 2300 0
-2287 2300 0
-66 -2287 2301 0
-2288 2301 0
-66 -2288 2302 0
-2289 2302 0
-66 -2289 2303 0
-2290 2303 0
-66 -2290 2304 0
-2291 2304 0
-66 -2291 2305 0
-2292 2305 0
-66 -2292 2306 0
-2293 2306 0
-66 -2293 0
-67 2307 0
-2294 2307 0
-67 -2294 2308 0
-2295 2308 0
-67 -2295 2309 0
-2296 2309 0
-67 -2296 2310 0
-2297 2310 0
-67 -2297 2311 0
-2298 2311 0
-67 -2298 2312 0
-2299 2312 0
-67 -2299 2313 0
-2300 2313 0
-67 -2300 2314 0
-2301 2314 0
-67 -2301 2315 0
-2302 2315 0
-67 -2302 2316 0
-2303 2316 0
-67 -2303 2317 0
-2304 2317 0
-67 -2304 2318 0
-2305 2318 0
-67 -2305 2319 0
-2306 2319 0
-67 -2306 0
-68 2320 0
-2307 2320 0
-68 -2307 2321 0
-2308 2321 0
-68 -2308 2322 0
-2309 2322 0
-68 -2309 2323 0
-2310 2323 0
-68 -2310 2324 0
-2311 2324 0
-68 -2311 2325 0
-2312 2325 0
-68 -2312 2326 0
-2313 2326 0
-68 -2313 2327 0
-2314 2327 0
-68 -2314 2328 0
-2315 2328 0
-68 -2315 2329 0
-2316 2329 0
-68 -2316 2330 0
-2317 2330 0
-68 -2317 2331 0
-2318 2331 0
-68 -2318 2332 0
-2319 2332 0
-68 -2319 0
-69 2333 0
-2320 2333 0
-69 -2320 2334 0
-2321 2334 0
-69 -2321 2335 0
-2322 2335 0
-69 -2322 2336 0
-2323 2336 0
-69 -2323 2337 0
-2324 2337 0
-69 -2324 2338 0
-2325 2338 0
-69 -2325 2339 0
-2326 2339 0
-69 -2326 2340 0
-2327 2340 0
-69 -2327 2341 0
-2328 2341 0
-69 -2328 2342 0
-2329 2342 0
-69 -2329 2343 0
-2330 2343 0
-69 -2330 2344 0
-2331 2344 0
-69 -2331 2345 0
-2332 2345 0
-69 -2332 0
-70 2346 0
-2333 2346 0
-70 -2333 2347 0
-2334 2347 0
-70 -2334 2348 0
-2335 2348 0
-70 -2335 2349 0
-2336 2349 0
-70 -2336 2350 0
-2337 2350 0
-70 -2337 2351 0
-2338 2351 0
-70 -2338 2352 0
-2339 2352 0
-70 -2339 2353 0
-2340 2353 0
-70 -2340 2354 0
-2341 2354 0
-70 -2341 2355 0
-2342 2355 0
-70 -2342 2356 0
-2343 2356 0
-70 -2343 2357 0
-2344 2357 0
-70 -2344 2358 0
-2345 2358 0
-70 -2345 0
-71 2359 0
-2346 2359 0
-71 -2346 2360 0
-2347 2360 0
-71 -2347 2361 0
-2348 2361 0
-71 -2348 2362 0
-2349 2362 0
-71 -2349 2363 0
-2350 2363 0
-71 -2350 2364 0
-2351 2364 0
-71 -2351 2365 0
-2352 2365 0
-71 -2352 2366 0
-2353 2366 0
-71 -2353 2367 0
-2354 2367 0
-71 -2354 2368 0
-2355 2368 0
-71 -2355 2369 0
-2356 2369 0
-71 -2356 2370 0
-2357 2370 0
-71 -2357 2371 0
-2358 2371 0
-71 -2358 0
-72 2372 0
-2359 2372 0
-72 -2359 2373 0
-2360 2373 0
-72 -2360 2374 0
-2361 2374 0
-72 -2361 2375 0
-2362 2375 0
-72 -2362 2376 0
-2363 2376 0
-72 -2363 2377 0
-2364 2377 0
-72 -2364 2378 0
-2365 2378 0
-72 -2365 2379 0
-2366 2379 0
-72 -2366 2380 0
-2367 2380 0
-72 -2367 2381 0
-2368 2381 0
-72 -2368 2382 0
-2369 2382 0
-72 -2369 2383 0
-2370 2383 0
-72 -2370 2384 0
-2371 2384 0
-72 -2371 0
-73 2385 0
-2372 2385 0
-73 -2372 2386 0
-2373 2386 0
-73 -2373 2387 0
-2374 2387 0
-73 -2374 2388 0
-2375 2388 0
-73 -2375 2389 0
-2376 2389 0
-73 -2376 2390 0
-2377 2390 0
-73 -2377 2391 0
-2378 2391 0
-73 -2378 2392 0
-2379 2392 0
-73 -2379 2393 0
-2380 2393 0
-73 -2380 2394 0
-2381 2394 0
-73 -2381 2395 0
-2382 2395 0
-73 -2382 2396 0
-2383 2396 0
-73 -2383 2397 0
-2384 2397 0
-73 -2384 0
-74 2398 0
-2385 2398 0
-74 -2385 2399 0
-2386 2399 0
-74 -2386 2400 0
-2387 2400 0
-74 -2387 2401 0
-2388 2401 0
-74 -2388 2402 0
-2389 2402 0
-74 -2389 2403 0
-2390 2403 0
-74 -2390 2404 0
-2391 2404 0
-74 -2391 2405 0
-2392 2405 0
-74 -2392 2406 0
-2393 2406 0
-74 -2393 2407 0
-2394 2407 0
-74 -2394 2408 0
-2395 2408 0
-74 -2395 2409 0
-2396 2409 0
-74 -2396 2410 0
-2397 2410 0
-74 -2397 0
-75 2411 0
-2398 2411 0
-75 -2398 2412 0
-2399 2412 0
-75 -2399 2413 0
-2400 2413 0
-75 -2400 2414 0
-2401 2414 0
-75 -2401 2415 0
-2402 2415 0
-75 -2402 2416 0
-2403 2416 0
-75 -2403 2417 0
-2404 2417 0
-75 -2404 2418 0
-2405 2418 0
-75 -2405 2419 0
-2406 2419 0
-75 -2406 2420 0
-2407 2420 0
-75 -2407 2421 0
-2408 2421 0
-75 -2408 2422 0
-2409 2422 0
-75 -2409 2423 0
-2410 2423 0
-75 -2410 0
-76 2424 0
-2411 2424 0
-76 -2411 2425 0
-2412 2425 0
-76 -2412 2426 0
-2413 2426 0
-76 -2413 2427 0
-2414 2427 0
-76 -2414 2428 0
-2415 2428 0
-76 -2415 2429 0
-2416 2429 0
-76 -2416 2430 0
-2417 2430 0
-76 -2417 2431 0
-2418 2431 0
-76 -2418 2432 0
-2419 2432 0
-76 -2419 2433 0
-2420 2433 0
-76 -2420 2434 0
-2421 2434 0
-76 -2421 2435 0
-2422 2435 0
-76 -2422 2436 0
-2423 2436 0
-76 -2423 0
-77 2437 0
-2424 2437 0
-77 -2424 2438 0
-2425 2438 0
-77 -2425 2439 0
-2426 2439 0
-77 -2426 2440 0
-2427 2440 0
-77 -2427 2441 0
-2428 2441 0
-77 -2428 2442 0
-2429 2442 0
-77 -2429 2443 0
-2430 2443 0
-77 -2430 2444 0
-2431 2444 0
-77 -2431 2445 0
-2432 2445 0
-77 -2432 2446 0
-2433 2446 0
-77 -2433 2447 0
-2434 2447 0
-77 -2434 2448 0
-2435 2448 0
-77 -2435 2449 0
-2436 2449 0
-77 -2436 0
-78 2450 0
-2437 2450 0
-78 -2437 2451 0
-2438 2451 0
-78 -2438 2452 0
-2439 2452 0
-78 -2439 2453 0
-2440 2453 0
-78 -2440 2454 0
-2441 2454 0
-78 -2441 2455 0
-2442 2455 0
-78 -2442 2456 0
-2443 2456 0
-78 -2443 2457 0
-2444 2457 0
-78 -2444 2458 0
-2445 2458 0
-78 -2445 2459 0
-2446 2459 0
-78 -2446 2460 0
-2447 2460 0
-78 -2447 2461 0
-2448 2461 0
-78 -2448 2462 0
-2449 2462 0
-78 -2449 0
-79 2463 0
-2450 2463 0
-79 -2450 2464 0
-2451 2464 0
-79 -2451 2465 0
-2452 2465 0
-79 -2452 2466 0
-2453 2466 0
-79 -2453 2467 0
-2454 2467 0
-79 -2454 2468 0
-2455 2468 0
-79 -2455 2469 0
-2456 2469 0
-79 -2456 2470 0
-2457 2470 0
-79 -2457 2471 0
-2458 2471 0
-79 -2458 2472 0
-2459 2472 0
-79 -2459 2473 0
-2460 2473 0
-79 -2460 2474 0
-2461 2474 0
-79 -2461 2475 0
-2462 2475 0
-79 -2462 0
-80 2476 0
-2463 2476 0
-80 -2463 2477 0
-2464 2477 0
-80 -2464 2478 0
-2465 2478 0
-80 -2465 2479 0
-2466 2479 0
-80 -2466 2480 0
-2467 2480 0
-80 -2467 2481 0
-2468 2481 0
-80 -2468 2482 0
-2469 2482 0
-80 -2469 2483 0
-2470 2483 0
-80 -2470 2484 0
-2471 2484 0
-80 -2471 2485 0
-2472 2485 0
-80 -2472 2486 0
-2473 2486 0
-80 -2473 2487 0
-2474 2487 0
-80 -2474 2488 0
-2475 2488 0
-80 -2475 0
-81 2489 0
-2476 2489 0
-81 -2476 2490 0
-2477 2490 0
-81 -2477 2491 0
-2478 2491 0
-81 -2478 2492 0
-2479 2492 0
-81 -2479 2493 0
-2480 2493 0
-81 -2480 2494 0
-2481 2494 0
-81 -2481 2495 0
-2482 2495 0
-81 -2482 2496 0
-2483 2496 0
-81 -2483 2497 0
-2484 2497 0
-81 -2484 2498 0
-2485 2498 0
-81 -2485 2499 0
-2486 2499 0
-81 -2486 2500 0
-2487 2500 0
-81 -2487 2501 0
-2488 2501 0
-81 -2488 0
-82 2502 0
-2489 2502 0
-82 -2489 2503 0
-2490 2503 0
-82 -2490 2504 0
-2491 2504 0
-82 -2491 2505 0
-2492 2505 0
-82 -2492 2506 0
-2493 2506 0
-82 -2493 2507 0
-2494 2507 0
-82 -2494 2508 0
-2495 2508 0
-82 -2495 2509 0
-2496 2509 0
-82 -2496 2510 0
-2497 2510 0
-82 -2497 2511 0
-2498 2511 0
-82 -2498 2512 0
-2499 2512 0
-82 -2499 2513 0
-2500 2513 0
-82 -2500 2514 0
-2501 2514 0
-82 -2501 0
-83 2515 0
-2502 2515 0
-83 -2502 2516 0
-2503 2516 0
-83 -2503 2517 0
-2504 2517 0
-83 -2504 2518 0
-2505 2518 0
-83 -2505 2519 0
-2506 2519 0
-83 -2506 2520 0
-2507 2520 0
-83 -2507 2521 0
-2508 2521 0
-83 -2508 2522 0
-2509 2522 0
-83 -2509 2523 0
-2510 2523 0
-83 -2510 2524 0
-2511 2524 0
-83 -2511 2525 0
-2512 2525 0
-83 -2512 2526 0
-2513 2526 0
-83 -2513 2527 0
-2514 2527 0
-83 -2514 0
-84 2528 0
-2515 2528 0
-84 -2515 2529 0
-2516 2529 0
-84 -2516 2530 0
-2517 2530 0
-84 -2517 2531 0
-2518 2531 0
-84 -2518 2532 0
-2519 2532 0
-84 -2519 2533 0
-2520 2533 0
-84 -2520 2534 0
-2521 2534 0
-84 -2521 2535 0
-2522 2535 0
-84 -2522 2536 0
-2523 2536 0
-84 -2523 2537 0
-2524 2537 0
-84 -2524 2538 0
-2525 2538 0
-84 -2525 2539 0
-2526 2539 0
-84 -2526 2540 0
-2527 2540 0
-84 -2527 0
-85 2541 0
-2528 2541 0
-85 -2528 2542 0
-2529 2542 0
-85 -2529 2543 0
-2530 2543 0
-85 -2530 2544 0
-2531 2544 0
-85 -2531 2545 0
-2532 2545 0
-85 -2532 2546 0
-2533 2546 0
-85 -2533 2547 0
-2534 2547 0
-85 -2534 2548 0
-2535 2548 0
-85 -2535 2549 0
-2536 2549 0
-85 -2536 2550 0
-2537 2550 0
-85 -2537 2551 0
-2538 2551 0
-85 -2538 2552 0
-2539 2552 0
-85 -2539 2553 0
-2540 2553 0
-85 -2540 0
-86 2554 0
-2541 2554 0
-86 -2541 2555 0
-2542 2555 0
-86 -2542 2556 0
-2543 2556 0
-86 -2543 2557 0
-2544 2557 0
-86 -2544 2558 0
-2545 2558 0
-86 -2545 2559 0
-2546 2559 0
-86 -2546 2560 0
-2547 2560 0
-86 -2547 2561 0
-2548 2561 0
-86 -2548 2562 0
-2549 2562 0
-86 -2549 2563 0
-2550 2563 0
-86 -2550 2564 0
-2551 2564 0
-86 -2551 2565 0
-2552 2565 0
-86 -2552 2566 0
-2553 2566 0
-86 -2553 0
-87 2567 0
-2554 2567 0
-87 -2554 2568 0
-2555 2568 0
-87 -2555 2569 0
-2556 2569 0
-87 -2556 2570 0
-2557 2570 0
-87 -2557 2571 0
-2558 2571 0
-87 -2558 2572 0
-2559 2572 0
-87 -2559 2573 0
-2560 2573 0
-87 -2560 2574 0
-2561 2574 0
-87 -2561 2575 0
-2562 2575 0
-87 -2562 2576 0
-2563 2576 0
-87 -2563 2577 0
-2564 2577 0
-87 -2564 2578 0
-2565 2578 0
-87 -2565 2579 0
-2566 2579 0
-87 -2566 0
-88 2580 0
-2567 2580 0
-88 -2567 2581 0
-2568 2581 0
-88 -2568 2582 0
-2569 2582 0
-88 -2569 2583 0
-2570 2583 0
-88 -2570 2584 0
-2571 2584 0
-88 -2571 2585 0
-2572 2585 0
-88 -2572 2586 0
-2573 2586 0
-88 -2573 2587 0
-2574 2587 0
-88 -2574 2588 0
-2575 2588 0
-88 -2575 2589 0
-2576 2589 0
-88 -2576 2590 0
-2577 2590 0
-88 -2577 2591 0
-2578 2591 0
-88 -2578 2592 0
-2579 2592 0
-88 -2579 0
-89 2593 0
-2580 2593 0
-89 -2580 2594 0
-2581 2594 0
-89 -2581 2595 0
-2582 2595 0
-89 -2582 2596 0
-2583 2596 0
-89 -2583 2597 0
-2584 2597 0
-89 -2584 2598 0
-2585 2598 0
-89 -2585 2599 0
-2586 2599 0
-89 -2586 2600 0
-2587 2600 0
-89 -2587 2601 0
-2588 2601 0
-89 -2588 2602 0
-2589 2602 0
-89 -2589 2603 0
-2590 2603 0
-89 -2590 2604 0
-2591 2604 0
-89 -2591 2605 0
-2592 2605 0
-89 -2592 0
-90 2606 0
-2593 2606 0
-90 -2593 2607 0
-2594 2607 0
-90 -2594 2608 0
-2595 2608 0
-90 -2595 2609 0
-2596 2609 0
-90 -2596 2610 0
-2597 2610 0
-90 -2597 2611 0
-2598 2611 0
-90 -2598 2612 0
-2599 2612 0
-90 -2599 2613 0
-2600 2613 0
-90 -2600 2614 0
-2601 2614 0
-90 -2601 2615 0
-2602 2615 0
-90 -2602 2616 0
-2603 2616 0
-90 -2603 2617 0
-2604 2617 0
-90 -2604 2618 0
-2605 2618 0
-90 -2605 0
-91 2619 0
-2606 2619 0
-91 -2606 2620 0
-2607 2620 0
-91 -2607 2621 0
-2608 2621 0
-91 -2608 2622 0
-2609 2622 0
-91 -2609 2623 0
-2610 2623 0
-91 -2610 2624 0
-2611 2624 0
-91 -2611 2625 0
-2612 2625 0
-91 -2612 2626 0
-2613 2626 0
-91 -2613 2627 0
-2614 2627 0
-91 -2614 2628 0
-2615 2628 0
-91 -2615 2629 0
-2616 2629 0
-91 -2616 2630 0
-2617 2630 0
-91 -2617 2631 0
-2618 2631 0
-91 -2618 0
-92 2632 0
-2619 2632 0
-92 -2619 2633 0
-2620 2633 0
-92 -2620 2634 0
-2621 2634 0
-92 -2621 2635 0
-2622 2635 0
-92 -2622 2636 0
-2623 2636 0
-92 -2623 2637 0
-2624 2637 0
-92 -2624 2638 0
-2625 2638 0
-92 -2625 2639 0
-2626 2639 0
-92 -2626 2640 0
-2627 2640 0
-92 -2627 2641 0
-2628 2641 0
-92 -2628 2642 0
-2629 2642 0
-92 -2629 2643 0
-2630 2643 0
-92 -2630 2644 0
-2631 2644 0
-92 -2631 0
-93 2645 0
-2632 2645 0
-93 -2632 2646 0
-2633 2646 0
-93 -2633 2647 0
-2634 2647 0
-93 -2634 2648 0
-2635 2648 0
-93 -2635 2649 0
-2636 2649 0
-93 -2636 2650 0
-2637 2650 0
-93 -2637 2651 0
-2638 2651 0
-93 -2638 2652 0
-2639 2652 0
-93 -2639 2653 0
-2640 2653 0
-93 -2640 2654 0
-2641 2654 0
-93 -2641 2655 0
-2642 2655 0
-93 -2642 2656 0
-2643 2656 0
-93 -2643 2657 0
-2644 2657 0
-93 -2644 0
-94 2658 0
-2645 2658 0
-94 -2645 2659 0
-2646 2659 0
-94 -2646 2660 0
-2647 2660 0
-94 -2647 2661 0
-2648 2661 0
-94 -2648 2662 0
-2649 2662 0
-94 -2649 2663 0
-2650 2663 0
-94 -2650 2664 0
-2651 2664 0
-94 -2651 2665 0
-2652 2665 0
-94 -2652 2666 0
-2653 2666 0
-94 -2653 2667 0
-2654 2667 0
-94 -2654 2668 0
-2655 2668 0
-94 -2655 2669 0
-2656 2669 0
-94 -2656 2670 0
-2657 2670 0
-94 -2657 0
-95 2671 0
-2658 2671 0
-95 -2658 2672 0
-2659 2672 0
-95 -2659 2673 0
-2660 2673 0
-95 -2660 2674 0
-2661 2674 0
-95 -2661 2675 0
-2662 2675 0
-95 -2662 2676 0
-2663 2676 0
-95 -2663 2677 0
-2664 2677 0
-95 -2664 2678 0
-2665 2678 0
-95 -2665 2679 0
-2666 2679 0
-95 -2666 2680 0
-2667 2680 0
-95 -2667 2681 0
-2668 2681 0
-95 -2668 2682 0
-2669 2682 0
-95 -2669 2683 0
-2670 2683 0
-95 -2670 0
-96 2684 0
-2671 2684 0
-96 -2671 2685 0
-2672 2685 0
-96 -2672 2686 0
-2673 2686 0
-96 -2673 2687 0
-2674 2687 0
-96 -2674 2688 0
-2675 2688 0
-96 -2675 2689 0
-2676 2689 0
-96 -2676 2690 0
-2677 2690 0
-96 -2677 2691 0
-2678 2691 0
-96 -2678 2692 0
-2679 2692 0
-96 -2679 2693 0
-2680 2693 0
-96 -2680 2694 0
-2681 2694 0
-96 -2681 2695 0
-2682 2695 0
-96 -2682 2696 0
-2683 2696 0
-96 -2683 0
-97 2697 0
-2684 2697 0
-97 -2684 2698 0
-2685 2698 0
-97 -2685 2699 0
-2686 2699 0
-97 -2686 2700 0
-2687 2700 0
-97 -2687 2701 0
-2688 2701 0
-97 -2688 2702 0
-2689 2702 0
-97 -2689 2703 0
-2690 2703 0
-97 -2690 2704 0
-2691 2704 0
-97 -2691 2705 0
-2692 2705 0
-97 -2692 2706 0
-2693 2706 0
-97 -2693 2707 0
-2694 2707 0
-97 -2694 2708 0
-2695 2708 0
-97 -2695 2709 0
-2696 2709 0
-97 -2696 0
-98 2710 0
-2697 2710 0
-98 -2697 2711 0
-2698 2711 0
-98 -2698 2712 0
-2699 2712 0
-98 -2699 2713 0
-2700 2713 0
-98 -2700 2714 0
-2701 2714 0
-98 -2701 2715 0
-2702 2715 0
-98 -2702 2716 0
-2703 2716 0
-98 -2703 2717 0
-2704 2717 0
-98 -2704 2718 0
-2705 2718 0
-98 -2705 2719 0
-2706 2719 0
-98 -2706 2720 0
-2707 2720 0
-98 -2707 2721 0
-2708 2721 0
-98 -2708 2722 0
-2709 2722 0
-98 -2709 0
-99 2723 0
-2710 2723 0
-99 -2710 2724 0
-2711 2724 0
-99 -2711 2725 0
-2712 2725 0
-99 -2712 2726 0
-2713 2726 0
-99 -2713 2727 0
-2714 2727 0
-99 -2714 2728 0
-2715 2728 0
-99 -2715 2729 0
-2716 2729 0
-99 -2716 2730 0
-2717 2730 0
-99 -2717 2731 0
-2718 2731 0
-99 -2718 2732 0
-2719 2732 0
-99 -2719 2733 0
-2720 2733 0
-99 -2720 2734 0
-2721 2734 0
-99 -2721 2735 0
-2722 2735 0
-99 -2722 0
-100 2736 0
-2723 2736 0
-100 -2723 2737 0
-2724 2737 0
-100 -2724 2738 0
-2725 2738 0
-100 -2725 2739 0
-2726 2739 0
-100 -2726 2740 0
-2727 2740 0
-100 -2727 2741 0
-2728 2741 0
-100 -2728 2742 0
-2729 2742 0
-100 -2729 2743 0
-2730 2743 0
-100 -2730 2744 0
-2731 2744 0
-100 -2731 2745 0
-2732 2745 0
-100 -2732 2746 0
-2733 2746 0
-100 -2733 2747 0
-2734 2747 0
-100 -2734 2748 0
-2735 2748 0
-100 -2735 0
-101 2749 0
-2736 2749 0
-101 -2736 2750 0
-2737 2750 0
-101 -2737 2751 0
-2738 2751 0
-101 -2738 2752 0
-2739 2752 0
-101 -2739 2753 0
-2740 2753 0
-101 -2740 2754 0
-2741 2754 0
-101 -2741 2755 0
-2742 2755 0
-101 -2742 2756 0
-2743 2756 0
-101 -2743 2757 0
-2744 2757 0
-101 -2744 2758 0
-2745 2758 0
-101 -2745 2759 0
-2746 2759 0
-101 -2746 2760 0
-2747 2760 0
-101 -2747 2761 0
-2748 2761 0
-101 -2748 0
-102 2762 0
-2749 2762 0
-102 -2749 2763 0
-2750 2763 0
-102 -2750 2764 0
-2751 2764 0
-102 -2751 2765 0
-2752 2765 0
-102 -2752 2766 0
-2753 2766 0
-102 -2753 2767 0
-2754 2767 0
-102 -2754 2768 0
-2755 2768 0
-102 -2755 2769 0
-2756 2769 0
-102 -2756 2770 0
-2757 2770 0
-102 -2757 2771 0
-2758 2771 0
-102 -2758 2772 0
-2759 2772 0
-102 -2759 2773 0
-2760 2773 0
-102 -2760 2774 0
-2761 2774 0
-102 -2761 0
-103 2775 0
-2762 2775 0
-103 -2762 2776 0
-2763 2776 0
-103 -2763 2777 0
-2764 2777 0
-103 -2764 2778 0
-2765 2778 0
-103 -2765 2779 0
-2766 2779 0
-103 -2766 2780 0
-2767 2780 0
-103 -2767 2781 0
-2768 2781 0
-103 -2768 2782 0
-2769 2782 0
-103 -2769 2783 0
-2770 2783 0
-103 -2770 2784 0
-2771 2784 0
-103 -2771 2785 0
-2772 2785 0
-103 -2772 2786 0
-2773 2786 0
-103 -2773 2787 0
-2774 2787 0
-103 -2774 0
-104 2788 0
-2775 2788 0
-104 -2775 2789 0
-2776 2789 0
-104 -2776 2790 0
-2777 2790 0
-104 -2777 2791 0
-2778 2791 0
-104 -2778 2792 0
-2779 2792 0
-104 -2779 2793 0
-2780 2793 0
-104 -2780 2794 0
-2781 2794 0
-104 -2781 2795 0
-2782 2795 0
-104 -2782 2796 0
-2783 2796 0
-104 -2783 2797 0
-2784 2797 0
-104 -2784 2798 0
-2785 2798 0
-104 -2785 2799 0
-2786 2799 0
-104 -2786 2800 0
-2787 2800 0
-104 -2787 0
-105 2801 0
-2788 2801 0
-105 -2788 2802 0
-2789 2802 0
-105 -2789 2803 0
-2790 2803 0
-105 -2790 2804 0
-2791 2804 0
-105 -2791 2805 0
-2792 2805 0
-105 -2792 2806 0
-2793 2806 0
-105 -2793 2807 0
-2794 2807 0
-105 -2794 2808 0
-2795 2808 0
-105 -2795 2809 0
-2796 2809 0
-105 -2796 2810 0
-2797 2810 0
-105 -2797 2811 0
-2798 2811 0
-105 -2798 2812 0
-2799 2812 0
-105 -2799 2813 0
-2800 2813 0
-105 -2800 0
-106 2814 0
-2801 2814 0
-106 -2801 2815 0
-2802 2815 0
-106 -2802 2816 0
-2803 2816 0
-106 -2803 2817 0
-2804 2817 0
-106 -2804 2818 0
-2805 2818 0
-106 -2805 2819 0
-2806 2819 0
-106 -2806 2820 0
-2807 2820 0
-106 -2807 2821 0
-2808 2821 0
-106 -2808 2822 0
-2809 2822 0
-106 -2809 2823 0
-2810 2823 0
-106 -2810 2824 0
-2811 2824 0
-106 -2811 2825 0
-2812 2825 0
-106 -2812 2826 0
-2813 2826 0
-106 -2813 0
-107 2827 0
-2814 2827 0
-107 -2814 2828 0
-2815 2828 0
-107 -2815 2829 0
-2816 2829 0
-107 -2816 2830 0
-2817 2830 0
-107 -2817 2831 0
-2818 2831 0
-107 -2818 2832 0
-2819 2832 0
-107 -2819 2833 0
-2820 2833 0
-107 -2820 2834 0
-2821 2834 0
-107 -2821 2835 0
-2822 2835 0
-107 -2822 2836 0
-2823 2836 0
-107 -2823 2837 0
-2824 2837 0
-107 -2824 2838 0
-2825 2838 0
-107 -2825 2839 0
-2826 2839 0
-107 -2826 0
-108 2840 0
-2827 2840 0
-108 -2827 2841 0
-2828 2841 0
-108 -2828 2842 0
-2829 2842 0
-108 -2829 2843 0
-2830 2843 0
-108 -2830 2844 0
-2831 2844 0
-108 -2831 2845 0
-2832 2845 0
-108 -2832 2846 0
-2833 2846 0
-108 -2833 2847 0
-2834 2847 0
-108 -2834 2848 0
-2835 2848 0
-108 -2835 2849 0
-2836 2849 0
-108 -2836 2850 0
-2837 2850 0
-108 -2837 2851 0
-2838 2851 0
-108 -2838 2852 0
-2839 2852 0
-108 -2839 0
-109 2853 0
-2840 2853 0
-109 -2840 2854 0
-2841 2854 0
-109 -2841 2855 0
-2842 2855 0
-109 -2842 2856 0
-2843 2856 0
-109 -2843 2857 0
-2844 2857 0
-109 -2844 2858 0
-2845 2858 0
-109 -2845 2859 0
-2846 2859 0
-109 -2846 2860 0
-2847 2860 0
-109 -2847 2861 0
-2848 2861 0
-109 -2848 2862 0
-2849 2862 0
-109 -2849 2863 0
-2850 2863 0
-109 -2850 2864 0
-2851 2864 0
-109 -2851 2865 0
-2852 2865 0
-109 -2852 0
-110 2866 0
-2853 2866 0
-110 -2853 2867 0
-2854 2867 0
-110 -2854 2868 0
-2855 2868 0
-110 -2855 2869 0
-2856 2869 0
-110 -2856 2870 0
-2857 2870 0
-110 -2857 2871 0
-2858 2871 0
-110 -2858 2872 0
-2859 2872 0
-110 -2859 2873 0
-2860 2873 0
-110 -2860 2874 0
-2861 2874 0
-110 -2861 2875 0
-2862 2875 0
-110 -2862 2876 0
-2863 2876 0
-110 -2863 2877 0
-2864 2877 0
-110 -2864 2878 0
-2865 2878 0
-110 -2865 0
-111 2879 0
-2866 2879 0
-111 -2866 2880 0
-2867 2880 0
-111 -2867 2881 0
-2868 2881 0
-111 -2868 2882 0
-2869 2882 0
-111 -2869 2883 0
-2870 2883 0
-111 -2870 2884 0
-2871 2884 0
-111 -2871 2885 0
-2872 2885 0
-111 -2872 2886 0
-2873 2886 0
-111 -2873 2887 0
-2874 2887 0
-111 -2874 2888 0
-2875 2888 0
-111 -2875 2889 0
-2876 2889 0
-111 -2876 2890 0
-2877 2890 0
-111 -2877 2891 0
-2878 2891 0
-111 -2878 0
-112 2892 0
-2879 2892 0
-112 -2879 2893 0
-2880 2893 0
-112 -2880 2894 0
-2881 2894 0
-112 -2881 2895 0
-2882 2895 0
-112 -2882 2896 0
-2883 2896 0
-112 -2883 2897 0
-2884 2897 0
-112 -2884 2898 0
-2885 2898 0
-112 -2885 2899 0
-2886 2899 0
-112 -2886 2900 0
-2887 2900 0
-112 -2887 2901 0
-2888 2901 0
-112 -2888 2902 0
-2889 2902 0
-112 -2889 2903 0
-2890 2903 0
-112 -2890 2904 0
-2891 2904 0
-112 -2891 0
-113 2905 0
-2892 2905 0
-113 -2892 2906 0
-2893 2906 0
-113 -2893 2907 0
-2894 2907 0
-113 -2894 2908 0
-2895 2908 0
-113 -2895 2909 0
-2896 2909 0
-113 -2896 2910 0
-2897 2910 0
-113 -2897 2911 0
-2898 2911 0
-113 -2898 2912 0
-2899 2912 0
-113 -2899 2913 0
-2900 2913 0
-113 -2900 2914 0
-2901 2914 0
-113 -2901 2915 0
-2902 2915 0
-113 -2902 2916 0
-2903 2916 0
-113 -2903 2917 0
-2904 2917 0
-113 -2904 0
-114 2918 0
-2905 2918 0
-114 -2905 2919 0
-2906 2919 0
-114 -2906 2920 0
-2907 2920 0
-114 -2907 2921 0
-2908 2921 0
-114 -2908 2922 0
-2909 2922 0
-114 -2909 2923 0
-2910 2923 0
-114 -2910 2924 0
-2911 2924 0
-114 -2911 2925 0
-2912 2925 0
-114 -2912 2926 0
-2913 2926 0
-114 -2913 2927 0
-2914 2927 0
-114 -2914 2928 0
-2915 2928 0
-114 -2915 2929 0
-2916 2929 0
-114 -2916 2930 0
-2917 2930 0
-114 -2917 0
-115 2931 0
-2918 2931 0
-115 -2918 2932 0
-2919 2932 0
-115 -2919 2933 0
-2920 2933 0
-115 -2920 2934 0
-2921 2934 0
-115 -2921 2935 0
-2922 2935 0
-115 -2922 2936 0
-2923 2936 0
-115 -2923 2937 0
-2924 2937 0
-115 -2924 2938 0
-2925 2938 0
-115 -2925 2939 0
-2926 2939 0
-115 -2926 2940 0
-2927 2940 0
-115 -2927 2941 0
-2928 2941 0
-115 -2928 2942 0
-2929 2942 0
-115 -2929 2943 0
-2930 2943 0
-115 -2930 0
-116 2944 0
-2931 2944 0
-116 -2931 2945 0
-2932 2945 0
-116 -2932 2946 0
-2933 2946 0
-116 -2933 2947 0
-2934 2947 0
-116 -2934 2948 0
-2935 2948 0
-116 -2935 2949 0
-2936 2949 0
-116 -2936 2950 0
-2937 2950 0
-116 -2937 2951 0
-2938 2951 0
-116 -2938 2952 0
-2939 2952 0
-116 -2939 2953 0
-2940 2953 0
-116 -2940 2954 0
-2941 2954 0
-116 -2941 2955 0
-2942 2955 0
-116 -2942 2956 0
-2943 2956 0
-116 -2943 0
-117 2957 0
-2944 2957 0
-117 -2944 2958 0
-2945 2958 0
-117 -2945 2959 0
-2946 2959 0
-117 -2946 2960 0
-2947 2960 0
-117 -2947 2961 0
-2948 2961 0
-117 -2948 2962 0
-2949 2962 0
-117 -2949 2963 0
-2950 2963 0
-117 -2950 2964 0
-2951 2964 0
-117 -2951 2965 0
-2952 2965 0
-117 -2952 2966 0
-2953 2966 0
-117 -2953 2967 0
-2954 2967 0
-117 -2954 2968 0
-2955 2968 0
-117 -2955 2969 0
-2956 2969 0
-117 -2956 0
-118 2970 0
-2957 2970 0
-118 -2957 2971 0
-2958 2971 0
-118 -2958 2972 0
-2959 2972 0
-118 -2959 2973 0
-2960 2973 0
-118 -2960 2974 0
-2961 2974 0
-118 -2961 2975 0
-2962 2975 0
-118 -2962 2976 0
-2963 2976 0
-118 -2963 2977 0
-2964 2977 0
-118 -2964 2978 0
-2965 2978 0
-118 -2965 2979 0
-2966 2979 0
-118 -2966 2980 0
-2967 2980 0
-118 -2967 2981 0
-2968 2981 0
-118 -2968 2982 0
-2969 2982 0
-118 -2969 0
-119 2983 0
-2970 2983 0
-119 -2970 2984 0
-2971 2984 0
-119 -2971 2985 0
-2972 2985 0
-119 -2972 2986 0
-2973 2986 0
-119 -2973 2987 0
-2974 2987 0
-119 -2974 2988 0
-2975 2988 0
-119 -2975 2989 0
-2976 2989 0
-119 -2976 2990 0
-2977 2990 0
-119 -2977 2991 0
-2978 2991 0
-119 -2978 2992 0
-2979 2992 0
-119 -2979 2993 0
-2980 2993 0
-119 -2980 2994 0
-2981 2994 0
-119 -2981 2995 0
-2982 2995 0
-119 -2982 0
-120 2996 0
-2983 2996 0
-120 -2983 2997 0
-2984 2997 0
-120 -2984 2998 0
-2985 2998 0
-120 -2985 2999 0
-2986 2999 0
-120 -2986 3000 0
-2987 3000 0
-120 -2987 3001 0
-2988 3001 0
-120 -2988 3002 0
-2989 3002 0
-120 -2989 3003 0
-2990 3003 0
-120 -2990 3004 0
-2991 3004 0
-120 -2991 3005 0
-2992 3005 0
-120 -2992 3006 0
-2993 3006 0
-120 -2993 3007 0
-2994 3007 0
-120 -2994 3008 0
-2995 3008 0
-120 -2995 0
-121 3009 0
-2996 3009 0
-121 -2996 3010 0
-2997 3010 0
-121 -2997 3011 0
-2998 3011 0
-121 -2998 3012 0
-2999 3012 0
-121 -2999 3013 0
-3000 3013 0
-121 -3000 3014 0
-3001 3014 0
-121 -3001 3015 0
-3002 3015 0
-121 -3002 3016 0
-3003 3016 0
-121 -3003 3017 0
-3004 3017 0
-121 -3004 3018 0
-3005 3018 0
-121 -3005 3019 0
-3006 3019 0
-121 -3006 3020 0
-3007 3020 0
-121 -3007 3021 0
-3008 3021 0
-121 -3008 0
-122 3022 0
-3009 3022 0
-122 -3009 3023 0
-3010 3023 0
-122 -3010 3024 0
-3011 3024 0
-122 -3011 3025 0
-3012 3025 0
-122 -3012 3026 0
-3013 3026 0
-122 -3013 3027 0
-3014 3027 0
-122 -3014 3028 0
-3015 3028 0
-122 -3015 3029 0
-3016 3029 0
-122 -3016 3030 0
-3017 3030 0
-122 -3017 3031 0
-3018 3031 0
-122 -3018 3032 0
-3019 3032 0
-122 -3019 3033 0
-3020 3033 0
-122 -3020 3034 0
-3021 3034 0
-122 -3021 0
-123 3035 0
-3022 3035 0
-123 -3022 3036 0
-3023 3036 0
-123 -3023 3037 0
-3024 3037 0
-123 -3024 3038 0
-3025 3038 0
-123 -3025 3039 0
-3026 3039 0
-123 -3026 3040 0
-3027 3040 0
-123 -3027 3041 0
-3028 3041 0
-123 -3028 3042 0
-3029 3042 0
-123 -3029 3043 0
-3030 3043 0
-123 -3030 3044 0
-3031 3044 0
-123 -3031 3045 0
-3032 3045 0
-123 -3032 3046 0
-3033 3046 0
-123 -3033 3047 0
-3034 3047 0
-123 -3034 0
-124 3048 0
-3035 3048 0
-124 -3035 3049 0
-3036 3049 0
-124 -3036 3050 0
-3037 3050 0
-124 -3037 3051 0
-3038 3051 0
-124 -3038 3052 0
-3039 3052 0
-124 -3039 3053 0
-3040 3053 0
-124 -3040 3054 0
-3041 3054 0
-124 -3041 3055 0
-3042 3055 0
-124 -3042 3056 0
-3043 3056 0
-124 -3043 3057 0
-3044 3057 0
-124 -3044 3058 0
-3045 3058 0
-124 -3045 3059 0
-3046 3059 0
-124 -3046 3060 0
-3047 3060 0
-124 -3047 0
-125 3061 0
-3048 3061 0
-125 -3048 3062 0
-3049 3062 0
-125 -3049 3063 0
-3050 3063 0
-125 -3050 3064 0
-3051 3064 0
-125 -3051 3065 0
-3052 3065 0
-125 -3052 3066 0
-3053 3066 0
-125 -3053 3067 0
-3054 3067 0
-125 -3054 3068 0
-3055 3068 0
-125 -3055 3069 0
-3056 3069 0
-125 -3056 3070 0
-3057 3070 0
-125 -3057 3071 0
-3058 3071 0
-125 -3058 3072 0
-3059 3072 0
-125 -3059 3073 0
-3060 3073 0
-125 -3060 0
-126 3074 0
-3061 3074 0
-126 -3061 3075 0
-3062 3075 0
-126 -3062 3076 0
-3063 3076 0
-126 -3063 3077 0
-3064 3077 0
-126 -3064 3078 0
-3065 3078 0
-126 -3065 3079 0
-3066 3079 0
-126 -3066 3080 0
-3067 3080 0
-126 -3067 3081 0
-3068 3081 0
-126 -3068 3082 0
-3069 3082 0
-126 -3069 3083 0
-3070 3083 0
-126 -3070 3084 0
-3071 3084 0
-126 -3071 3085 0
-3072 3085 0
-126 -3072 3086 0
-3073 3086 0
-126 -3073 0
-127 3087 0
-3074 3087 0
-127 -3074 3088 0
-3075 3088 0
-127 -3075 3089 0
-3076 3089 0
-127 -3076 3090 0
-3077 3090 0
-127 -3077 3091 0
-3078 3091 0
-127 -3078 3092 0
-3079 3092 0
-127 -3079 3093 0
-3080 3093 0
-127 -3080 3094 0
-3081 3094 0
-127 -3081 3095 0
-3082 3095 0
-127 -3082 3096 0
-3083 3096 0
-127 -3083 3097 0
-3084 3097 0
-127 -3084 3098 0
-3085 3098 0
-127 -3085 3099 0
-3086 3099 0
-127 -3086 0
-128 3100 0
-3087 3100 0
-128 -3087 3101 0
-3088 3101 0
-128 -3088 3102 0
-3089 3102 0
-128 -3089 3103 0
-3090 3103 0
-128 -3090 3104 0
-3091 3104 0
-128 -3091 3105 0
-3092 3105 0
-128 -3092 3106 0
-3093 3106 0
-128 -3093 3107 0
-3094 3107 0
-128 -3094 3108 0
-3095 3108 0
-128 -3095 3109 0
-3096 3109 0
-128 -3096 3110 0
-3097 3110 0
-128 -3097 3111 0
-3098 3111 0
-128 -3098 3112 0
-3099 3112 0
-128 -3099 0
-129 3113 0
-3100 3113 0
-129 -3100 3114 0
-3101 3114 0
-129 -3101 3115 0
-3102 3115 0
-129 -3102 3116 0
-3103 3116 0
-129 -3103 3117 0
-3104 3117 0
-129 -3104 3118 0
-3105 3118 0
-129 -3105 3119 0
-3106 3119 0
-129 -3106 3120 0
-3107 3120 0
-129 -3107 3121 0
-3108 3121 0
-129 -3108 3122 0
-3109 3122 0
-129 -3109 3123 0
-3110 3123 0
-129 -3110 3124 0
-3111 3124 0
-129 -3111 3125 0
-3112 3125 0
-129 -3112 0
-130 3126 0
-3113 3126 0
-130 -3113 3127 0
-3114 3127 0
-130 -3114 3128 0
-3115 3128 0
-130 -3115 3129 0
-3116 3129 0
-130 -3116 3130 0
-3117 3130 0
-130 -3117 3131 0
-3118 3131 0
-130 -3118 3132 0
-3119 3132 0
-130 -3119 3133 0
-3120 3133 0
-130 -3120 3134 0
-3121 3134 0
-130 -3121 3135 0
-3122 3135 0
-130 -3122 3136 0
-3123 3136 0
-130 -3123 3137 0
-3124 3137 0
-130 -3124 3138 0
-3125 3138 0
-130 -3125 0
-131 3139 0
-3126 3139 0
-131 -3126 3140 0
-3127 3140 0
-131 -3127 3141 0
-3128 3141 0
-131 -3128 3142 0
-3129 3142 0
-131 -3129 3143 0
-3130 3143 0
-131 -3130 3144 0
-3131 3144 0
-131 -3131 3145 0
-3132 3145 0
-131 -3132 3146 0
-3133 3146 0
-131 -3133 3147 0
-3134 3147 0
-131 -3134 3148 0
-3135 3148 0
-131 -3135 3149 0
-3136 3149 0
-131 -3136 3150 0
-3137 3150 0
-131 -3137 3151 0
-3138 3151 0
-131 -3138 0
-132 3152 0
-3139 3152 0
-132 -3139 3153 0
-3140 3153 0
-132 -3140 3154 0
-3141 3154 0
-132 -3141 3155 0
-3142 3155 0
-132 -3142 3156 0
-3143 3156 0
-132 -3143 3157 0
-3144 3157 0
-132 -3144 3158 0
-3145 3158 0
-132 -3145 3159 0
-3146 3159 0
-132 -3146 3160 0
-3147 3160 0
-132 -3147 3161 0
-3148 3161 0
-132 -3148 3162 0
-3149 3162 0
-132 -3149 3163 0
-3150 3163 0
-132 -3150 3164 0
-3151 3164 0
-132 -3151 0
-133 3165 0
-3152 3165 0
-133 -3152 3166 0
-3153 3166 0
-133 -3153 3167 0
-3154 3167 0
-133 -3154 3168 0
-3155 3168 0
-133 -3155 3169 0
-3156 3169 0
-133 -3156 3170 0
-3157 3170 0
-133 -3157 3171 0
-3158 3171 0
-133 -3158 3172 0
-3159 3172 0
-133 -3159 3173 0
-3160 3173 0
-133 -3160 3174 0
-3161 3174 0
-133 -3161 3175 0
-3162 3175 0
-133 -3162 3176 0
-3163 3176 0
-133 -3163 3177 0
-3164 3177 0
-133 -3164 0
-134 3178 0
-3165 3178 0
-134 -3165 3179 0
-3166 3179 0
-134 -3166 3180 0
-3167 3180 0
-134 -3167 3181 0
-3168 3181 0
-134 -3168 3182 0
-3169 3182 0
-134 -3169 3183 0
-3170 3183 0
-134 -3170 3184 0
-3171 3184 0
-134 -3171 3185 0
-3172 3185 0
-134 -3172 3186 0
-3173 3186 0
-134 -3173 3187 0
-3174 3187 0
-134 -3174 3188 0
-3175 3188 0
-134 -3175 3189 0
-3176 3189 0
-134 -3176 3190 0
-3177 3190 0
-134 -3177 0
-135 3191 0
-3178 3191 0
-135 -3178 3192 0
-3179 3192 0
-135 -3179 3193 0
-3180 3193 0
-135 -3180 3194 0
-3181 3194 0
-135 -3181 3195 0
-3182 3195 0
-135 -3182 3196 0
-3183 3196 0
-135 -3183 3197 0
-3184 3197 0
-135 -3184 3198 0
-3185 3198 0
-135 -3185 3199 0
-3186 3199 0
-135 -3186 3200 0
-3187 3200 0
-135 -3187 3201 0
-3188 3201 0
-135 -3188 3202 0
-3189 3202 0
-135 -3189 3203 0
-3190 3203 0
-135 -3190 0
-136 3204 0
-3191 3204 0
-136 -3191 3205 0
-3192 3205 0
-136 -3192 3206 0
-3193 3206 0
-136 -3193 3207 0
-3194 3207 0
-136 -3194 3208 0
-3195 3208 0
-136 -3195 3209 0
-3196 3209 0
-136 -3196 3210 0
-3197 3210 0
-136 -3197 3211 0
-3198 3211 0
-136 -3198 3212 0
-3199 3212 0
-136 -3199 3213 0
-3200 3213 0
-136 -3200 3214 0
-3201 3214 0
-136 -3201 3215 0
-3202 3215 0
-136 -3202 3216 0
-3203 3216 0
-136 -3203 0
-137 3217 0
-3204 3217 0
-137 -3204 3218 0
-3205 3218 0
-137 -3205 3219 0
-3206 3219 0
-137 -3206 3220 0
-3207 3220 0
-137 -3207 3221 0
-3208 3221 0
-137 -3208 3222 0
-3209 3222 0
-137 -3209 3223 0
-3210 3223 0
-137 -3210 3224 0
-3211 3224 0
-137 -3211 3225 0
-3212 3225 0
-137 -3212 3226 0
-3213 3226 0
-137 -3213 3227 0
-3214 3227 0
-137 -3214 3228 0
-3215 3228 0
-137 -3215 3229 0
-3216 3229 0
-137 -3216 0
-138 3230 0
-3217 3230 0
-138 -3217 3231 0
-3218 3231 0
-138 -3218 3232 0
-3219 3232 0
-138 -3219 3233 0
-3220 3233 0
-138 -3220 3234 0
-3221 3234 0
-138 -3221 3235 0
-3222 3235 0
-138 -3222 3236 0
-3223 3236 0
-138 -3223 3237 0
-3224 3237 0
-138 -3224 3238 0
-3225 3238 0
-138 -3225 3239 0
-3226 3239 0
-138 -3226 3240 0
-3227 3240 0
-138 -3227 3241 0
-3228 3241 0
-138 -3228 3242 0
-3229 3242 0
-138 -3229 0
-139 3243 0
-3230 3243 0
-139 -3230 3244 0
-3231 3244 0
-139 -3231 3245 0
-3232 3245 0
-139 -3232 3246 0
-3233 3246 0
-139 -3233 3247 0
-3234 3247 0
-139 -3234 3248 0
-3235 3248 0
-139 -3235 3249 0
-3236 3249 0
-139 -3236 3250 0
-3237 3250 0
-139 -3237 3251 0
-3238 3251 0
-139 -3238 3252 0
-3239 3252 0
-139 -3239 3253 0
-3240 3253 0
-139 -3240 3254 0
-3241 3254 0
-139 -3241 3255 0
-3242 3255 0
-139 -3242 0
-140 3256 0
-3243 3256 0
-140 -3243 3257 0
-3244 3257 0
-140 -3244 3258 0
-3245 3258 0
-140 -3245 3259 0
-3246 3259 0
-140 -3246 3260 0
-3247 3260 0
-140 -3247 3261 0
-3248 3261 0
-140 -3248 3262 0
-3249 3262 0
-140 -3249 3263 0
-3250 3263 0
-140 -3250 3264 0
-3251 3264 0
-140 -3251 3265 0
-3252 3265 0
-140 -3252 3266 0
-3253 3266 0
-140 -3253 3267 0
-3254 3267 0
-140 -3254 3268 0
-3255 3268 0
-140 -3255 0
-141 3269 0
-3256 3269 0
-141 -3256 3270 0
-3257 3270 0
-141 -3257 3271 0
-3258 3271 0
-141 -3258 3272 0
-3259 3272 0
-141 -3259 3273 0
-3260 3273 0
-141 -3260 3274 0
-3261 3274 0
-141 -3261 3275 0
-3262 3275 0
-141 -3262 3276 0
-3263 3276 0
-141 -3263 3277 0
-3264 3277 0
-141 -3264 3278 0
-3265 3278 0
-141 -3265 3279 0
-3266 3279 0
-141 -3266 3280 0
-3267 3280 0
-141 -3267 3281 0
-3268 3281 0
-141 -3268 0
-142 3282 0
-3269 3282 0
-142 -3269 3283 0
-3270 3283 0
-142 -3270 3284 0
-3271 3284 0
-142 -3271 3285 0
-3272 3285 0
-142 -3272 3286 0
-3273 3286 0
-142 -3273 3287 0
-3274 3287 0
-142 -3274 3288 0
-3275 3288 0
-142 -3275 3289 0
-3276 3289 0
-142 -3276 3290 0
-3277 3290 0
-142 -3277 3291 0
-3278 3291 0
-142 -3278 3292 0
-3279 3292 0
-142 -3279 3293 0
-3280 3293 0
-142 -3280 3294 0
-3281 3294 0
-142 -3281 0
-143 3295 0
-3282 3295 0
-143 -3282 3296 0
-3283 3296 0
-143 -3283 3297 0
-3284 3297 0
-143 -3284 3298 0
-3285 3298 0
-143 -3285 3299 0
-3286 3299 0
-143 -3286 3300 0
-3287 3300 0
-143 -3287 3301 0
-3288 3301 0
-143 -3288 3302 0
-3289 3302 0
-143 -3289 3303 0
-3290 3303 0
-143 -3290 3304 0
-3291 3304 0
-143 -3291 3305 0
-3292 3305 0
-143 -3292 3306 0
-3293 3306 0
-143 -3293 3307 0
-3294 3307 0
-143 -3294 0
-144 3308 0
-3295 3308 0
-144 -3295 3309 0
-3296 3309 0
-144 -3296 3310 0
-3297 3310 0
-144 -3297 3311 0
-3298 3311 0
-144 -3298 3312 0
-3299 3312 0
-144 -3299 3313 0
-3300 3313 0
-144 -3300 3314 0
-3301 3314 0
-144 -3301 3315 0
-3302 3315 0
-144 -3302 3316 0
-3303 3316 0
-144 -3303 3317 0
-3304 3317 0
-144 -3304 3318 0
-3305 3318 0
-144 -3305 3319 0
-3306 3319 0
-144 -3306 3320 0
-3307 3320 0
-144 -3307 0
-145 3321 0
-3308 3321 0
-145 -3308 3322 0
-3309 3322 0
-145 -3309 3323 0
-3310 3323 0
-145 -3310 3324 0
-3311 3324 0
-145 -3311 3325 0
-3312 3325 0
-145 -3312 3326 0
-3313 3326 0
-145 -3313 3327 0
-3314 3327 0
-145 -3314 3328 0
-3315 3328 0
-145 -3315 3329 0
-3316 3329 0
-145 -3316 3330 0
-3317 3330 0
-145 -3317 3331 0
-3318 3331 0
-145 -3318 3332 0
-3319 3332 0
-145 -3319 3333 0
-3320 3333 0
-145 -3320 0
-146 3334 0
-3321 3334 0
-146 -3321 3335 0
-3322 3335 0
-146 -3322 3336 0
-3323 3336 0
-146 -3323 3337 0
-3324 3337 0
-146 -3324 3338 0
-3325 3338 0
-146 -3325 3339 0
-3326 3339 0
-146 -3326 3340 0
-3327 3340 0
-146 -3327 3341 0
-3328 3341 0
-146 -3328 3342 0
-3329 3342 0
-146 -3329 3343 0
-3330 3343 0
-146 -3330 3344 0
-3331 3344 0
-146 -3331 3345 0
-3332 3345 0
-146 -3332 3346 0
-3333 3346 0
-146 -3333 0
-147 3347 0
-3334 3347 0
-147 -3334 3348 0
-3335 3348 0
-147 -3335 3349 0
-3336 3349 0
-147 -3336 3350 0
-3337 3350 0
-147 -3337 3351 0
-3338 3351 0
-147 -3338 3352 0
-3339 3352 0
-147 -3339 3353 0
-3340 3353 0
-147 -3340 3354 0
-3341 3354 0
-147 -3341 3355 0
-3342 3355 0
-147 -3342 3356 0
-3343 3356 0
-147 -3343 3357 0
-3344 3357 0
-147 -3344 3358 0
-3345 3358 0
-147 -3345 3359 0
-3346 3359 0
-147 -3346 0
-148 3360 0
-3347 3360 0
-148 -3347 3361 0
-3348 3361 0
-148 -3348 3362 0
-3349 3362 0
-148 -3349 3363 0
-3350 3363 0
-148 -3350 3364 0
-3351 3364 0
-148 -3351 3365 0
-3352 3365 0
-148 -3352 3366 0
-3353 3366 0
-148 -3353 3367 0
-3354 3367 0
-148 -3354 3368 0
-3355 3368 0
-148 -3355 3369 0
-3356 3369 0
-148 -3356 3370 0
-3357 3370 0
-148 -3357 3371 0
-3358 3371 0
-148 -3358 3372 0
-3359 3372 0
-148 -3359 0
-149 3373 0
-3360 3373 0
-149 -3360 3374 0
-3361 3374 0
-149 -3361 3375 0
-3362 3375 0
-149 -3362 3376 0
-3363 3376 0
-149 -3363 3377 0
-3364 3377 0
-149 -3364 3378 0
-3365 3378 0
-149 -3365 3379 0
-3366 3379 0
-149 -3366 3380 0
-3367 3380 0
-149 -3367 3381 0
-3368 3381 0
-149 -3368 3382 0
-3369 3382 0
-149 -3369 3383 0
-3370 3383 0
-149 -3370 3384 0
-3371 3384 0
-149 -3371 3385 0
-3372 3385 0
-149 -3372 0
-150 3386 0
-3373 3386 0
-150 -3373 3387 0
-3374 3387 0
-150 -3374 3388 0
-3375 3388 0
-150 -3375 3389 0
-3376 3389 0
-150 -3376 3390 0
-3377 3390 0
-150 -3377 3391 0
-3378 3391 0
-150 -3378 3392 0
-3379 3392 0
-150 -3379 3393 0
-3380 3393 0
-150 -3380 3394 0
-3381 3394 0
-150 -3381 3395 0
-3382 3395 0
-150 -3382 3396 0
-3383 3396 0
-150 -3383 3397 0
-3384 3397 0
-150 -3384 3398 0
-3385 3398 0
-150 -3385 0
-151 3399 0
-3386 3399 0
-151 -3386 3400 0
-3387 3400 0
-151 -3387 3401 0
-3388 3401 0
-151 -3388 3402 0
-3389 3402 0
-151 -3389 3403 0
-3390 3403 0
-151 -3390 3404 0
-3391 3404 0
-151 -3391 3405 0
-3392 3405 0
-151 -3392 3406 0
-3393 3406 0
-151 -3393 3407 0
-3394 3407 0
-151 -3394 3408 0
-3395 3408 0
-151 -3395 3409 0
-3396 3409 0
-151 -3396 3410 0
-3397 3410 0
-151 -3397 3411 0
-3398 3411 0
-151 -3398 0
-152 3412 0
-3399 3412 0
-152 -3399 3413 0
-3400 3413 0
-152 -3400 3414 0
-3401 3414 0
-152 -3401 3415 0
-3402 3415 0
-152 -3402 3416 0
-3403 3416 0
-152 -3403 3417 0
-3404 3417 0
-152 -3404 3418 0
-3405 3418 0
-152 -3405 3419 0
-3406 3419 0
-152 -3406 3420 0
-3407 3420 0
-152 -3407 3421 0
-3408 3421 0
-152 -3408 3422 0
-3409 3422 0
-152 -3409 3423 0
-3410 3423 0
-152 -3410 3424 0
-3411 3424 0
-152 -3411 0
-153 3425 0
-3412 3425 0
-153 -3412 3426 0
-3413 3426 0
-153 -3413 3427 0
-3414 3427 0
-153 -3414 3428 0
-3415 3428 0
-153 -3415 3429 0
-3416 3429 0
-153 -3416 3430 0
-3417 3430 0
-153 -3417 3431 0
-3418 3431 0
-153 -3418 3432 0
-3419 3432 0
-153 -3419 3433 0
-3420 3433 0
-153 -3420 3434 0
-3421 3434 0
-153 -3421 3435 0
-3422 3435 0
-153 -3422 3436 0
-3423 3436 0
-153 -3423 3437 0
-3424 3437 0
-153 -3424 0
-154 3438 0
-3425 3438 0
-154 -3425 3439 0
-3426 3439 0
-154 -3426 3440 0
-3427 3440 0
-154 -3427 3441 0
-3428 3441 0
-154 -3428 3442 0
-3429 3442 0
-154 -3429 3443 0
-3430 3443 0
-154 -3430 3444 0
-3431 3444 0
-154 -3431 3445 0
-3432 3445 0
-154 -3432 3446 0
-3433 3446 0
-154 -3433 3447 0
-3434 3447 0
-154 -3434 3448 0
-3435 3448 0
-154 -3435 3449 0
-3436 3449 0
-154 -3436 3450 0
-3437 3450 0
-154 -3437 0
-155 3451 0
-3438 3451 0
-155 -3438 3452 0
-3439 3452 0
-155 -3439 3453 0
-3440 3453 0
-155 -3440 3454 0
-3441 3454 0
-155 -3441 3455 0
-3442 3455 0
-155 -3442 3456 0
-3443 3456 0
-155 -3443 3457 0
-3444 3457 0
-155 -3444 3458 0
-3445 3458 0
-155 -3445 3459 0
-3446 3459 0
-155 -3446 3460 0
-3447 3460 0
-155 -3447 3461 0
-3448 3461 0
-155 -3448 3462 0
-3449 3462 0
-155 -3449 3463 0
-3450 3463 0
-155 -3450 0
-156 3464 0
-3451 3464 0
-156 -3451 3465 0
-3452 3465 0
-156 -3452 3466 0
-3453 3466 0
-156 -3453 3467 0
-3454 3467 0
-156 -3454 3468 0
-3455 3468 0
-156 -3455 3469 0
-3456 3469 0
-156 -3456 3470 0
-3457 3470 0
-156 -3457 3471 0
-3458 3471 0
-156 -3458 3472 0
-3459 3472 0
-156 -3459 3473 0
-3460 3473 0
-156 -3460 3474 0
-3461 3474 0
-156 -3461 3475 0
-3462 3475 0
-156 -3462 3476 0
-3463 3476 0
-156 -3463 0
-157 3477 0
-3464 3477 0
-157 -3464 3478 0
-3465 3478 0
-157 -3465 3479 0
-3466 3479 0
-157 -3466 3480 0
-3467 3480 0
-157 -3467 3481 0
-3468 3481 0
-157 -3468 3482 0
-3469 3482 0
-157 -3469 3483 0
-3470 3483 0
-157 -3470 3484 0
-3471 3484 0
-157 -3471 3485 0
-3472 3485 0
-157 -3472 3486 0
-3473 3486 0
-157 -3473 3487 0
-3474 3487 0
-157 -3474 3488 0
-3475 3488 0
-157 -3475 3489 0
-3476 3489 0
-157 -3476 0
-158 3490 0
-3477 3490 0
-158 -3477 3491 0
-3478 3491 0
-158 -3478 3492 0
-3479 3492 0
-158 -3479 3493 0
-3480 3493 0
-158 -3480 3494 0
-3481 3494 0
-158 -3481 3495 0
-3482 3495 0
-158 -3482 3496 0
-3483 3496 0
-158 -3483 3497 0
-3484 3497 0
-158 -3484 3498 0
-3485 3498 0
-158 -3485 3499 0
-3486 3499 0
-158 -3486 3500 0
-3487 3500 0
-158 -3487 3501 0
-3488 3501 0
-158 -3488 3502 0
-3489 3502 0
-158 -3489 0
-159 3503 0
-3490 3503 0
-159 -3490 3504 0
-3491 3504 0
-159 -3491 3505 0
-3492 3505 0
-159 -3492 3506 0
-3493 3506 0
-159 -3493 3507 0
-3494 3507 0
-159 -3494 3508 0
-3495 3508 0
-159 -3495 3509 0
-3496 3509 0
-159 -3496 3510 0
-3497 3510 0
-159 -3497 3511 0
-3498 3511 0
-159 -3498 3512 0
-3499 3512 0
-159 -3499 3513 0
-3500 3513 0
-159 -3500 3514 0
-3501 3514 0
-159 -3501 3515 0
-3502 3515 0
-159 -3502 0
-160 3516 0
-3503 3516 0
-160 -3503 3517 0
-3504 3517 0
-160 -3504 3518 0
-3505 3518 0
-160 -3505 3519 0
-3506 3519 0
-160 -3506 3520 0
-3507 3520 0
-160 -3507 3521 0
-3508 3521 0
-160 -3508 3522 0
-3509 3522 0
-160 -3509 3523 0
-3510 3523 0
-160 -3510 3524 0
-3511 3524 0
-160 -3511 3525 0
-3512 3525 0
-160 -3512 3526 0
-3513 3526 0
-160 -3513 3527 0
-3514 3527 0
-160 -3514 3528 0
-3515 3528 0
-160 -3515 0
-161 3529 0
-3516 3529 0
-161 -3516 3530 0
-3517 3530 0
-161 -3517 3531 0
-3518 3531 0
-161 -3518 3532 0
-3519 3532 0
-161 -3519 3533 0
-3520 3533 0
-161 -3520 3534 0
-3521 3534 0
-161 -3521 3535 0
-3522 3535 0
-161 -3522 3536 0
-3523 3536 0
-161 -3523 3537 0
-3524 3537 0
-161 -3524 3538 0
-3525 3538 0
-161 -3525 3539 0
-3526 3539 0
-161 -3526 3540 0
-3527 3540 0
-161 -3527 3541 0
-3528 3541 0
-161 -3528 0
-162 3542 0
-3529 3542 0
-162 -3529 3543 0
-3530 3543 0
-162 -3530 3544 0
-3531 3544 0
-162 -3531 3545 0
-3532 3545 0
-162 -3532 3546 0
-3533 3546 0
-162 -3533 3547 0
-3534 3547 0
-162 -3534 3548 0
-3535 3548 0
-162 -3535 3549 0
-3536 3549 0
-162 -3536 3550 0
-3537 3550 0
-162 -3537 3551 0
-3538 3551 0
-162 -3538 3552 0
-3539 3552 0
-162 -3539 3553 0
-3540 3553 0
-162 -3540 3554 0
-3541 3554 0
-162 -3541 0
-163 3555 0
-3542 3555 0
-163 -3542 3556 0
-3543 3556 0
-163 -3543 3557 0
-3544 3557 0
-163 -3544 3558 0
-3545 3558 0
-163 -3545 3559 0
-3546 3559 0
-163 -3546 3560 0
-3547 3560 0
-163 -3547 3561 0
-3548 3561 0
-163 -3548 3562 0
-3549 3562 0
-163 -3549 3563 0
-3550 3563 0
-163 -3550 3564 0
-3551 3564 0
-163 -3551 3565 0
-3552 3565 0
-163 -3552 3566 0
-3553 3566 0
-163 -3553 3567 0
-3554 3567 0
-163 -3554 0
-164 3568 0
-3555 3568 0
-164 -3555 3569 0
-3556 3569 0
-164 -3556 3570 0
-3557 3570 0
-164 -3557 3571 0
-3558 3571 0
-164 -3558 3572 0
-3559 3572 0
-164 -3559 3573 0
-3560 3573 0
-164 -3560 3574 0
-3561 3574 0
-164 -3561 3575 0
-3562 3575 0
-164 -3562 3576 0
-3563 3576 0
-164 -3563 3577 0
-3564 3577 0
-164 -3564 3578 0
-3565 3578 0
-164 -3565 3579 0
-3566 3579 0
-164 -3566 3580 0
-3567 3580 0
-164 -3567 0
-165 3581 0
-3568 3581 0
-165 -3568 3582 0
-3569 3582 0
-165 -3569 3583 0
-3570 3583 0
-165 -3570 3584 0
-3571 3584 0
-165 -3571 3585 0
-3572 3585 0
-165 -3572 3586 0
-3573 3586 0
-165 -3573 3587 0
-3574 3587 0
-165 -3574 3588 0
-3575 3588 0
-165 -3575 3589 0
-3576 3589 0
-165 -3576 3590 0
-3577 3590 0
-165 -3577 3591 0
-3578 3591 0
-165 -3578 3592 0
-3579 3592 0
-165 -3579 3593 0
-3580 3593 0
-165 -3580 0
-166 3594 0
-3581 3594 0
-166 -3581 3595 0
-3582 3595 0
-166 -3582 3596 0
-3583 3596 0
-166 -3583 3597 0
-3584 3597 0
-166 -3584 3598 0
-3585 3598 0
-166 -3585 3599 0
-3586 3599 0
-166 -3586 3600 0
-3587 3600 0
-166 -3587 3601 0
-3588 3601 0
-166 -3588 3602 0
-3589 3602 0
-166 -3589 3603 0
-3590 3603 0
-166 -3590 3604 0
-3591 3604 0
-166 -3591 3605 0
-3592 3605 0
-166 -3592 3606 0
-3593 3606 0
-166 -3593 0
-167 3607 0
-3594 3607 0
-167 -3594 3608 0
-3595 3608 0
-167 -3595 3609 0
-3596 3609 0
-167 -3596 3610 0
-3597 3610 0
-167 -3597 3611 0
-3598 3611 0
-167 -3598 3612 0
-3599 3612 0
-167 -3599 3613 0
-3600 3613 0
-167 -3600 3614 0
-3601 3614 0
-167 -3601 3615 0
-3602 3615 0
-167 -3602 3616 0
-3603 3616 0
-167 -3603 3617 0
-3604 3617 0
-167 -3604 3618 0
-3605 3618 0
-167 -3605 3619 0
-3606 3619 0
-167 -3606 0
-168 3620 0
-3607 3620 0
-168 -3607 3621 0
-3608 3621 0
-168 -3608 3622 0
-3609 3622 0
-168 -3609 3623 0
-3610 3623 0
-168 -3610 3624 0
-3611 3624 0
-168 -3611 3625 0
-3612 3625 0
-168 -3612 3626 0
-3613 3626 0
-168 -3613 3627 0
-3614 3627 0
-168 -3614 3628 0
-3615 3628 0
-168 -3615 3629 0
-3616 3629 0
-168 -3616 3630 0
-3617 3630 0
-168 -3617 3631 0
-3618 3631 0
-168 -3618 3632 0
-3619 3632 0
-168 -3619 0
-169 3633 0
-3620 3633 0
-169 -3620 3634 0
-3621 3634 0
-169 -3621 3635 0
-3622 3635 0
-169 -3622 3636 0
-3623 3636 0
-169 -3623 3637 0
-3624 3637 0
-169 -3624 3638 0
-3625 3638 0
-169 -3625 3639 0
-3626 3639 0
-169 -3626 3640 0
-3627 3640 0
-169 -3627 3641 0
-3628 3641 0
-169 -3628 3642 0
-3629 3642 0
-169 -3629 3643 0
-3630 3643 0
-169 -3630 3644 0
-3631 3644 0
-169 -3631 3645 0
-3632 3645 0
-169 -3632 0
-170 3646 0
-3633 3646 0
-170 -3633 3647 0
-3634 3647 0
-170 -3634 3648 0
-3635 3648 0
-170 -3635 3649 0
-3636 3649 0
-170 -3636 3650 0
-3637 3650 0
-170 -3637 3651 0
-3638 3651 0
-170 -3638 3652 0
-3639 3652 0
-170 -3639 3653 0
-3640 3653 0
-170 -3640 3654 0
-3641 3654 0
-170 -3641 3655 0
-3642 3655 0
-170 -3642 3656 0
-3643 3656 0
-170 -3643 3657 0
-3644 3657 0
-170 -3644 3658 0
-3645 3658 0
-170 -3645 0
-171 3659 0
-3646 3659 0
-171 -3646 3660 0
-3647 3660 0
-171 -3647 3661 0
-3648 3661 0
-171 -3648 3662 0
-3649 3662 0
-171 -3649 3663 0
-3650 3663 0
-171 -3650 3664 0
-3651 3664 0
-171 -3651 3665 0
-3652 3665 0
-171 -3652 3666 0
-3653 3666 0
-171 -3653 3667 0
-3654 3667 0
-171 -3654 3668 0
-3655 3668 0
-171 -3655 3669 0
-3656 3669 0
-171 -3656 3670 0
-3657 3670 0
-171 -3657 3671 0
-3658 3671 0
-171 -3658 0
-172 3672 0
-3659 3672 0
-172 -3659 3673 0
-3660 3673 0
-172 -3660 3674 0
-3661 3674 0
-172 -3661 3675 0
-3662 3675 0
-172 -3662 3676 0
-3663 3676 0
-172 -3663 3677 0
-3664 3677 0
-172 -3664 3678 0
-3665 3678 0
-172 -3665 3679 0
-3666 3679 0
-172 -3666 3680 0
-3667 3680 0
-172 -3667 3681 0
-3668 3681 0
-172 -3668 3682 0
-3669 3682 0
-172 -3669 3683 0
-3670 3683 0
-172 -3670 3684 0
-3671 3684 0
-172 -3671 0
-173 3685 0
-3672 3685 0
-173 -3672 3686 0
-3673 3686 0
-173 -3673 3687 0
-3674 3687 0
-173 -3674 3688 0
-3675 3688 0
-173 -3675 3689 0
-3676 3689 0
-173 -3676 3690 0
-3677 3690 0
-173 -3677 3691 0
-3678 3691 0
-173 -3678 3692 0
-3679 3692 0
-173 -3679 3693 0
-3680 3693 0
-173 -3680 3694 0
-3681 3694 0
-173 -3681 3695 0
-3682 3695 0
-173 -3682 3696 0
-3683 3696 0
-173 -3683 3697 0
-3684 3697 0
-173 -3684 0
-174 3698 0
-3685 3698 0
-174 -3685 3699 0
-3686 3699 0
-174 -3686 3700 0
-3687 3700 0
-174 -3687 3701 0
-3688 3701 0
-174 -3688 3702 0
-3689 3702 0
-174 -3689 3703 0
-3690 3703 0
-174 -3690 3704 0
-3691 3704 0
-174 -3691 3705 0
-3692 3705 0
-174 -3692 3706 0
-3693 3706 0
-174 -3693 3707 0
-3694 3707 0
-174 -3694 3708 0
-3695 3708 0
-174 -3695 3709 0
-3696 3709 0
-174 -3696 3710 0
-3697 3710 0
-174 -3697 0
-175 3711 0
-3698 3711 0
-175 -3698 3712 0
-3699 3712 0
-175 -3699 3713 0
-3700 3713 0
-175 -3700 3714 0
-3701 3714 0
-175 -3701 3715 0
-3702 3715 0
-175 -3702 3716 0
-3703 3716 0
-175 -3703 3717 0
-3704 3717 0
-175 -3704 3718 0
-3705 3718 0
-175 -3705 3719 0
-3706 3719 0
-175 -3706 3720 0
-3707 3720 0
-175 -3707 3721 0
-3708 3721 0
-175 -3708 3722 0
-3709 3722 0
-175 -3709 3723 0
-3710 3723 0
-175 -3710 0
-176 3724 0
-3711 3724 0
-176 -3711 3725 0
-3712 3725 0
-176 -3712 3726 0
-3713 3726 0
-176 -3713 3727 0
-3714 3727 0
-176 -3714 3728 0
-3715 3728 0
-176 -3715 3729 0
-3716 3729 0
-176 -3716 3730 0
-3717 3730 0
-176 -3717 3731 0
-3718 3731 0
-176 -3718 3732 0
-3719 3732 0
-176 -3719 3733 0
-3720 3733 0
-176 -3720 3734 0
-3721 3734 0
-176 -3721 3735 0
-3722 3735 0
-176 -3722 3736 0
-3723 3736 0
-176 -3723 0
-177 3737 0
-3724 3737 0
-177 -3724 3738 0
-3725 3738 0
-177 -3725 3739 0
-3726 3739 0
-177 -3726 3740 0
-3727 3740 0
-177 -3727 3741 0
-3728 3741 0
-177 -3728 3742 0
-3729 3742 0
-177 -3729 3743 0
-3730 3743 0
-177 -3730 3744 0
-3731 3744 0
-177 -3731 3745 0
-3732 3745 0
-177 -3732 3746 0
-3733 3746 0
-177 -3733 3747 0
-3734 3747 0
-177 -3734 3748 0
-3735 3748 0
-177 -3735 3749 0
-3736 3749 0
-177 -3736 0
-178 3750 0
-3737 3750 0
-178 -3737 3751 0
-3738 3751 0
-178 -3738 3752 0
-3739 3752 0
-178 -3739 3753 0
-3740 3753 0
-178 -3740 3754 0
-3741 3754 0
-178 -3741 3755 0
-3742 3755 0
-178 -3742 3756 0
-3743 3756 0
-178 -3743 3757 0
-3744 3757 0
-178 -3744 3758 0
-3745 3758 0
-178 -3745 3759 0
-3746 3759 0
-178 -3746 3760 0
-3747 3760 0
-178 -3747 3761 0
-3748 3761 0
-178 -3748 3762 0
-3749 3762 0
-178 -3749 0
-179 3763 0
-3750 3763 0
-179 -3750 3764 0
-3751 3764 0
-179 -3751 3765 0
-3752 3765 0
-179 -3752 3766 0
-3753 3766 0
-179 -3753 3767 0
-3754 3767 0
-179 -3754 3768 0
-3755 3768 0
-179 -3755 3769 0
-3756 3769 0
-179 -3756 3770 0
-3757 3770 0
-179 -3757 3771 0
-3758 3771 0
-179 -3758 3772 0
-3759 3772 0
-179 -3759 3773 0
-3760 3773 0
-179 -3760 3774 0
-3761 3774 0
-179 -3761 3775 0
-3762 3775 0
-179 -3762 0
-180 3776 0
-3763 3776 0
-180 -3763 3777 0
-3764 3777 0
-180 -3764 3778 0
-3765 3778 0
-180 -3765 3779 0
-3766 3779 0
-180 -3766 3780 0
-3767 3780 0
-180 -3767 3781 0
-3768 3781 0
-180 -3768 3782 0
-3769 3782 0
-180 -3769 3783 0
-3770 3783 0
-180 -3770 3784 0
-3771 3784 0
-180 -3771 3785 0
-3772 3785 0
-180 -3772 3786 0
-3773 3786 0
-180 -3773 3787 0
-3774 3787 0
-180 -3774 3788 0
-3775 3788 0
-180 -3775 0
-181 3789 0
-3776 3789 0
-181 -3776 3790 0
-3777 3790 0
-181 -3777 3791 0
-3778 3791 0
-181 -3778 3792 0
-3779 3792 0
-181 -3779 3793 0
-3780 3793 0
-181 -3780 3794 0
-3781 3794 0
-181 -3781 3795 0
-3782 3795 0
-181 -3782 3796 0
-3783 3796 0
-181 -3783 3797 0
-3784 3797 0
-181 -3784 3798 0
-3785 3798 0
-181 -3785 3799 0
-3786 3799 0
-181 -3786 3800 0
-3787 3800 0
-181 -3787 3801 0
-3788 3801 0
-181 -3788 0
-182 3802 0
-3789 3802 0
-182 -3789 3803 0
-3790 3803 0
-182 -3790 3804 0
-3791 3804 0
-182 -3791 3805 0
-3792 3805 0
-182 -3792 3806 0
-3793 3806 0
-182 -3793 3807 0
-3794 3807 0
-182 -3794 3808 0
-3795 3808 0
-182 -3795 3809 0
-3796 3809 0
-182 -3796 3810 0
-3797 3810 0
-182 -3797 3811 0
-3798 3811 0
-182 -3798 3812 0
-3799 3812 0
-182 -3799 3813 0
-3800 3813 0
-182 -3800 3814 0
-3801 3814 0
-182 -3801 0
-183 3815 0
-3802 3815 0
-183 -3802 3816 0
-3803 3816 0
-183 -3803 3817 0
-3804 3817 0
-183 -3804 3818 0
-3805 3818 0
-183 -3805 3819 0
-3806 3819 0
-183 -3806 3820 0
-3807 3820 0
-183 -3807 3821 0
-3808 3821 0
-183 -3808 3822 0
-3809 3822 0
-183 -3809 3823 0
-3810 3823 0
-183 -3810 3824 0
-3811 3824 0
-183 -3811 3825 0
-3812 3825 0
-183 -3812 3826 0
-3813 3826 0
-183 -3813 3827 0
-3814 3827 0
-183 -3814 0
-184 3828 0
-3815 3828 0
-184 -3815 3829 0
-3816 3829 0
-184 -3816 3830 0
-3817 3830 0
-184 -3817 3831 0
-3818 3831 0
-184 -3818 3832 0
-3819 3832 0
-184 -3819 3833 0
-3820 3833 0
-184 -3820 3834 0
-3821 3834 0
-184 -3821 3835 0
-3822 3835 0
-184 -3822 3836 0
-3823 3836 0
-184 -3823 3837 0
-3824 3837 0
-184 -3824 3838 0
-3825 3838 0
-184 -3825 3839 0
-3826 3839 0
-184 -3826 3840 0
-3827 3840 0
-184 -3827 0
-185 3841 0
-3828 3841 0
-185 -3828 3842 0
-3829 3842 0
-185 -3829 3843 0
-3830 3843 0
-185 -3830 3844 0
-3831 3844 0
-185 -3831 3845 0
-3832 3845 0
-185 -3832 3846 0
-3833 3846 0
-185 -3833 3847 0
-3834 3847 0
-185 -3834 3848 0
-3835 3848 0
-185 -3835 3849 0
-3836 3849 0
-185 -3836 3850 0
-3837 3850 0
-185 -3837 3851 0
-3838 3851 0
-185 -3838 3852 0
-3839 3852 0
-185 -3839 3853 0
-3840 3853 0
-185 -3840 0
-186 3854 0
-3841 3854 0
-186 -3841 3855 0
-3842 3855 0
-186 -3842 3856 0
-3843 3856 0
-186 -3843 3857 0
-3844 3857 0
-186 -3844 3858 0
-3845 3858 0
-186 -3845 3859 0
-3846 3859 0
-186 -3846 3860 0
-3847 3860 0
-186 -3847 3861 0
-3848 3861 0
-186 -3848 3862 0
-3849 3862 0
-186 -3849 3863 0
-3850 3863 0
-186 -3850 3864 0
-3851 3864 0
-186 -3851 3865 0
-3852 3865 0
-186 -3852 3866 0
-3853 3866 0
-186 -3853 0
-187 3867 0
-3854 3867 0
-187 -3854 3868 0
-3855 3868 0
-187 -3855 3869 0
-3856 3869 0
-187 -3856 3870 0
-3857 3870 0
-187 -3857 3871 0
-3858 3871 0
-187 -3858 3872 0
-3859 3872 0
-187 -3859 3873 0
-3860 3873 0
-187 -3860 3874 0
-3861 3874 0
-187 -3861 3875 0
-3862 3875 0
-187 -3862 3876 0
-3863 3876 0
-187 -3863 3877 0
-3864 3877 0
-187 -3864 3878 0
-3865 3878 0
-187 -3865 3879 0
-3866 3879 0
-187 -3866 0
-188 3880 0
-3867 3880 0
-188 -3867 3881 0
-3868 3881 0
-188 -3868 3882 0
-3869 3882 0
-188 -3869 3883 0
-3870 3883 0
-188 -3870 3884 0
-3871 3884 0
-188 -3871 3885 0
-3872 3885 0
-188 -3872 3886 0
-3873 3886 0
-188 -3873 3887 0
-3874 3887 0
-188 -3874 3888 0
-3875 3888 0
-188 -3875 3889 0
-3876 3889 0
-188 -3876 3890 0
-3877 3890 0
-188 -3877 3891 0
-3878 3891 0
-188 -3878 3892 0
-3879 3892 0
-188 -3879 0
-189 3893 0
-3880 3893 0
-189 -3880 3894 0
-3881 3894 0
-189 -3881 3895 0
-3882 3895 0
-189 -3882 3896 0
-3883 3896 0
-189 -3883 3897 0
-3884 3897 0
-189 -3884 3898 0
-3885 3898 0
-189 -3885 3899 0
-3886 3899 0
-189 -3886 3900 0
-3887 3900 0
-189 -3887 3901 0
-3888 3901 0
-189 -3888 3902 0
-3889 3902 0
-189 -3889 3903 0
-3890 3903 0
-189 -3890 3904 0
-3891 3904 0
-189 -3891 3905 0
-3892 3905 0
-189 -3892 0
-190 3906 0
-3893 3906 0
-190 -3893 3907 0
-3894 3907 0
-190 -3894 3908 0
-3895 3908 0
-190 -3895 3909 0
-3896 3909 0
-190 -3896 3910 0
-3897 3910 0
-190 -3897 3911 0
-3898 3911 0
-190 -3898 3912 0
-3899 3912 0
-190 -3899 3913 0
-3900 3913 0
-190 -3900 3914 0
-3901 3914 0
-190 -3901 3915 0
-3902 3915 0
-190 -3902 3916 0
-3903 3916 0
-190 -3903 3917 0
-3904 3917 0
-190 -3904 3918 0
-3905 3918 0
-190 -3905 0
-191 3919 0
-3906 3919 0
-191 -3906 3920 0
-3907 3920 0
-191 -3907 3921 0
-3908 3921 0
-191 -3908 3922 0
-3909 3922 0
-191 -3909 3923 0
-3910 3923 0
-191 -3910 3924 0
-3911 3924 0
-191 -3911 3925 0
-3912 3925 0
-191 -3912 3926 0
-3913 3926 0
-191 -3913 3927 0
-3914 3927 0
-191 -3914 3928 0
-3915 3928 0
-191 -3915 3929 0
-3916 3929 0
-191 -3916 3930 0
-3917 3930 0
-191 -3917 3931 0
-3918 3931 0
-191 -3918 0
-192 3932 0
-3919 3932 0
-192 -3919 3933 0
-3920 3933 0
-192 -3920 3934 0
-3921 3934 0
-192 -3921 3935 0
-3922 3935 0
-192 -3922 3936 0
-3923 3936 0
-192 -3923 3937 0
-3924 3937 0
-192 -3924 3938 0
-3925 3938 0
-192 -3925 3939 0
-3926 3939 0
-192 -3926 3940 0
-3927 3940 0
-192 -3927 3941 0
-3928 3941 0
-192 -3928 3942 0
-3929 3942 0
-192 -3929 3943 0
-3930 3943 0
-192 -3930 3944 0
-3931 3944 0
-192 -3931 0
-193 3945 0
-3932 3945 0
-193 -3932 3946 0
-3933 3946 0
-193 -3933 3947 0
-3934 3947 0
-193 -3934 3948 0
-3935 3948 0
-193 -3935 3949 0
-3936 3949 0
-193 -3936 3950 0
-3937 3950 0
-193 -3937 3951 0
-3938 3951 0
-193 -3938 3952 0
-3939 3952 0
-193 -3939 3953 0
-3940 3953 0
-193 -3940 3954 0
-3941 3954 0
-193 -3941 3955 0
-3942 3955 0
-193 -3942 3956 0
-3943 3956 0
-193 -3943 3957 0
-3944 3957 0
-193 -3944 0
-194 3958 0
-3945 3958 0
-194 -3945 3959 0
-3946 3959 0
-194 -3946 3960 0
-3947 3960 0
-194 -3947 3961 0
-3948 3961 0
-194 -3948 3962 0
-3949 3962 0
-194 -3949 3963 0
-3950 3963 0
-194 -3950 3964 0
-3951 3964 0
-194 -3951 3965 0
-3952 3965 0
-194 -3952 3966 0
-3953 3966 0
-194 -3953 3967 0
-3954 3967 0
-194 -3954 3968 0
-3955 3968 0
-194 -3955 3969 0
-3956 3969 0
-194 -3956 3970 0
-3957 3970 0
-194 -3957 0
-195 3971 0
-3958 3971 0
-195 -3958 3972 0
-3959 3972 0
-195 -3959 3973 0
-3960 3973 0
-195 -3960 3974 0
-3961 3974 0
-195 -3961 3975 0
-3962 3975 0
-195 -3962 3976 0
-3963 3976 0
-195 -3963 3977 0
-3964 3977 0
-195 -3964 3978 0
-3965 3978 0
-195 -3965 3979 0
-3966 3979 0
-195 -3966 3980 0
-3967 3980 0
-195 -3967 3981 0
-3968 3981 0
-195 -3968 3982 0
-3969 3982 0
-195 -3969 3983 0
-3970 3983 0
-195 -3970 0
-196 3984 0
-3971 3984 0
-196 -3971 3985 0
-3972 3985 0
-196 -3972 3986 0
-3973 3986 0
-196 -3973 3987 0
-3974 3987 0
-196 -3974 3988 0
-3975 3988 0
-196 -3975 3989 0
-3976 3989 0
-196 -3976 3990 0
-3977 3990 0
-196 -3977 3991 0
-3978 3991 0
-196 -3978 3992 0
-3979 3992 0
-196 -3979 3993 0
-3980 3993 0
-196 -3980 3994 0
-3981 3994 0
-196 -3981 3995 0
-3982 3995 0
-196 -3982 3996 0
-3983 3996 0
-196 -3983 0
-197 3997 0
-3984 3997 0
-197 -3984 3998 0
-3985 3998 0
-197 -3985 3999 0
-3986 3999 0
-197 -3986 4000 0
-3987 4000 0
-197 -3987 4001 0
-3988 4001 0
-197 -3988 4002 0
-3989 4002 0
-197 -3989 4003 0
-3990 4003 0
-197 -3990 4004 0
-3991 4004 0
-197 -3991 4005 0
-3992 4005 0
-197 -3992 4006 0
-3993 4006 0
-197 -3993 4007 0
-3994 4007 0
-197 -3994 4008 0
-3995 4008 0
-197 -3995 4009 0
-3996 4009 0
-197 -3996 0
-198 4010 0
-3997 4010 0
-198 -3997 4011 0
-3998 4011 0
-198 -3998 4012 0
-3999 4012 0
-198 -3999 4013 0
-4000 4013 0
-198 -4000 4014 0
-4001 4014 0
-198 -4001 4015 0
-4002 4015 0
-198 -4002 4016 0
-4003 4016 0
-198 -4003 4017 0
-4004 4017 0
-198 -4004 4018 0
-4005 4018 0
-198 -4005 4019 0
-4006 4019 0
-198 -4006 4020 0
-4007 4020 0
-198 -4007 4021 0
-4008 4021 0
-198 -4008 4022 0
-4009 4022 0
-198 -4009 0
-199 4023 0
-4010 4023 0
-199 -4010 4024 0
-4011 4024 0
-199 -4011 4025 0
-4012 4025 0
-199 -4012 4026 0
-4013 4026 0
-199 -4013 4027 0
-4014 4027 0
-199 -4014 4028 0
-4015 4028 0
-199 -4015 4029 0
-4016 4029 0
-199 -4016 4030 0
-4017 4030 0
-199 -4017 4031 0
-4018 4031 0
-199 -4018 4032 0
-4019 4032 0
-199 -4019 4033 0
-4020 4033 0
-199 -4020 4034 0
-4021 4034 0
-199 -4021 4035 0
-4022 4035 0
-199 -4022 0
-200 4036 0
-4023 4036 0
-200 -4023 4037 0
-4024 4037 0
-200 -4024 4038 0
-4025 4038 0
-200 -4025 4039 0
-4026 4039 0
-200 -4026 4040 0
-4027 4040 0
-200 -4027 4041 0
-4028 4041 0
-200 -4028 4042 0
-4029 4042 0
-200 -4029 4043 0
-4030 4043 0
-200 -4030 4044 0
-4031 4044 0
-200 -4031 4045 0
-4032 4045 0
-200 -4032 4046 0
-4033 4046 0
-200 -4033 4047 0
-4034 4047 0
-200 -4034 4048 0
-4035 4048 0
-200 -4035 0
-201 4049 0
-4036 4049 0
-201 -4036 4050 0
-4037 4050 0
-201 -4037 4051 0
-4038 4051 0
-201 -4038 4052 0
-4039 4052 0
-201 -4039 4053 0
-4040 4053 0
-201 -4040 4054 0
-4041 4054 0
-201 -4041 4055 0
-4042 4055 0
-201 -4042 4056 0
-4043 4056 0
-201 -4043 4057 0
-4044 4057 0
-201 -4044 4058 0
-4045 4058 0
-201 -4045 4059 0
-4046 4059 0
-201 -4046 4060 0
-4047 4060 0
-201 -4047 4061 0
-4048 4061 0
-201 -4048 0
-202 4062 0
-4049 4062 0
-202 -4049 4063 0
-4050 4063 0
-202 -4050 4064 0
-4051 4064 0
-202 -4051 4065 0
-4052 4065 0
-202 -4052 4066 0
-4053 4066 0
-202 -4053 4067 0
-4054 4067 0
-202 -4054 4068 0
-4055 4068 0
-202 -4055 4069 0
-4056 4069 0
-202 -4056 4070 0
-4057 4070 0
-202 -4057 4071 0
-4058 4071 0
-202 -4058 4072 0
-4059 4072 0
-202 -4059 4073 0
-4060 4073 0
-202 -4060 4074 0
-4061 4074 0
-202 -4061 0
-203 4075 0
-4062 4075 0
-203 -4062 4076 0
-4063 4076 0
-203 -4063 4077 0
-4064 4077 0
-203 -4064 4078 0
-4065 4078 0
-203 -4065 4079 0
-4066 4079 0
-203 -4066 4080 0
-4067 4080 0
-203 -4067 4081 0
-4068 4081 0
-203 -4068 4082 0
-4069 4082 0
-203 -4069 4083 0
-4070 4083 0
-203 -4070 4084 0
-4071 4084 0
-203 -4071 4085 0
-4072 4085 0
-203 -4072 4086 0
-4073 4086 0
-203 -4073 4087 0
-4074 4087 0
-203 -4074 0
-204 4088 0
-4075 4088 0
-204 -4075 4089 0
-4076 4089 0
-204 -4076 4090 0
-4077 4090 0
-204 -4077 4091 0
-4078 4091 0
-204 -4078 4092 0
-4079 4092 0
-204 -4079 4093 0
-4080 4093 0
-204 -4080 4094 0
-4081 4094 0
-204 -4081 4095 0
-4082 4095 0
-204 -4082 4096 0
-4083 4096 0
-204 -4083 4097 0
-4084 4097 0
-204 -4084 4098 0
-4085 4098 0
-204 -4085 4099 0
-4086 4099 0
-204 -4086 4100 0
-4087 4100 0
-204 -4087 0
-205 4101 0
-4088 4101 0
-205 -4088 4102 0
-4089 4102 0
-205 -4089 4103 0
-4090 4103 0
-205 -4090 4104 0
-4091 4104 0
-205 -4091 4105 0
-4092 4105 0
-205 -4092 4106 0
-4093 4106 0
-205 -4093 4107 0
-4094 4107 0
-205 -4094 4108 0
-4095 4108 0
-205 -4095 4109 0
-4096 4109 0
-205 -4096 4110 0
-4097 4110 0
-205 -4097 4111 0
-4098 4111 0
-205 -4098 4112 0
-4099 4112 0
-205 -4099 4113 0
-4100 4113 0
-205 -4100 0
-206 4114 0
-4101 4114 0
-206 -4101 4115 0
-4102 4115 0
-206 -4102 4116 0
-4103 4116 0
-206 -4103 4117 0
-4104 4117 0
-206 -4104 4118 0
-4105 4118 0
-206 -4105 4119 0
-4106 4119 0
-206 -4106 4120 0
-4107 4120 0
-206 -4107 4121 0
-4108 4121 0
-206 -4108 4122 0
-4109 4122 0
-206 -4109 4123 0
-4110 4123 0
-206 -4110 4124 0
-4111 4124 0
-206 -4111 4125 0
-4112 4125 0
-206 -4112 4126 0
-4113 4126 0
-206 -4113 0
-207 4127 0
-4114 4127 0
-207 -4114 4128 0
-4115 4128 0
-207 -4115 4129 0
-4116 4129 0
-207 -4116 4130 0
-4117 4130 0
-207 -4117 4131 0
-4118 4131 0
-207 -4118 4132 0
-4119 4132 0
-207 -4119 4133 0
-4120 4133 0
-207 -4120 4134 0
-4121 4134 0
-207 -4121 4135 0
-4122 4135 0
-207 -4122 4136 0
-4123 4136 0
-207 -4123 4137 0
-4124 4137 0
-207 -4124 4138 0
-4125 4138 0
-207 -4125 4139 0
-4126 4139 0
-207 -4126 0
-208 4140 0
-4127 4140 0
-208 -4127 4141 0
-4128 4141 0
-208 -4128 4142 0
-4129 4142 0
-208 -4129 4143 0
-4130 4143 0
-208 -4130 4144 0
-4131 4144 0
-208 -4131 4145 0
-4132 4145 0
-208 -4132 4146 0
-4133 4146 0
-208 -4133 4147 0
-4134 4147 0
-208 -4134 4148 0
-4135 4148 0
-208 -4135 4149 0
-4136 4149 0
-208 -4136 4150 0
-4137 4150 0
-208 -4137 4151 0
-4138 4151 0
-208 -4138 4152 0
-4139 4152 0
-208 -4139 0
-209 4153 0
-4140 4153 0
-209 -4140 4154 0
-4141 4154 0
-209 -4141 4155 0
-4142 4155 0
-209 -4142 4156 0
-4143 4156 0
-209 -4143 4157 0
-4144 4157 0
-209 -4144 4158 0
-4145 4158 0
-209 -4145 4159 0
-4146 4159 0
-209 -4146 4160 0
-4147 4160 0
-209 -4147 4161 0
-4148 4161 0
-209 -4148 4162 0
-4149 4162 0
-209 -4149 4163 0
-4150 4163 0
-209 -4150 4164 0
-4151 4164 0
-209 -4151 4165 0
-4152 4165 0
-209 -4152 0
-210 4166 0
-4153 4166 0
-210 -4153 4167 0
-4154 4167 0
-210 -4154 4168 0
-4155 4168 0
-210 -4155 4169 0
-4156 4169 0
-210 -4156 4170 0
-4157 4170 0
-210 -4157 4171 0
-4158 4171 0
-210 -4158 4172 0
-4159 4172 0
-210 -4159 4173 0
-4160 4173 0
-210 -4160 4174 0
-4161 4174 0
-210 -4161 4175 0
-4162 4175 0
-210 -4162 4176 0
-4163 4176 0
-210 -4163 4177 0
-4164 4177 0
-210 -4164 4178 0
-4165 4178 0
-210 -4165 0
-211 4179 0
-4166 4179 0
-211 -4166 4180 0
-4167 4180 0
-211 -4167 4181 0
-4168 4181 0
-211 -4168 4182 0
-4169 4182 0
-211 -4169 4183 0
-4170 4183 0
-211 -4170 4184 0
-4171 4184 0
-211 -4171 4185 0
-4172 4185 0
-211 -4172 4186 0
-4173 4186 0
-211 -4173 4187 0
-4174 4187 0
-211 -4174 4188 0
-4175 4188 0
-211 -4175 4189 0
-4176 4189 0
-211 -4176 4190 0
-4177 4190 0
-211 -4177 4191 0
-4178 4191 0
-211 -4178 0
-212 4192 0
-4179 4192 0
-212 -4179 4193 0
-4180 4193 0
-212 -4180 4194 0
-4181 4194 0
-212 -4181 4195 0
-4182 4195 0
-212 -4182 4196 0
-4183 4196 0
-212 -4183 4197 0
-4184 4197 0
-212 -4184 4198 0
-4185 4198 0
-212 -4185 4199 0
-4186 4199 0
-212 -4186 4200 0
-4187 4200 0
-212 -4187 4201 0
-4188 4201 0
-212 -4188 4202 0
-4189 4202 0
-212 -4189 4203 0
-4190 4203 0
-212 -4190 4204 0
-4191 4204 0
-212 -4191 0
-213 4205 0
-4192 4205 0
-213 -4192 4206 0
-4193 4206 0
-213 -4193 4207 0
-4194 4207 0
-213 -4194 4208 0
-4195 4208 0
-213 -4195 4209 0
-4196 4209 0
-213 -4196 4210 0
-4197 4210 0
-213 -4197 4211 0
-4198 4211 0
-213 -4198 4212 0
-4199 4212 0
-213 -4199 4213 0
-4200 4213 0
-213 -4200 4214 0
-4201 4214 0
-213 -4201 4215 0
-4202 4215 0
-213 -4202 4216 0
-4203 4216 0
-213 -4203 4217 0
-4204 4217 0
-213 -4204 0
-214 4218 0
-4205 4218 0
-214 -4205 4219 0
-4206 4219 0
-214 -4206 4220 0
-4207 4220 0
-214 -4207 4221 0
-4208 4221 0
-214 -4208 4222 0
-4209 4222 0
-214 -4209 4223 0
-4210 4223 0
-214 -4210 4224 0
-4211 4224 0
-214 -4211 4225 0
-4212 4225 0
-214 -4212 4226 0
-4213 4226 0
-214 -4213 4227 0
-4214 4227 0
-214 -4214 4228 0
-4215 4228 0
-214 -4215 4229 0
-4216 4229 0
-214 -4216 4230 0
-4217 4230 0
-214 -4217 0
-215 4231 0
-4218 4231 0
-215 -4218 4232 0
-4219 4232 0
-215 -4219 4233 0
-4220 4233 0
-215 -4220 4234 0
-4221 4234 0
-215 -4221 4235 0
-4222 4235 0
-215 -4222 4236 0
-4223 4236 0
-215 -4223 4237 0
-4224 4237 0
-215 -4224 4238 0
-4225 4238 0
-215 -4225 4239 0
-4226 4239 0
-215 -4226 4240 0
-4227 4240 0
-215 -4227 4241 0
-4228 4241 0
-215 -4228 4242 0
-4229 4242 0
-215 -4229 4243 0
-4230 4243 0
-215 -4230 0
-216 4244 0
-4231 4244 0
-216 -4231 4245 0
-4232 4245 0
-216 -4232 4246 0
-4233 4246 0
-216 -4233 4247 0
-4234 4247 0
-216 -4234 4248 0
-4235 4248 0
-216 -4235 4249 0
-4236 4249 0
-216 -4236 4250 0
-4237 4250 0
-216 -4237 4251 0
-4238 4251 0
-216 -4238 4252 0
-4239 4252 0
-216 -4239 4253 0
-4240 4253 0
-216 -4240 4254 0
-4241 4254 0
-216 -4241 4255 0
-4242 4255 0
-216 -4242 4256 0
-4243 4256 0
-216 -4243 0
-217 4257 0
-4244 4257 0
-217 -4244 4258 0
-4245 4258 0
-217 -4245 4259 0
-4246 4259 0
-217 -4246 4260 0
-4247 4260 0
-217 -4247 4261 0
-4248 4261 0
-217 -4248 4262 0
-4249 4262 0
-217 -4249 4263 0
-4250 4263 0
-217 -4250 4264 0
-4251 4264 0
-217 -4251 4265 0
-4252 4265 0
-217 -4252 4266 0
-4253 4266 0
-217 -4253 4267 0
-4254 4267 0
-217 -4254 4268 0
-4255 4268 0
-217 -4255 4269 0
-4256 4269 0
-217 -4256 0
-218 4270 0
-4257 4270 0
-218 -4257 4271 0
-4258 4271 0
-218 -4258 4272 0
-4259 4272 0
-218 -4259 4273 0
-4260 4273 0
-218 -4260 4274 0
-4261 4274 0
-218 -4261 4275 0
-4262 4275 0
-218 -4262 4276 0
-4263 4276 0
-218 -4263 4277 0
-4264 4277 0
-218 -4264 4278 0
-4265 4278 0
-218 -4265 4279 0
-4266 4279 0
-218 -4266 4280 0
-4267 4280 0
-218 -4267 4281 0
-4268 4281 0
-218 -4268 4282 0
-4269 4282 0
-218 -4269 0
-219 4283 0
-4270 4283 0
-219 -4270 4284 0
-4271 4284 0
-219 -4271 4285 0
-4272 4285 0
-219 -4272 4286 0
-4273 4286 0
-219 -4273 4287 0
-4274 4287 0
-219 -4274 4288 0
-4275 4288 0
-219 -4275 4289 0
-4276 4289 0
-219 -4276 4290 0
-4277 4290 0
-219 -4277 4291 0
-4278 4291 0
-219 -4278 4292 0
-4279 4292 0
-219 -4279 4293 0
-4280 4293 0
-219 -4280 4294 0
-4281 4294 0
-219 -4281 4295 0
-4282 4295 0
-219 -4282 0
-220 4296 0
-4283 4296 0
-220 -4283 4297 0
-4284 4297 0
-220 -4284 4298 0
-4285 4298 0
-220 -4285 4299 0
-4286 4299 0
-220 -4286 4300 0
-4287 4300 0
-220 -4287 4301 0
-4288 4301 0
-220 -4288 4302 0
-4289 4302 0
-220 -4289 4303 0
-4290 4303 0
-220 -4290 4304 0
-4291 4304 0
-220 -4291 4305 0
-4292 4305 0
-220 -4292 4306 0
-4293 4306 0
-220 -4293 4307 0
-4294 4307 0
-220 -4294 4308 0
-4295 4308 0
-220 -4295 0
-221 4309 0
-4296 4309 0
-221 -4296 4310 0
-4297 4310 0
-221 -4297 4311 0
-4298 4311 0
-221 -4298 4312 0
-4299 4312 0
-221 -4299 4313 0
-4300 4313 0
-221 -4300 4314 0
-4301 4314 0
-221 -4301 4315 0
-4302 4315 0
-221 -4302 4316 0
-4303 4316 0
-221 -4303 4317 0
-4304 4317 0
-221 -4304 4318 0
-4305 4318 0
-221 -4305 4319 0
-4306 4319 0
-221 -4306 4320 0
-4307 4320 0
-221 -4307 4321 0
-4308 4321 0
-221 -4308 0
-222 4322 0
-4309 4322 0
-222 -4309 4323 0
-4310 4323 0
-222 -4310 4324 0
-4311 4324 0
-222 -4311 4325 0
-4312 4325 0
-222 -4312 4326 0
-4313 4326 0
-222 -4313 4327 0
-4314 4327 0
-222 -4314 4328 0
-4315 4328 0
-222 -4315 4329 0
-4316 4329 0
-222 -4316 4330 0
-4317 4330 0
-222 -4317 4331 0
-4318 4331 0
-222 -4318 4332 0
-4319 4332 0
-222 -4319 4333 0
-4320 4333 0
-222 -4320 4334 0
-4321 4334 0
-222 -4321 0
-223 4335 0
-4322 4335 0
-223 -4322 4336 0
-4323 4336 0
-223 -4323 4337 0
-4324 4337 0
-223 -4324 4338 0
-4325 4338 0
-223 -4325 4339 0
-4326 4339 0
-223 -4326 4340 0
-4327 4340 0
-223 -4327 4341 0
-4328 4341 0
-223 -4328 4342 0
-4329 4342 0
-223 -4329 4343 0
-4330 4343 0
-223 -4330 4344 0
-4331 4344 0
-223 -4331 4345 0
-4332 4345 0
-223 -4332 4346 0
-4333 4346 0
-223 -4333 4347 0
-4334 4347 0
-223 -4334 0
-224 4348 0
-4335 4348 0
-224 -4335 4349 0
-4336 4349 0
-224 -4336 4350 0
-4337 4350 0
-224 -4337 4351 0
-4338 4351 0
-224 -4338 4352 0
-4339 4352 0
-224 -4339 4353 0
-4340 4353 0
-224 -4340 4354 0
-4341 4354 0
-224 -4341 4355 0
-4342 4355 0
-224 -4342 4356 0
-4343 4356 0
-224 -4343 4357 0
-4344 4357 0
-224 -4344 4358 0
-4345 4358 0
-224 -4345 4359 0
-4346 4359 0
-224 -4346 4360 0
-4347 4360 0
-224 -4347 0
-225 4361 0
-4348 4361 0
-225 -4348 4362 0
-4349 4362 0
-225 -4349 4363 0
-4350 4363 0
-225 -4350 4364 0
-4351 4364 0
-225 -4351 4365 0
-4352 4365 0
-225 -4352 4366 0
-4353 4366 0
-225 -4353 4367 0
-4354 4367 0
-225 -4354 4368 0
-4355 4368 0
-225 -4355 4369 0
-4356 4369 0
-225 -4356 4370 0
-4357 4370 0
-225 -4357 4371 0
-4358 4371 0
-225 -4358 4372 0
-4359 4372 0
-225 -4359 4373 0
-4360 4373 0
-225 -4360 0
-226 4374 0
-4361 4374 0
-226 -4361 4375 0
-4362 4375 0
-226 -4362 4376 0
-4363 4376 0
-226 -4363 4377 0
-4364 4377 0
-226 -4364 4378 0
-4365 4378 0
-226 -4365 4379 0
-4366 4379 0
-226 -4366 4380 0
-4367 4380 0
-226 -4367 4381 0
-4368 4381 0
-226 -4368 4382 0
-4369 4382 0
-226 -4369 4383 0
-4370 4383 0
-226 -4370 4384 0
-4371 4384 0
-226 -4371 4385 0
-4372 4385 0
-226 -4372 4386 0
-4373 4386 0
-226 -4373 0
-227 4387 0
-4374 4387 0
-227 -4374 4388 0
-4375 4388 0
-227 -4375 4389 0
-4376 4389 0
-227 -4376 4390 0
-4377 4390 0
-227 -4377 4391 0
-4378 4391 0
-227 -4378 4392 0
-4379 4392 0
-227 -4379 4393 0
-4380 4393 0
-227 -4380 4394 0
-4381 4394 0
-227 -4381 4395 0
-4382 4395 0
-227 -4382 4396 0
-4383 4396 0
-227 -4383 4397 0
-4384 4397 0
-227 -4384 4398 0
-4385 4398 0
-227 -4385 4399 0
-4386 4399 0
-227 -4386 0
-228 4400 0
-4387 4400 0
-228 -4387 4401 0
-4388 4401 0
-228 -4388 4402 0
-4389 4402 0
-228 -4389 4403 0
-4390 4403 0
-228 -4390 4404 0
-4391 4404 0
-228 -4391 4405 0
-4392 4405 0
-228 -4392 4406 0
-4393 4406 0
-228 -4393 4407 0
-4394 4407 0
-228 -4394 4408 0
-4395 4408 0
-228 -4395 4409 0
-4396 4409 0
-228 -4396 4410 0
-4397 4410 0
-228 -4397 4411 0
-4398 4411 0
-228 -4398 4412 0
-4399 4412 0
-228 -4399 0
-229 4413 0
-4400 4413 0
-229 -4400 4414 0
-4401 4414 0
-229 -4401 4415 0
-4402 4415 0
-229 -4402 4416 0
-4403 4416 0
-229 -4403 4417 0
-4404 4417 0
-229 -4404 4418 0
-4405 4418 0
-229 -4405 4419 0
-4406 4419 0
-229 -4406 4420 0
-4407 4420 0
-229 -4407 4421 0
-4408 4421 0
-229 -4408 4422 0
-4409 4422 0
-229 -4409 4423 0
-4410 4423 0
-229 -4410 4424 0
-4411 4424 0
-229 -4411 4425 0
-4412 4425 0
-229 -4412 0
-230 4426 0
-4413 4426 0
-230 -4413 4427 0
-4414 4427 0
-230 -4414 4428 0
-4415 4428 0
-230 -4415 4429 0
-4416 4429 0
-230 -4416 4430 0
-4417 4430 0
-230 -4417 4431 0
-4418 4431 0
-230 -4418 4432 0
-4419 4432 0
-230 -4419 4433 0
-4420 4433 0
-230 -4420 4434 0
-4421 4434 0
-230 -4421 4435 0
-4422 4435 0
-230 -4422 4436 0
-4423 4436 0
-230 -4423 4437 0
-4424 4437 0
-230 -4424 4438 0
-4425 4438 0
-230 -4425 0
-231 4439 0
-4426 4439 0
-231 -4426 4440 0
-4427 4440 0
-231 -4427 4441 0
-4428 4441 0
-231 -4428 4442 0
-4429 4442 0
-231 -4429 4443 0
-4430 4443 0
-231 -4430 4444 0
-4431 4444 0
-231 -4431 4445 0
-4432 4445 0
-231 -4432 4446 0
-4433 4446 0
-231 -4433 4447 0
-4434 4447 0
-231 -4434 4448 0
-4435 4448 0
-231 -4435 4449 0
-4436 4449 0
-231 -4436 4450 0
-4437 4450 0
-231 -4437 4451 0
-4438 4451 0
-231 -4438 0
-232 4452 0
-4439 4452 0
-232 -4439 4453 0
-4440 4453 0
-232 -4440 4454 0
-4441 4454 0
-232 -4441 4455 0
-4442 4455 0
-232 -4442 4456 0
-4443 4456 0
-232 -4443 4457 0
-4444 4457 0
-232 -4444 4458 0
-4445 4458 0
-232 -4445 4459 0
-4446 4459 0
-232 -4446 4460 0
-4447 4460 0
-232 -4447 4461 0
-4448 4461 0
-232 -4448 4462 0
-4449 4462 0
-232 -4449 4463 0
-4450 4463 0
-232 -4450 4464 0
-4451 4464 0
-232 -4451 0
-233 4465 0
-4452 4465 0
-233 -4452 4466 0
-4453 4466 0
-233 -4453 4467 0
-4454 4467 0
-233 -4454 4468 0
-4455 4468 0
-233 -4455 4469 0
-4456 4469 0
-233 -4456 4470 0
-4457 4470 0
-233 -4457 4471 0
-4458 4471 0
-233 -4458 4472 0
-4459 4472 0
-233 -4459 4473 0
-4460 4473 0
-233 -4460 4474 0
-4461 4474 0
-233 -4461 4475 0
-4462 4475 0
-233 -4462 4476 0
-4463 4476 0
-233 -4463 4477 0
-4464 4477 0
-233 -4464 0
-234 4478 0
-4465 4478 0
-234 -4465 4479 0
-4466 4479 0
-234 -4466 4480 0
-4467 4480 0
-234 -4467 4481 0
-4468 4481 0
-234 -4468 4482 0
-4469 4482 0
-234 -4469 4483 0
-4470 4483 0
-234 -4470 4484 0
-4471 4484 0
-234 -4471 4485 0
-4472 4485 0
-234 -4472 4486 0
-4473 4486 0
-234 -4473 4487 0
-4474 4487 0
-234 -4474 4488 0
-4475 4488 0
-234 -4475 4489 0
-4476 4489 0
-234 -4476 4490 0
-4477 4490 0
-234 -4477 0
-235 4491 0
-4478 4491 0
-235 -4478 4492 0
-4479 4492 0
-235 -4479 4493 0
-4480 4493 0
-235 -4480 4494 0
-4481 4494 0
-235 -4481 4495 0
-4482 4495 0
-235 -4482 4496 0
-4483 4496 0
-235 -4483 4497 0
-4484 4497 0
-235 -4484 4498 0
-4485 4498 0
-235 -4485 4499 0
-4486 4499 0
-235 -4486 4500 0
-4487 4500 0
-235 -4487 4501 0
-4488 4501 0
-235 -4488 4502 0
-4489 4502 0
-235 -4489 4503 0
-4490 4503 0
-235 -4490 0
-236 4504 0
-4491 4504 0
-236 -4491 4505 0
-4492 4505 0
-236 -4492 4506 0
-4493 4506 0
-236 -4493 4507 0
-4494 4507 0
-236 -4494 4508 0
-4495 4508 0
-236 -4495 4509 0
-4496 4509 0
-236 -4496 4510 0
-4497 4510 0
-236 -4497 4511 0
-4498 4511 0
-236 -4498 4512 0
-4499 4512 0
-236 -4499 4513 0
-4500 4513 0
-236 -4500 4514 0
-4501 4514 0
-236 -4501 4515 0
-4502 4515 0
-236 -4502 4516 0
-4503 4516 0
-236 -4503 0
-237 4517 0
-4504 4517 0
-237 -4504 4518 0
-4505 4518 0
-237 -4505 4519 0
-4506 4519 0
-237 -4506 4520 0
-4507 4520 0
-237 -4507 4521 0
-4508 4521 0
-237 -4508 4522 0
-4509 4522 0
-237 -4509 4523 0
-4510 4523 0
-237 -4510 4524 0
-4511 4524 0
-237 -4511 4525 0
-4512 4525 0
-237 -4512 4526 0
-4513 4526 0
-237 -4513 4527 0
-4514 4527 0
-237 -4514 4528 0
-4515 4528 0
-237 -4515 4529 0
-4516 4529 0
-237 -4516 0
-238 4530 0
-4517 4530 0
-238 -4517 4531 0
-4518 4531 0
-238 -4518 4532 0
-4519 4532 0
-238 -4519 4533 0
-4520 4533 0
-238 -4520 4534 0
-4521 4534 0
-238 -4521 4535 0
-4522 4535 0
-238 -4522 4536 0
-4523 4536 0
-238 -4523 4537 0
-4524 4537 0
-238 -4524 4538 0
-4525 4538 0
-238 -4525 4539 0
-4526 4539 0
-238 -4526 4540 0
-4527 4540 0
-238 -4527 4541 0
-4528 4541 0
-238 -4528 4542 0
-4529 4542 0
-238 -4529 0
-239 4543 0
-4530 4543 0
-239 -4530 4544 0
-4531 4544 0
-239 -4531 4545 0
-4532 4545 0
-239 -4532 4546 0
-4533 4546 0
-239 -4533 4547 0
-4534 4547 0
-239 -4534 4548 0
-4535 4548 0
-239 -4535 4549 0
-4536 4549 0
-239 -4536 4550 0
-4537 4550 0
-239 -4537 4551 0
-4538 4551 0
-239 -4538 4552 0
-4539 4552 0
-239 -4539 4553 0
-4540 4553 0
-239 -4540 4554 0
-4541 4554 0
-239 -4541 4555 0
-4542 4555 0
-239 -4542 0
-240 4556 0
-4543 4556 0
-240 -4543 4557 0
-4544 4557 0
-240 -4544 4558 0
-4545 4558 0
-240 -4545 4559 0
-4546 4559 0
-240 -4546 4560 0
-4547 4560 0
-240 -4547 4561 0
-4548 4561 0
-240 -4548 4562 0
-4549 4562 0
-240 -4549 4563 0
-4550 4563 0
-240 -4550 4564 0
-4551 4564 0
-240 -4551 4565 0
-4552 4565 0
-240 -4552 4566 0
-4553 4566 0
-240 -4553 4567 0
-4554 4567 0
-240 -4554 4568 0
-4555 4568 0
-240 -4555 0
-241 4569 0
-4556 4569 0
-241 -4556 4570 0
-4557 4570 0
-241 -4557 4571 0
-4558 4571 0
-241 -4558 4572 0
-4559 4572 0
-241 -4559 4573 0
-4560 4573 0
-241 -4560 4574 0
-4561 4574 0
-241 -4561 4575 0
-4562 4575 0
-241 -4562 4576 0
-4563 4576 0
-241 -4563 4577 0
-4564 4577 0
-241 -4564 4578 0
-4565 4578 0
-241 -4565 4579 0
-4566 4579 0
-241 -4566 4580 0
-4567 4580 0
-241 -4567 4581 0
-4568 4581 0
-241 -4568 0
-242 4582 0
-4569 4582 0
-242 -4569 4583 0
-4570 4583 0
-242 -4570 4584 0
-4571 4584 0
-242 -4571 4585 0
-4572 4585 0
-242 -4572 4586 0
-4573 4586 0
-242 -4573 4587 0
-4574 4587 0
-242 -4574 4588 0
-4575 4588 0
-242 -4575 4589 0
-4576 4589 0
-242 -4576 4590 0
-4577 4590 0
-242 -4577 4591 0
-4578 4591 0
-242 -4578 4592 0
-4579 4592 0
-242 -4579 4593 0
-4580 4593 0
-242 -4580 4594 0
-4581 4594 0
-242 -4581 0
-243 4595 0
-4582 4595 0
-243 -4582 4596 0
-4583 4596 0
-243 -4583 4597 0
-4584 4597 0
-243 -4584 4598 0
-4585 4598 0
-243 -4585 4599 0
-4586 4599 0
-243 -4586 4600 0
-4587 4600 0
-243 -4587 4601 0
-4588 4601 0
-243 -4588 4602 0
-4589 4602 0
-243 -4589 4603 0
-4590 4603 0
-243 -4590 4604 0
-4591 4604 0
-243 -4591 4605 0
-4592 4605 0
-243 -4592 4606 0
-4593 4606 0
-243 -4593 4607 0
-4594 4607 0
-243 -4594 0
-244 4608 0
-4595 4608 0
-244 -4595 4609 0
-4596 4609 0
-244 -4596 4610 0
-4597 4610 0
-244 -4597 4611 0
-4598 4611 0
-244 -4598 4612 0
-4599 4612 0
-244 -4599 4613 0
-4600 4613 0
-244 -4600 4614 0
-4601 4614 0
-244 -4601 4615 0
-4602 4615 0
-244 -4602 4616 0
-4603 4616 0
-244 -4603 4617 0
-4604 4617 0
-244 -4604 4618 0
-4605 4618 0
-244 -4605 4619 0
-4606 4619 0
-244 -4606 4620 0
-4607 4620 0
-244 -4607 0
-245 4621 0
-4608 4621 0
-245 -4608 4622 0
-4609 4622 0
-245 -4609 4623 0
-4610 4623 0
-245 -4610 4624 0
-4611 4624 0
-245 -4611 4625 0
-4612 4625 0
-245 -4612 4626 0
-4613 4626 0
-245 -4613 4627 0
-4614 4627 0
-245 -4614 4628 0
-4615 4628 0
-245 -4615 4629 0
-4616 4629 0
-245 -4616 4630 0
-4617 4630 0
-245 -4617 4631 0
-4618 4631 0
-245 -4618 4632 0
-4619 4632 0
-245 -4619 4633 0
-4620 4633 0
-245 -4620 0
-246 4634 0
-4621 4634 0
-246 -4621 4635 0
-4622 4635 0
-246 -4622 4636 0
-4623 4636 0
-246 -4623 4637 0
-4624 4637 0
-246 -4624 4638 0
-4625 4638 0
-246 -4625 4639 0
-4626 4639 0
-246 -4626 4640 0
-4627 4640 0
-246 -4627 4641 0
-4628 4641 0
-246 -4628 4642 0
-4629 4642 0
-246 -4629 4643 0
-4630 4643 0
-246 -4630 4644 0
-4631 4644 0
-246 -4631 4645 0
-4632 4645 0
-246 -4632 4646 0
-4633 4646 0
-246 -4633 0
-247 4647 0
-4634 4647 0
-247 -4634 4648 0
-4635 4648 0
-247 -4635 4649 0
-4636 4649 0
-247 -4636 4650 0
-4637 4650 0
-247 -4637 4651 0
-4638 4651 0
-247 -4638 4652 0
-4639 4652 0
-247 -4639 4653 0
-4640 4653 0
-247 -4640 4654 0
-4641 4654 0
-247 -4641 4655 0
-4642 4655 0
-247 -4642 4656 0
-4643 4656 0
-247 -4643 4657 0
-4644 4657 0
-247 -4644 4658 0
-4645 4658 0
-247 -4645 4659 0
-4646 4659 0
-247 -4646 0
-248 4660 0
-4647 4660 0
-248 -4647 4661 0
-4648 4661 0
-248 -4648 4662 0
-4649 4662 0
-248 -4649 4663 0
-4650 4663 0
-248 -4650 4664 0
-4651 4664 0
-248 -4651 4665 0
-4652 4665 0
-248 -4652 4666 0
-4653 4666 0
-248 -4653 4667 0
-4654 4667 0
-248 -4654 4668 0
-4655 4668 0
-248 -4655 4669 0
-4656 4669 0
-248 -4656 4670 0
-4657 4670 0
-248 -4657 4671 0
-4658 4671 0
-248 -4658 4672 0
-4659 4672 0
-248 -4659 0
-249 4673 0
-4660 4673 0
-249 -4660 4674 0
-4661 4674 0
-249 -4661 4675 0
-4662 4675 0
-249 -4662 4676 0
-4663 4676 0
-249 -4663 4677 0
-4664 4677 0
-249 -4664 4678 0
-4665 4678 0
-249 -4665 4679 0
-4666 4679 0
-249 -4666 4680 0
-4667 4680 0
-249 -4667 4681 0
-4668 4681 0
-249 -4668 4682 0
-4669 4682 0
-249 -4669 4683 0
-4670 4683 0
-249 -4670 4684 0
-4671 4684 0
-249 -4671 4685 0
-4672 4685 0
-249 -4672 0
-250 4686 0
-4673 4686 0
-250 -4673 4687 0
-4674 4687 0
-250 -4674 4688 0
-4675 4688 0
-250 -4675 4689 0
-4676 4689 0
-250 -4676 4690 0
-4677 4690 0
-250 -4677 4691 0
-4678 4691 0
-250 -4678 4692 0
-4679 4692 0
-250 -4679 4693 0
-4680 4693 0
-250 -4680 4694 0
-4681 4694 0
-250 -4681 4695 0
-4682 4695 0
-250 -4682 4696 0
-4683 4696 0
-250 -4683 4697 0
-4684 4697 0
-250 -4684 4698 0
-4685 4698 0
-250 -4685 0
-251 4699 0
-4686 4699 0
-251 -4686 4700 0
-4687 4700 0
-251 -4687 4701 0
-4688 4701 0
-251 -4688 4702 0
-4689 4702 0
-251 -4689 4703 0
-4690 4703 0
-251 -4690 4704 0
-4691 4704 0
-251 -4691 4705 0
-4692 4705 0
-251 -4692 4706 0
-4693 4706 0
-251 -4693 4707 0
-4694 4707 0
-251 -4694 4708 0
-4695 4708 0
-251 -4695 4709 0
-4696 4709 0
-251 -4696 4710 0
-4697 4710 0
-251 -4697 4711 0
-4698 4711 0
-251 -4698 0
-252 4712 0
-4699 4712 0
-252 -4699 4713 0
-4700 4713 0
-252 -4700 4714 0
-4701 4714 0
-252 -4701 4715 0
-4702 4715 0
-252 -4702 4716 0
-4703 4716 0
-252 -4703 4717 0
-4704 4717 0
-252 -4704 4718 0
-4705 4718 0
-252 -4705 4719 0
-4706 4719 0
-252 -4706 4720 0
-4707 4720 0
-252 -4707 4721 0
-4708 4721 0
-252 -4708 4722 0
-4709 4722 0
-252 -4709 4723 0
-4710 4723 0
-252 -4710 4724 0
-4711 4724 0
-252 -4711 0
-253 4725 0
-4712 4725 0
-253 -4712 4726 0
-4713 4726 0
-253 -4713 4727 0
-4714 4727 0
-253 -4714 4728 0
-4715 4728 0
-253 -4715 4729 0
-4716 4729 0
-253 -4716 4730 0
-4717 4730 0
-253 -4717 4731 0
-4718 4731 0
-253 -4718 4732 0
-4719 4732 0
-253 -4719 4733 0
-4720 4733 0
-253 -4720 4734 0
-4721 4734 0
-253 -4721 4735 0
-4722 4735 0
-253 -4722 4736 0
-4723 4736 0
-253 -4723 4737 0
-4724 4737 0
-253 -4724 0
-254 4738 0
-4725 4738 0
-254 -4725 4739 0
-4726 4739 0
-254 -4726 4740 0
-4727 4740 0
-254 -4727 4741 0
-4728 4741 0
-254 -4728 4742 0
-4729 4742 0
-254 -4729 4743 0
-4730 4743 0
-254 -4730 4744 0
-4731 4744 0
-254 -4731 4745 0
-4732 4745 0
-254 -4732 4746 0
-4733 4746 0
-254 -4733 4747 0
-4734 4747 0
-254 -4734 4748 0
-4735 4748 0
-254 -4735 4749 0
-4736 4749 0
-254 -4736 4750 0
-4737 4750 0
-254 -4737 0
-255 4751 0
-4738 4751 0
-255 -4738 4752 0
-4739 4752 0
-255 -4739 4753 0
-4740 4753 0
-255 -4740 4754 0
-4741 4754 0
-255 -4741 4755 0
-4742 4755 0
-255 -4742 4756 0
-4743 4756 0
-255 -4743 4757 0
-4744 4757 0
-255 -4744 4758 0
-4745 4758 0
-255 -4745 4759 0
-4746 4759 0
-255 -4746 4760 0
-4747 4760 0
-255 -4747 4761 0
-4748 4761 0
-255 -4748 4762 0
-4749 4762 0
-255 -4749 4763 0
-4750 4763 0
-255 -4750 0
-256 4764 0
-4751 4764 0
-256 -4751 4765 0
-4752 4765 0
-256 -4752 4766 0
-4753 4766 0
-256 -4753 4767 0
-4754 4767 0
-256 -4754 4768 0
-4755 4768 0
-256 -4755 4769 0
-4756 4769 0
-256 -4756 4770 0
-4757 4770 0
-256 -4757 4771 0
-4758 4771 0
-256 -4758 4772 0
-4759 4772 0
-256 -4759 4773 0
-4760 4773 0
-256 -4760 4774 0
-4761 4774 0
-256 -4761 4775 0
-4762 4775 0
-256 -4762 4776 0
-4763 4776 0
-256 -4763 0
-257 4777 0
-4764 4777 0
-257 -4764 4778 0
-4765 4778 0
-257 -4765 4779 0
-4766 4779 0
-257 -4766 4780 0
-4767 4780 0
-257 -4767 4781 0
-4768 4781 0
-257 -4768 4782 0
-4769 4782 0
-257 -4769 4783 0
-4770 4783 0
-257 -4770 4784 0
-4771 4784 0
-257 -4771 4785 0
-4772 4785 0
-257 -4772 4786 0
-4773 4786 0
-257 -4773 4787 0
-4774 4787 0
-257 -4774 4788 0
-4775 4788 0
-257 -4775 4789 0
-4776 4789 0
-257 -4776 0
-258 4790 0
-4777 4790 0
-258 -4777 4791 0
-4778 4791 0
-258 -4778 4792 0
-4779 4792 0
-258 -4779 4793 0
-4780 4793 0
-258 -4780 4794 0
-4781 4794 0
-258 -4781 4795 0
-4782 4795 0
-258 -4782 4796 0
-4783 4796 0
-258 -4783 4797 0
-4784 4797 0
-258 -4784 4798 0
-4785 4798 0
-258 -4785 4799 0
-4786 4799 0
-258 -4786 4800 0
-4787 4800 0
-258 -4787 4801 0
-4788 4801 0
-258 -4788 4802 0
-4789 4802 0
-258 -4789 0
-259 4803 0
-4790 4803 0
-259 -4790 4804 0
-4791 4804 0
-259 -4791 4805 0
-4792 4805 0
-259 -4792 4806 0
-4793 4806 0
-259 -4793 4807 0
-4794 4807 0
-259 -4794 4808 0
-4795 4808 0
-259 -4795 4809 0
-4796 4809 0
-259 -4796 4810 0
-4797 4810 0
-259 -4797 4811 0
-4798 4811 0
-259 -4798 4812 0
-4799 4812 0
-259 -4799 4813 0
-4800 4813 0
-259 -4800 4814 0
-4801 4814 0
-259 -4801 4815 0
-4802 4815 0
-259 -4802 0
-260 4816 0
-4803 4816 0
-260 -4803 4817 0
-4804 4817 0
-260 -4804 4818 0
-4805 4818 0
-260 -4805 4819 0
-4806 4819 0
-260 -4806 4820 0
-4807 4820 0
-260 -4807 4821 0
-4808 4821 0
-260 -4808 4822 0
-4809 4822 0
-260 -4809 4823 0
-4810 4823 0
-260 -4810 4824 0
-4811 4824 0
-260 -4811 4825 0
-4812 4825 0
-260 -4812 4826 0
-4813 4826 0
-260 -4813 4827 0
-4814 4827 0
-260 -4814 4828 0
-4815 4828 0
-260 -4815 0
-261 4829 0
-4816 4829 0
-261 -4816 4830 0
-4817 4830 0
-261 -4817 4831 0
-4818 4831 0
-261 -4818 4832 0
-4819 4832 0
-261 -4819 4833 0
-4820 4833 0
-261 -4820 4834 0
-4821 4834 0
-261 -4821 4835 0
-4822 4835 0
-261 -4822 4836 0
-4823 4836 0
-261 -4823 4837 0
-4824 4837 0
-261 -4824 4838 0
-4825 4838 0
-261 -4825 4839 0
-4826 4839 0
-261 -4826 4840 0
-4827 4840 0
-261 -4827 4841 0
-4828 4841 0
-261 -4828 0
-262 4842 0
-4829 4842 0
-262 -4829 4843 0
-4830 4843 0
-262 -4830 4844 0
-4831 4844 0
-262 -4831 4845 0
-4832 4845 0
-262 -4832 4846 0
-4833 4846 0
-262 -4833 4847 0
-4834 4847 0
-262 -4834 4848 0
-4835 4848 0
-262 -4835 4849 0
-4836 4849 0
-262 -4836 4850 0
-4837 4850 0
-262 -4837 4851 0
-4838 4851 0
-262 -4838 4852 0
-4839 4852 0
-262 -4839 4853 0
-4840 4853 0
-262 -4840 4854 0
-4841 4854 0
-262 -4841 0
-263 4855 0
-4842 4855 0
-263 -4842 4856 0
-4843 4856 0
-263 -4843 4857 0
-4844 4857 0
-263 -4844 4858 0
-4845 4858 0
-263 -4845 4859 0
-4846 4859 0
-263 -4846 4860 0
-4847 4860 0
-263 -4847 4861 0
-4848 4861 0
-263 -4848 4862 0
-4849 4862 0
-263 -4849 4863 0
-4850 4863 0
-263 -4850 4864 0
-4851 4864 0
-263 -4851 4865 0
-4852 4865 0
-263 -4852 4866 0
-4853 4866 0
-263 -4853 4867 0
-4854 4867 0
-263 -4854 0
-264 4868 0
-4855 4868 0
-264 -4855 4869 0
-4856 4869 0
-264 -4856 4870 0
-4857 4870 0
-264 -4857 4871 0
-4858 4871 0
-264 -4858 4872 0
-4859 4872 0
-264 -4859 4873 0
-4860 4873 0
-264 -4860 4874 0
-4861 4874 0
-264 -4861 4875 0
-4862 4875 0
-264 -4862 4876 0
-4863 4876 0
-264 -4863 4877 0
-4864 4877 0
-264 -4864 4878 0
-4865 4878 0
-264 -4865 4879 0
-4866 4879 0
-264 -4866 4880 0
-4867 4880 0
-264 -4867 0
-265 4881 0
-4868 4881 0
-265 -4868 4882 0
-4869 4882 0
-265 -4869 4883 0
-4870 4883 0
-265 -4870 4884 0
-4871 4884 0
-265 -4871 4885 0
-4872 4885 0
-265 -4872 4886 0
-4873 4886 0
-265 -4873 4887 0
-4874 4887 0
-265 -4874 4888 0
-4875 4888 0
-265 -4875 4889 0
-4876 4889 0
-265 -4876 4890 0
-4877 4890 0
-265 -4877 4891 0
-4878 4891 0
-265 -4878 4892 0
-4879 4892 0
-265 -4879 4893 0
-4880 4893 0
-265 -4880 0
-266 4894 0
-4881 4894 0
-266 -4881 4895 0
-4882 4895 0
-266 -4882 4896 0
-4883 4896 0
-266 -4883 4897 0
-4884 4897 0
-266 -4884 4898 0
-4885 4898 0
-266 -4885 4899 0
-4886 4899 0
-266 -4886 4900 0
-4887 4900 0
-266 -4887 4901 0
-4888 4901 0
-266 -4888 4902 0
-4889 4902 0
-266 -4889 4903 0
-4890 4903 0
-266 -4890 4904 0
-4891 4904 0
-266 -4891 4905 0
-4892 4905 0
-266 -4892 4906 0
-4893 4906 0
-266 -4893 0
-267 4907 0
-4894 4907 0
-267 -4894 4908 0
-4895 4908 0
-267 -4895 4909 0
-4896 4909 0
-267 -4896 4910 0
-4897 4910 0
-267 -4897 4911 0
-4898 4911 0
-267 -4898 4912 0
-4899 4912 0
-267 -4899 4913 0
-4900 4913 0
-267 -4900 4914 0
-4901 4914 0
-267 -4901 4915 0
-4902 4915 0
-267 -4902 4916 0
-4903 4916 0
-267 -4903 4917 0
-4904 4917 0
-267 -4904 4918 0
-4905 4918 0
-267 -4905 4919 0
-4906 4919 0
-267 -4906 0
-268 4920 0
-4907 4920 0
-268 -4907 4921 0
-4908 4921 0
-268 -4908 4922 0
-4909 4922 0
-268 -4909 4923 0
-4910 4923 0
-268 -4910 4924 0
-4911 4924 0
-268 -4911 4925 0
-4912 4925 0
-268 -4912 4926 0
-4913 4926 0
-268 -4913 4927 0
-4914 4927 0
-268 -4914 4928 0
-4915 4928 0
-268 -4915 4929 0
-4916 4929 0
-268 -4916 4930 0
-4917 4930 0
-268 -4917 4931 0
-4918 4931 0
-268 -4918 4932 0
-4919 4932 0
-268 -4919 0
-269 4933 0
-4920 4933 0
-269 -4920 4934 0
-4921 4934 0
-269 -4921 4935 0
-4922 4935 0
-269 -4922 4936 0
-4923 4936 0
-269 -4923 4937 0
-4924 4937 0
-269 -4924 4938 0
-4925 4938 0
-269 -4925 4939 0
-4926 4939 0
-269 -4926 4940 0
-4927 4940 0
-269 -4927 4941 0
-4928 4941 0
-269 -4928 4942 0
-4929 4942 0
-269 -4929 4943 0
-4930 4943 0
-269 -4930 4944 0
-4931 4944 0
-269 -4931 4945 0
-4932 4945 0
-269 -4932 0
-270 4946 0
-4933 4946 0
-270 -4933 4947 0
-4934 4947 0
-270 -4934 4948 0
-4935 4948 0
-270 -4935 4949 0
-4936 4949 0
-270 -4936 4950 0
-4937 4950 0
-270 -4937 4951 0
-4938 4951 0
-270 -4938 4952 0
-4939 4952 0
-270 -4939 4953 0
-4940 4953 0
-270 -4940 4954 0
-4941 4954 0
-270 -4941 4955 0
-4942 4955 0
-270 -4942 4956 0
-4943 4956 0
-270 -4943 4957 0
-4944 4957 0
-270 -4944 4958 0
-4945 4958 0
-270 -4945 0
-271 4959 0
-4946 4959 0
-271 -4946 4960 0
-4947 4960 0
-271 -4947 4961 0
-4948 4961 0
-271 -4948 4962 0
-4949 4962 0
-271 -4949 4963 0
-4950 4963 0
-271 -4950 4964 0
-4951 4964 0
-271 -4951 4965 0
-4952 4965 0
-271 -4952 4966 0
-4953 4966 0
-271 -4953 4967 0
-4954 4967 0
-271 -4954 4968 0
-4955 4968 0
-271 -4955 4969 0
-4956 4969 0
-271 -4956 4970 0
-4957 4970 0
-271 -4957 4971 0
-4958 4971 0
-271 -4958 0
-272 4972 0
-4959 4972 0
-272 -4959 4973 0
-4960 4973 0
-272 -4960 4974 0
-4961 4974 0
-272 -4961 4975 0
-4962 4975 0
-272 -4962 4976 0
-4963 4976 0
-272 -4963 4977 0
-4964 4977 0
-272 -4964 4978 0
-4965 4978 0
-272 -4965 4979 0
-4966 4979 0
-272 -4966 4980 0
-4967 4980 0
-272 -4967 4981 0
-4968 4981 0
-272 -4968 4982 0
-4969 4982 0
-272 -4969 4983 0
-4970 4983 0
-272 -4970 4984 0
-4971 4984 0
-272 -4971 0
-273 4985 0
-4972 4985 0
-273 -4972 4986 0
-4973 4986 0
-273 -4973 4987 0
-4974 4987 0
-273 -4974 4988 0
-4975 4988 0
-273 -4975 4989 0
-4976 4989 0
-273 -4976 4990 0
-4977 4990 0
-273 -4977 4991 0
-4978 4991 0
-273 -4978 4992 0
-4979 4992 0
-273 -4979 4993 0
-4980 4993 0
-273 -4980 4994 0
-4981 4994 0
-273 -4981 4995 0
-4982 4995 0
-273 -4982 4996 0
-4983 4996 0
-273 -4983 4997 0
-4984 4997 0
-273 -4984 0
-274 4998 0
-4985 4998 0
-274 -4985 4999 0
-4986 4999 0
-274 -4986 5000 0
-4987 5000 0
-274 -4987 5001 0
-4988 5001 0
-274 -4988 5002 0
-4989 5002 0
-274 -4989 5003 0
-4990 5003 0
-274 -4990 5004 0
-4991 5004 0
-274 -4991 5005 0
-4992 5005 0
-274 -4992 5006 0
-4993 5006 0
-274 -4993 5007 0
-4994 5007 0
-274 -4994 5008 0
-4995 5008 0
-274 -4995 5009 0
-4996 5009 0
-274 -4996 5010 0
-4997 5010 0
-274 -4997 0
-275 5011 0
-4998 5011 0
-275 -4998 5012 0
-4999 5012 0
-275 -4999 5013 0
-5000 5013 0
-275 -5000 5014 0
-5001 5014 0
-275 -5001 5015 0
-5002 5015 0
-275 -5002 5016 0
-5003 5016 0
-275 -5003 5017 0
-5004 5017 0
-275 -5004 5018 0
-5005 5018 0
-275 -5005 5019 0
-5006 5019 0
-275 -5006 5020 0
-5007 5020 0
-275 -5007 5021 0
-5008 5021 0
-275 -5008 5022 0
-5009 5022 0
-275 -5009 5023 0
-5010 5023 0
-275 -5010 0
-276 5024 0
-5011 5024 0
-276 -5011 5025 0
-5012 5025 0
-276 -5012 5026 0
-5013 5026 0
-276 -5013 5027 0
-5014 5027 0
-276 -5014 5028 0
-5015 5028 0
-276 -5015 5029 0
-5016 5029 0
-276 -5016 5030 0
-5017 5030 0
-276 -5017 5031 0
-5018 5031 0
-276 -5018 5032 0
-5019 5032 0
-276 -5019 5033 0
-5020 5033 0
-276 -5020 5034 0
-5021 5034 0
-276 -5021 5035 0
-5022 5035 0
-276 -5022 5036 0
-5023 5036 0
-276 -5023 0
-277 5037 0
-5024 5037 0
-277 -5024 5038 0
-5025 5038 0
-277 -5025 5039 0
-5026 5039 0
-277 -5026 5040 0
-5027 5040 0
-277 -5027 5041 0
-5028 5041 0
-277 -5028 5042 0
-5029 5042 0
-277 -5029 5043 0
-5030 5043 0
-277 -5030 5044 0
-5031 5044 0
-277 -5031 5045 0
-5032 5045 0
-277 -5032 5046 0
-5033 5046 0
-277 -5033 5047 0
-5034 5047 0
-277 -5034 5048 0
-5035 5048 0
-277 -5035 5049 0
-5036 5049 0
-277 -5036 0
-278 5050 0
-5037 5050 0
-278 -5037 5051 0
-5038 5051 0
-278 -5038 5052 0
-5039 5052 0
-278 -5039 5053 0
-5040 5053 0
-278 -5040 5054 0
-5041 5054 0
-278 -5041 5055 0
-5042 5055 0
-278 -5042 5056 0
-5043 5056 0
-278 -5043 5057 0
-5044 5057 0
-278 -5044 5058 0
-5045 5058 0
-278 -5045 5059 0
-5046 5059 0
-278 -5046 5060 0
-5047 5060 0
-278 -5047 5061 0
-5048 5061 0
-278 -5048 5062 0
-5049 5062 0
-278 -5049 0
-279 5063 0
-5050 5063 0
-279 -5050 5064 0
-5051 5064 0
-279 -5051 5065 0
-5052 5065 0
-279 -5052 5066 0
-5053 5066 0
-279 -5053 5067 0
-5054 5067 0
-279 -5054 5068 0
-5055 5068 0
-279 -5055 5069 0
-5056 5069 0
-279 -5056 5070 0
-5057 5070 0
-279 -5057 5071 0
-5058 5071 0
-279 -5058 5072 0
-5059 5072 0
-279 -5059 5073 0
-5060 5073 0
-279 -5060 5074 0
-5061 5074 0
-279 -5061 5075 0
-5062 5075 0
-279 -5062 0
-280 5076 0
-5063 5076 0
-280 -5063 5077 0
-5064 5077 0
-280 -5064 5078 0
-5065 5078 0
-280 -5065 5079 0
-5066 5079 0
-280 -5066 5080 0
-5067 5080 0
-280 -5067 5081 0
-5068 5081 0
-280 -5068 5082 0
-5069 5082 0
-280 -5069 5083 0
-5070 5083 0
-280 -5070 5084 0
-5071 5084 0
-280 -5071 5085 0
-5072 5085 0
-280 -5072 5086 0
-5073 5086 0
-280 -5073 5087 0
-5074 5087 0
-280 -5074 5088 0
-5075 5088 0
-280 -5075 0
-281 5089 0
-5076 5089 0
-281 -5076 5090 0
-5077 5090 0
-281 -5077 5091 0
-5078 5091 0
-281 -5078 5092 0
-5079 5092 0
-281 -5079 5093 0
-5080 5093 0
-281 -5080 5094 0
-5081 5094 0
-281 -5081 5095 0
-5082 5095 0
-281 -5082 5096 0
-5083 5096 0
-281 -5083 5097 0
-5084 5097 0
-281 -5084 5098 0
-5085 5098 0
-281 -5085 5099 0
-5086 5099 0
-281 -5086 5100 0
-5087 5100 0
-281 -5087 5101 0
-5088 5101 0
-281 -5088 0
-282 5102 0
-5089 5102 0
-282 -5089 5103 0
-5090 5103 0
-282 -5090 5104 0
-5091 5104 0
-282 -5091 5105 0
-5092 5105 0
-282 -5092 5106 0
-5093 5106 0
-282 -5093 5107 0
-5094 5107 0
-282 -5094 5108 0
-5095 5108 0
-282 -5095 5109 0
-5096 5109 0
-282 -5096 5110 0
-5097 5110 0
-282 -5097 5111 0
-5098 5111 0
-282 -5098 5112 0
-5099 5112 0
-282 -5099 5113 0
-5100 5113 0
-282 -5100 5114 0
-5101 5114 0
-282 -5101 0
-283 5115 0
-5102 5115 0
-283 -5102 5116 0
-5103 5116 0
-283 -5103 5117 0
-5104 5117 0
-283 -5104 5118 0
-5105 5118 0
-283 -5105 5119 0
-5106 5119 0
-283 -5106 5120 0
-5107 5120 0
-283 -5107 5121 0
-5108 5121 0
-283 -5108 5122 0
-5109 5122 0
-283 -5109 5123 0
-5110 5123 0
-283 -5110 5124 0
-5111 5124 0
-283 -5111 5125 0
-5112 5125 0
-283 -5112 5126 0
-5113 5126 0
-283 -5113 5127 0
-5114 5127 0
-283 -5114 0
-284 5128 0
-5115 5128 0
-284 -5115 5129 0
-5116 5129 0
-284 -5116 5130 0
-5117 5130 0
-284 -5117 5131 0
-5118 5131 0
-284 -5118 5132 0
-5119 5132 0
-284 -5119 5133 0
-5120 5133 0
-284 -5120 5134 0
-5121 5134 0
-284 -5121 5135 0
-5122 5135 0
-284 -5122 5136 0
-5123 5136 0
-284 -5123 5137 0
-5124 5137 0
-284 -5124 5138 0
-5125 5138 0
-284 -5125 5139 0
-5126 5139 0
-284 -5126 5140 0
-5127 5140 0
-284 -5127 0
-285 5141 0
-5128 5141 0
-285 -5128 5142 0
-5129 5142 0
-285 -5129 5143 0
-5130 5143 0
-285 -5130 5144 0
-5131 5144 0
-285 -5131 5145 0
-5132 5145 0
-285 -5132 5146 0
-5133 5146 0
-285 -5133 5147 0
-5134 5147 0
-285 -5134 5148 0
-5135 5148 0
-285 -5135 5149 0
-5136 5149 0
-285 -5136 5150 0
-5137 5150 0
-285 -5137 5151 0
-5138 5151 0
-285 -5138 5152 0
-5139 5152 0
-285 -5139 5153 0
-5140 5153 0
-285 -5140 0
-286 5154 0
-5141 5154 0
-286 -5141 5155 0
-5142 5155 0
-286 -5142 5156 0
-5143 5156 0
-286 -5143 5157 0
-5144 5157 0
-286 -5144 5158 0
-5145 5158 0
-286 -5145 5159 0
-5146 5159 0
-286 -5146 5160 0
-5147 5160 0
-286 -5147 5161 0
-5148 5161 0
-286 -5148 5162 0
-5149 5162 0
-286 -5149 5163 0
-5150 5163 0
-286 -5150 5164 0
-5151 5164 0
-286 -5151 5165 0
-5152 5165 0
-286 -5152 5166 0
-5153 5166 0
-286 -5153 0
-287 5167 0
-5154 5167 0
-287 -5154 5168 0
-5155 5168 0
-287 -5155 5169 0
-5156 5169 0
-287 -5156 5170 0
-5157 5170 0
-287 -5157 5171 0
-5158 5171 0
-287 -5158 5172 0
-5159 5172 0
-287 -5159 5173 0
-5160 5173 0
-287 -5160 5174 0
-5161 5174 0
-287 -5161 5175 0
-5162 5175 0
-287 -5162 5176 0
-5163 5176 0
-287 -5163 5177 0
-5164 5177 0
-287 -5164 5178 0
-5165 5178 0
-287 -5165 5179 0
-5166 5179 0
-287 -5166 0
-288 -5179 0
-1 0
-2 0
-3 0
-4 0
-5 0
-6 0
-7 0
-8 0
-9 0
-10 0
-11 0
-12 0
-13 0
-14 0
-15 0
-16 0
-17 0
-18 0
-19 0
-20 0
-21 0
-22 0
-23 0
-24 0
-25 0
-26 0
-27 0
-28 0
-29 0
-30 0
-31 0
-32 0
-33 0
-34 0
-35 0
-36 0
-37 0
-38 0
-39 0
-40 0
-41 0
-42 0
-43 0
-44 0
-45 0
-46 0
-47 0
-48 0
-49 0
-50 0
-51 0
-52 0
-53 0
-54 0
-55 0
-56 0
-57 0
-58 0
-59 0
-60 0
-61 0
-62 0
-63 0
-64 0
-65 0
-66 0
-67 0
-68 0
-69 0
-70 0
-71 0
-72 0
-73 0
-74 0
-75 0
-76 0
-77 0
-78 0
-79 0
-80 0
-81 0
-82 0
-83 0
-84 0
-85 0
-86 0
-87 0
-88 0
-89 0
-90 0
-91 0
-92 0
-93 0
-94 0
-95 0
-96 0
-97 0
-98 0
-99 0
-100 0
-101 0
-102 0
-103 0
-104 0
-105 0
-106 0
-107 0
-108 0
-109 0
-110 0
-111 0
-112 0
-113 0
-114 0
-115 0
-116 0
-117 0
-118 0
-119 0
-120 0
-121 0
-122 0
-123 0
-124 0
-125 0
-126 0
-127 0
-128 0
-129 0
-130 0
-131 0
-132 0
-133 0
-134 0
-135 0
-136 0
-137 0
-138 0
-139 0
-140 0
-141 0
-142 0
-143 0
-144 0
145 0
