p cnf 4031 10374
-289 10 121 0
-289 -10 -121 0
289 -10 121 0
289 10 -121 0
-290 289 133 0
-290 -289 -133 0
290 -289 133 0
290 289 -133 0
-291 290 150 0
-291 -290 -150 0
291 -290 150 0
291 290 -150 0
-292 291 155 0
-292 -291 -155 0
292 -291 155 0
292 291 -155 0
-293 292 253 0
-293 -292 -253 0
293 -292 253 0
293 292 -253 0
-293 0
-294 11 122 0
-294 -11 -122 0
294 -11 122 0
294 11 -122 0
-295 294 134 0
-295 -294 -134 0
295 -294 134 0
295 294 -134 0
-296 295 151 0
-296 -295 -151 0
296 -295 151 0
296 295 -151 0
-297 296 156 0
-297 -296 -156 0
297 -296 156 0
297 296 -156 0
-298 297 254 0
-298 -297 -254 0
298 -297 254 0
298 297 -254 0
-298 0
-299 12 123 0
-299 -12 -123 0
299 -12 123 0
299 12 -123 0
-300 299 135 0
-300 -299 -135 0
300 -299 135 0
300 299 -135 0
-301 300 145 0
-301 -300 -145 0
301 -300 145 0
301 300 -145 0
-302 301 152 0
-302 -301 -152 0
302 -301 152 0
302 301 -152 0
-303 302 255 0
-303 -302 -255 0
303 -302 255 0
303 302 -255 0
-303 0
-304 1 124 0
-304 -1 -124 0
304 -1 124 0
304 1 -124 0
-305 304 136 0
-305 -304 -136 0
305 -304 136 0
305 304 -136 0
-306 305 146 0
-306 -305 -146 0
306 -305 146 0
306 305 -146 0
-307 306 153 0
-307 -306 -153 0
307 -306 153 0
307 306 -153 0
-308 307 256 0
-308 -307 -256 0
308 -307 256 0
308 307 -256 0
-308 0
-309 2 125 0
-309 -2 -125 0
309 -2 125 0
309 2 -125 0
-310 309 137 0
-310 -309 -137 0
310 -309 137 0
310 309 -137 0
-311 310 147 0
-311 -310 -147 0
311 -310 147 0
311 310 -147 0
-312 311 154 0
-312 -311 -154 0
312 -311 154 0
312 311 -154 0
-313 312 257 0
-313 -312 -257 0
313 -312 257 0
313 312 -257 0
-313 0
-314 3 126 0
-314 -3 -126 0
314 -3 126 0
314 3 -126 0
-315 314 138 0
-315 -314 -138 0
315 -314 138 0
315 314 -138 0
-316 315 148 0
-316 -315 -148 0
316 -315 148 0
316 315 -148 0
-317 316 155 0
-317 -316 -155 0
317 -316 155 0
317 316 -155 0
-318 317 258 0
-318 -317 -258 0
318 -317 258 0
318 317 -258 0
-318 0
-319 4 127 0
-319 -4 -127 0
319 -4 127 0
319 4 -127 0
-320 319 139 0
-320 -319 -139 0
320 -319 139 0
320 319 -139 0
-321 320 149 0
-321 -320 -149 0
321 -320 149 0
321 320 -149 0
-322 321 156 0
-322 -321 -156 0
322 -321 156 0
322 321 -156 0
-323 322 259 0
-323 -322 -259 0
323 -322 259 0
323 322 -259 0
-323 0
-324 5 128 0
-324 -5 -128 0
324 -5 128 0
324 5 -128 0
-325 324 140 0
-325 -324 -140 0
325 -324 140 0
325 324 -140 0
-326 325 145 0
-326 -325 -145 0
326 -325 145 0
326 325 -145 0
-327 326 150 0
-327 -326 -150 0
327 -326 150 0
327 326 -150 0
-328 327 260 0
-328 -327 -260 0
328 -327 260 0
328 327 -260 0
-328 0
-329 6 129 0
-329 -6 -129 0
329 -6 129 0
329 6 -129 0
-330 329 141 0
-330 -329 -141 0
330 -329 141 0
330 329 -141 0
-331 330 146 0
-331 -330 -146 0
331 -330 146 0
331 330 -146 0
-332 331 151 0
-332 -331 -151 0
332 -331 151 0
332 331 -151 0
-333 332 261 0
-333 -332 -261 0
333 -332 261 0
333 332 -261 0
-333 0
-334 7 130 0
-334 -7 -130 0
334 -7 130 0
334 7 -130 0
-335 334 142 0
-335 -334 -142 0
335 -334 142 0
335 334 -142 0
-336 335 147 0
-336 -335 -147 0
336 -335 147 0
336 335 -147 0
-337 336 152 0
-337 -336 -152 0
337 -336 152 0
337 336 -152 0
-338 337 262 0
-338 -337 -262 0
338 -337 262 0
338 337 -262 0
-338 0
-339 8 131 0
-339 -8 -131 0
339 -8 131 0
339 8 -131 0
-340 339 143 0
-340 -339 -143 0
340 -339 143 0
340 339 -143 0
-341 340 148 0
-341 -340 -148 0
341 -340 148 0
341 340 -148 0
-342 341 153 0
-342 -341 -153 0
342 -341 153 0
342 341 -153 0
-343 342 263 0
-343 -342 -263 0
343 -342 263 0
343 342 -263 0
-343 0
-344 9 132 0
-344 -9 -132 0
344 -9 132 0
344 9 -132 0
-345 344 144 0
-345 -344 -144 0
345 -344 144 0
345 344 -144 0
-346 345 149 0
-346 -345 -149 0
346 -345 149 0
346 345 -149 0
-347 346 154 0
-347 -346 -154 0
347 -346 154 0
347 346 -154 0
-348 347 264 0
-348 -347 -264 0
348 -347 264 0
348 347 -264 0
-348 0
-349 1 22 0
-349 -1 -22 0
349 -1 22 0
349 1 -22 0
-350 349 133 0
-350 -349 -133 0
350 -349 133 0
350 349 -133 0
-351 350 162 0
-351 -350 -162 0
351 -350 162 0
351 350 -162 0
-352 351 167 0
-352 -351 -167 0
352 -351 167 0
352 351 -167 0
-353 352 265 0
-353 -352 -265 0
353 -352 265 0
353 352 -265 0
-353 0
-354 2 23 0
-354 -2 -23 0
354 -2 23 0
354 2 -23 0
-355 354 134 0
-355 -354 -134 0
355 -354 134 0
355 354 -134 0
-356 355 163 0
-356 -355 -163 0
356 -355 163 0
356 355 -163 0
-357 356 168 0
-357 -356 -168 0
357 -356 168 0
357 356 -168 0
-358 357 266 0
-358 -357 -266 0
358 -357 266 0
358 357 -266 0
-358 0
-359 3 24 0
-359 -3 -24 0
359 -3 24 0
359 3 -24 0
-360 359 135 0
-360 -359 -135 0
360 -359 135 0
360 359 -135 0
-361 360 157 0
-361 -360 -157 0
361 -360 157 0
361 360 -157 0
-362 361 164 0
-362 -361 -164 0
362 -361 164 0
362 361 -164 0
-363 362 267 0
-363 -362 -267 0
363 -362 267 0
363 362 -267 0
-363 0
-364 4 13 0
-364 -4 -13 0
364 -4 13 0
364 4 -13 0
-365 364 136 0
-365 -364 -136 0
365 -364 136 0
365 364 -136 0
-366 365 158 0
-366 -365 -158 0
366 -365 158 0
366 365 -158 0
-367 366 165 0
-367 -366 -165 0
367 -366 165 0
367 366 -165 0
-368 367 268 0
-368 -367 -268 0
368 -367 268 0
368 367 -268 0
-368 0
-369 5 14 0
-369 -5 -14 0
369 -5 14 0
369 5 -14 0
-370 369 137 0
-370 -369 -137 0
370 -369 137 0
370 369 -137 0
-371 370 159 0
-371 -370 -159 0
371 -370 159 0
371 370 -159 0
-372 371 166 0
-372 -371 -166 0
372 -371 166 0
372 371 -166 0
-373 372 269 0
-373 -372 -269 0
373 -372 269 0
373 372 -269 0
-373 0
-374 6 15 0
-374 -6 -15 0
374 -6 15 0
374 6 -15 0
-375 374 138 0
-375 -374 -138 0
375 -374 138 0
375 374 -138 0
-376 375 160 0
-376 -375 -160 0
376 -375 160 0
376 375 -160 0
-377 376 167 0
-377 -376 -167 0
377 -376 167 0
377 376 -167 0
-378 377 270 0
-378 -377 -270 0
378 -377 270 0
378 377 -270 0
-378 0
-379 7 16 0
-379 -7 -16 0
379 -7 16 0
379 7 -16 0
-380 379 139 0
-380 -379 -139 0
380 -379 139 0
380 379 -139 0
-381 380 161 0
-381 -380 -161 0
381 -380 161 0
381 380 -161 0
-382 381 168 0
-382 -381 -168 0
382 -381 168 0
382 381 -168 0
-383 382 271 0
-383 -382 -271 0
383 -382 271 0
383 382 -271 0
-383 0
-384 8 17 0
-384 -8 -17 0
384 -8 17 0
384 8 -17 0
-385 384 140 0
-385 -384 -140 0
385 -384 140 0
385 384 -140 0
-386 385 157 0
-386 -385 -157 0
386 -385 157 0
386 385 -157 0
-387 386 162 0
-387 -386 -162 0
387 -386 162 0
387 386 -162 0
-388 387 272 0
-388 -387 -272 0
388 -387 272 0
388 387 -272 0
-388 0
-389 9 18 0
-389 -9 -18 0
389 -9 18 0
389 9 -18 0
-390 389 141 0
-390 -389 -141 0
390 -389 141 0
390 389 -141 0
-391 390 158 0
-391 -390 -158 0
391 -390 158 0
391 390 -158 0
-392 391 163 0
-392 -391 -163 0
392 -391 163 0
392 391 -163 0
-393 392 273 0
-393 -392 -273 0
393 -392 273 0
393 392 -273 0
-393 0
-394 10 19 0
-394 -10 -19 0
394 -10 19 0
394 10 -19 0
-395 394 142 0
-395 -394 -142 0
395 -394 142 0
395 394 -142 0
-396 395 159 0
-396 -395 -159 0
396 -395 159 0
396 395 -159 0
-397 396 164 0
-397 -396 -164 0
397 -396 164 0
397 396 -164 0
-398 397 274 0
-398 -397 -274 0
398 -397 274 0
398 397 -274 0
-398 0
-399 11 20 0
-399 -11 -20 0
399 -11 20 0
399 11 -20 0
-400 399 143 0
-400 -399 -143 0
400 -399 143 0
400 399 -143 0
-401 400 160 0
-401 -400 -160 0
401 -400 160 0
401 400 -160 0
-402 401 165 0
-402 -401 -165 0
402 -401 165 0
402 401 -165 0
-403 402 275 0
-403 -402 -275 0
403 -402 275 0
403 402 -275 0
-403 0
-404 12 21 0
-404 -12 -21 0
404 -12 21 0
404 12 -21 0
-405 404 144 0
-405 -404 -144 0
405 -404 144 0
405 404 -144 0
-406 405 161 0
-406 -405 -161 0
406 -405 161 0
406 405 -161 0
-407 406 166 0
-407 -406 -166 0
407 -406 166 0
407 406 -166 0
-408 407 276 0
-408 -407 -276 0
408 -407 276 0
408 407 -276 0
-408 0
-409 1 13 0
-409 -1 -13 0
409 -1 13 0
409 1 -13 0
-410 409 34 0
-410 -409 -34 0
410 -409 34 0
410 409 -34 0
-411 410 174 0
-411 -410 -174 0
411 -410 174 0
411 410 -174 0
-412 411 179 0
-412 -411 -179 0
412 -411 179 0
412 411 -179 0
-413 412 277 0
-413 -412 -277 0
413 -412 277 0
413 412 -277 0
-413 0
-414 2 14 0
-414 -2 -14 0
414 -2 14 0
414 2 -14 0
-415 414 35 0
-415 -414 -35 0
415 -414 35 0
415 414 -35 0
-416 415 175 0
-416 -415 -175 0
416 -415 175 0
416 415 -175 0
-417 416 180 0
-417 -416 -180 0
417 -416 180 0
417 416 -180 0
-418 417 278 0
-418 -417 -278 0
418 -417 278 0
418 417 -278 0
-418 0
-419 3 15 0
-419 -3 -15 0
419 -3 15 0
419 3 -15 0
-420 419 36 0
-420 -419 -36 0
420 -419 36 0
420 419 -36 0
-421 420 169 0
-421 -420 -169 0
421 -420 169 0
421 420 -169 0
-422 421 176 0
-422 -421 -176 0
422 -421 176 0
422 421 -176 0
-423 422 279 0
-423 -422 -279 0
423 -422 279 0
423 422 -279 0
-423 0
-424 4 16 0
-424 -4 -16 0
424 -4 16 0
424 4 -16 0
-425 424 25 0
-425 -424 -25 0
425 -424 25 0
425 424 -25 0
-426 425 170 0
-426 -425 -170 0
426 -425 170 0
426 425 -170 0
-427 426 177 0
-427 -426 -177 0
427 -426 177 0
427 426 -177 0
-428 427 280 0
-428 -427 -280 0
428 -427 280 0
428 427 -280 0
-428 0
-429 5 17 0
-429 -5 -17 0
429 -5 17 0
429 5 -17 0
-430 429 26 0
-430 -429 -26 0
430 -429 26 0
430 429 -26 0
-431 430 171 0
-431 -430 -171 0
431 -430 171 0
431 430 -171 0
-432 431 178 0
-432 -431 -178 0
432 -431 178 0
432 431 -178 0
-433 432 281 0
-433 -432 -281 0
433 -432 281 0
433 432 -281 0
-433 0
-434 6 18 0
-434 -6 -18 0
434 -6 18 0
434 6 -18 0
-435 434 27 0
-435 -434 -27 0
435 -434 27 0
435 434 -27 0
-436 435 172 0
-436 -435 -172 0
436 -435 172 0
436 435 -172 0
-437 436 179 0
-437 -436 -179 0
437 -436 179 0
437 436 -179 0
-438 437 282 0
-438 -437 -282 0
438 -437 282 0
438 437 -282 0
-438 0
-439 7 19 0
-439 -7 -19 0
439 -7 19 0
439 7 -19 0
-440 439 28 0
-440 -439 -28 0
440 -439 28 0
440 439 -28 0
-441 440 173 0
-441 -440 -173 0
441 -440 173 0
441 440 -173 0
-442 441 180 0
-442 -441 -180 0
442 -441 180 0
442 441 -180 0
-443 442 283 0
-443 -442 -283 0
443 -442 283 0
443 442 -283 0
-443 0
-444 8 20 0
-444 -8 -20 0
444 -8 20 0
444 8 -20 0
-445 444 29 0
-445 -444 -29 0
445 -444 29 0
445 444 -29 0
-446 445 169 0
-446 -445 -169 0
446 -445 169 0
446 445 -169 0
-447 446 174 0
-447 -446 -174 0
447 -446 174 0
447 446 -174 0
-448 447 284 0
-448 -447 -284 0
448 -447 284 0
448 447 -284 0
-448 0
-449 9 21 0
-449 -9 -21 0
449 -9 21 0
449 9 -21 0
-450 449 30 0
-450 -449 -30 0
450 -449 30 0
450 449 -30 0
-451 450 170 0
-451 -450 -170 0
451 -450 170 0
451 450 -170 0
-452 451 175 0
-452 -451 -175 0
452 -451 175 0
452 451 -175 0
-453 452 285 0
-453 -452 -285 0
453 -452 285 0
453 452 -285 0
-453 0
-454 10 22 0
-454 -10 -22 0
454 -10 22 0
454 10 -22 0
-455 454 31 0
-455 -454 -31 0
455 -454 31 0
455 454 -31 0
-456 455 171 0
-456 -455 -171 0
456 -455 171 0
456 455 -171 0
-457 456 176 0
-457 -456 -176 0
457 -456 176 0
457 456 -176 0
-458 457 286 0
-458 -457 -286 0
458 -457 286 0
458 457 -286 0
-458 0
-459 11 23 0
-459 -11 -23 0
459 -11 23 0
459 11 -23 0
-460 459 32 0
-460 -459 -32 0
460 -459 32 0
460 459 -32 0
-461 460 172 0
-461 -460 -172 0
461 -460 172 0
461 460 -172 0
-462 461 177 0
-462 -461 -177 0
462 -461 177 0
462 461 -177 0
-463 462 287 0
-463 -462 -287 0
463 -462 287 0
463 462 -287 0
-463 0
-464 12 24 0
-464 -12 -24 0
464 -12 24 0
464 12 -24 0
-465 464 33 0
-465 -464 -33 0
465 -464 33 0
465 464 -33 0
-466 465 173 0
-466 -465 -173 0
466 -465 173 0
466 465 -173 0
-467 466 178 0
-467 -466 -178 0
467 -466 178 0
467 466 -178 0
-468 467 288 0
-468 -467 -288 0
468 -467 288 0
468 467 -288 0
-468 0
-469 13 25 0
-469 -13 -25 0
469 -13 25 0
469 13 -25 0
-470 469 46 0
-470 -469 -46 0
470 -469 46 0
470 469 -46 0
-471 470 145 0
-471 -470 -145 0
471 -470 145 0
471 470 -145 0
-472 471 186 0
-472 -471 -186 0
472 -471 186 0
472 471 -186 0
-473 472 191 0
-473 -472 -191 0
473 -472 191 0
473 472 -191 0
-473 0
-474 14 26 0
-474 -14 -26 0
474 -14 26 0
474 14 -26 0
-475 474 47 0
-475 -474 -47 0
475 -474 47 0
475 474 -47 0
-476 475 146 0
-476 -475 -146 0
476 -475 146 0
476 475 -146 0
-477 476 187 0
-477 -476 -187 0
477 -476 187 0
477 476 -187 0
-478 477 192 0
-478 -477 -192 0
478 -477 192 0
478 477 -192 0
-478 0
-479 15 27 0
-479 -15 -27 0
479 -15 27 0
479 15 -27 0
-480 479 48 0
-480 -479 -48 0
480 -479 48 0
480 479 -48 0
-481 480 147 0
-481 -480 -147 0
481 -480 147 0
481 480 -147 0
-482 481 181 0
-482 -481 -181 0
482 -481 181 0
482 481 -181 0
-483 482 188 0
-483 -482 -188 0
483 -482 188 0
483 482 -188 0
-483 0
-484 16 28 0
-484 -16 -28 0
484 -16 28 0
484 16 -28 0
-485 484 37 0
-485 -484 -37 0
485 -484 37 0
485 484 -37 0
-486 485 148 0
-486 -485 -148 0
486 -485 148 0
486 485 -148 0
-487 486 182 0
-487 -486 -182 0
487 -486 182 0
487 486 -182 0
-488 487 189 0
-488 -487 -189 0
488 -487 189 0
488 487 -189 0
-488 0
-489 17 29 0
-489 -17 -29 0
489 -17 29 0
489 17 -29 0
-490 489 38 0
-490 -489 -38 0
490 -489 38 0
490 489 -38 0
-491 490 149 0
-491 -490 -149 0
491 -490 149 0
491 490 -149 0
-492 491 183 0
-492 -491 -183 0
492 -491 183 0
492 491 -183 0
-493 492 190 0
-493 -492 -190 0
493 -492 190 0
493 492 -190 0
-493 0
-494 18 30 0
-494 -18 -30 0
494 -18 30 0
494 18 -30 0
-495 494 39 0
-495 -494 -39 0
495 -494 39 0
495 494 -39 0
-496 495 150 0
-496 -495 -150 0
496 -495 150 0
496 495 -150 0
-497 496 184 0
-497 -496 -184 0
497 -496 184 0
497 496 -184 0
-498 497 191 0
-498 -497 -191 0
498 -497 191 0
498 497 -191 0
-498 0
-499 19 31 0
-499 -19 -31 0
499 -19 31 0
499 19 -31 0
-500 499 40 0
-500 -499 -40 0
500 -499 40 0
500 499 -40 0
-501 500 151 0
-501 -500 -151 0
501 -500 151 0
501 500 -151 0
-502 501 185 0
-502 -501 -185 0
502 -501 185 0
502 501 -185 0
-503 502 192 0
-503 -502 -192 0
503 -502 192 0
503 502 -192 0
-503 0
-504 20 32 0
-504 -20 -32 0
504 -20 32 0
504 20 -32 0
-505 504 41 0
-505 -504 -41 0
505 -504 41 0
505 504 -41 0
-506 505 152 0
-506 -505 -152 0
506 -505 152 0
506 505 -152 0
-507 506 181 0
-507 -506 -181 0
507 -506 181 0
507 506 -181 0
-508 507 186 0
-508 -507 -186 0
508 -507 186 0
508 507 -186 0
-508 0
-509 21 33 0
-509 -21 -33 0
509 -21 33 0
509 21 -33 0
-510 509 42 0
-510 -509 -42 0
510 -509 42 0
510 509 -42 0
-511 510 153 0
-511 -510 -153 0
511 -510 153 0
511 510 -153 0
-512 511 182 0
-512 -511 -182 0
512 -511 182 0
512 511 -182 0
-513 512 187 0
-513 -512 -187 0
513 -512 187 0
513 512 -187 0
-513 0
-514 22 34 0
-514 -22 -34 0
514 -22 34 0
514 22 -34 0
-515 514 43 0
-515 -514 -43 0
515 -514 43 0
515 514 -43 0
-516 515 154 0
-516 -515 -154 0
516 -515 154 0
516 515 -154 0
-517 516 183 0
-517 -516 -183 0
517 -516 183 0
517 516 -183 0
-518 517 188 0
-518 -517 -188 0
518 -517 188 0
518 517 -188 0
-518 0
-519 23 35 0
-519 -23 -35 0
519 -23 35 0
519 23 -35 0
-520 519 44 0
-520 -519 -44 0
520 -519 44 0
520 519 -44 0
-521 520 155 0
-521 -520 -155 0
521 -520 155 0
521 520 -155 0
-522 521 184 0
-522 -521 -184 0
522 -521 184 0
522 521 -184 0
-523 522 189 0
-523 -522 -189 0
523 -522 189 0
523 522 -189 0
-523 0
-524 24 36 0
-524 -24 -36 0
524 -24 36 0
524 24 -36 0
-525 524 45 0
-525 -524 -45 0
525 -524 45 0
525 524 -45 0
-526 525 156 0
-526 -525 -156 0
526 -525 156 0
526 525 -156 0
-527 526 185 0
-527 -526 -185 0
527 -526 185 0
527 526 -185 0
-528 527 190 0
-528 -527 -190 0
528 -527 190 0
528 527 -190 0
-528 0
-529 25 37 0
-529 -25 -37 0
529 -25 37 0
529 25 -37 0
-530 529 58 0
-530 -529 -58 0
530 -529 58 0
530 529 -58 0
-531 530 157 0
-531 -530 -157 0
531 -530 157 0
531 530 -157 0
-532 531 198 0
-532 -531 -198 0
532 -531 198 0
532 531 -198 0
-533 532 203 0
-533 -532 -203 0
533 -532 203 0
533 532 -203 0
-533 0
-534 26 38 0
-534 -26 -38 0
534 -26 38 0
534 26 -38 0
-535 534 59 0
-535 -534 -59 0
535 -534 59 0
535 534 -59 0
-536 535 158 0
-536 -535 -158 0
536 -535 158 0
536 535 -158 0
-537 536 199 0
-537 -536 -199 0
537 -536 199 0
537 536 -199 0
-538 537 204 0
-538 -537 -204 0
538 -537 204 0
538 537 -204 0
-538 0
-539 27 39 0
-539 -27 -39 0
539 -27 39 0
539 27 -39 0
-540 539 60 0
-540 -539 -60 0
540 -539 60 0
540 539 -60 0
-541 540 159 0
-541 -540 -159 0
541 -540 159 0
541 540 -159 0
-542 541 193 0
-542 -541 -193 0
542 -541 193 0
542 541 -193 0
-543 542 200 0
-543 -542 -200 0
543 -542 200 0
543 542 -200 0
-543 0
-544 28 40 0
-544 -28 -40 0
544 -28 40 0
544 28 -40 0
-545 544 49 0
-545 -544 -49 0
545 -544 49 0
545 544 -49 0
-546 545 160 0
-546 -545 -160 0
546 -545 160 0
546 545 -160 0
-547 546 194 0
-547 -546 -194 0
547 -546 194 0
547 546 -194 0
-548 547 201 0
-548 -547 -201 0
548 -547 201 0
548 547 -201 0
-548 0
-549 29 41 0
-549 -29 -41 0
549 -29 41 0
549 29 -41 0
-550 549 50 0
-550 -549 -50 0
550 -549 50 0
550 549 -50 0
-551 550 161 0
-551 -550 -161 0
551 -550 161 0
551 550 -161 0
-552 551 195 0
-552 -551 -195 0
552 -551 195 0
552 551 -195 0
-553 552 202 0
-553 -552 -202 0
553 -552 202 0
553 552 -202 0
-553 0
-554 30 42 0
-554 -30 -42 0
554 -30 42 0
554 30 -42 0
-555 554 51 0
-555 -554 -51 0
555 -554 51 0
555 554 -51 0
-556 555 162 0
-556 -555 -162 0
556 -555 162 0
556 555 -162 0
-557 556 196 0
-557 -556 -196 0
557 -556 196 0
557 556 -196 0
-558 557 203 0
-558 -557 -203 0
558 -557 203 0
558 557 -203 0
-558 0
-559 31 43 0
-559 -31 -43 0
559 -31 43 0
559 31 -43 0
-560 559 52 0
-560 -559 -52 0
560 -559 52 0
560 559 -52 0
-561 560 163 0
-561 -560 -163 0
561 -560 163 0
561 560 -163 0
-562 561 197 0
-562 -561 -197 0
562 -561 197 0
562 561 -197 0
-563 562 204 0
-563 -562 -204 0
563 -562 204 0
563 562 -204 0
-563 0
-564 32 44 0
-564 -32 -44 0
564 -32 44 0
564 32 -44 0
-565 564 53 0
-565 -564 -53 0
565 -564 53 0
565 564 -53 0
-566 565 164 0
-566 -565 -164 0
566 -565 164 0
566 565 -164 0
-567 566 193 0
-567 -566 -193 0
567 -566 193 0
567 566 -193 0
-568 567 198 0
-568 -567 -198 0
568 -567 198 0
568 567 -198 0
-568 0
-569 33 45 0
-569 -33 -45 0
569 -33 45 0
569 33 -45 0
-570 569 54 0
-570 -569 -54 0
570 -569 54 0
570 569 -54 0
-571 570 165 0
-571 -570 -165 0
571 -570 165 0
571 570 -165 0
-572 571 194 0
-572 -571 -194 0
572 -571 194 0
572 571 -194 0
-573 572 199 0
-573 -572 -199 0
573 -572 199 0
573 572 -199 0
-573 0
-574 34 46 0
-574 -34 -46 0
574 -34 46 0
574 34 -46 0
-575 574 55 0
-575 -574 -55 0
575 -574 55 0
575 574 -55 0
-576 575 166 0
-576 -575 -166 0
576 -575 166 0
576 575 -166 0
-577 576 195 0
-577 -576 -195 0
577 -576 195 0
577 576 -195 0
-578 577 200 0
-578 -577 -200 0
578 -577 200 0
578 577 -200 0
-578 0
-579 35 47 0
-579 -35 -47 0
579 -35 47 0
579 35 -47 0
-580 579 56 0
-580 -579 -56 0
580 -579 56 0
580 579 -56 0
-581 580 167 0
-581 -580 -167 0
581 -580 167 0
581 580 -167 0
-582 581 196 0
-582 -581 -196 0
582 -581 196 0
582 581 -196 0
-583 582 201 0
-583 -582 -201 0
583 -582 201 0
583 582 -201 0
-583 0
-584 36 48 0
-584 -36 -48 0
584 -36 48 0
584 36 -48 0
-585 584 57 0
-585 -584 -57 0
585 -584 57 0
585 584 -57 0
-586 585 168 0
-586 -585 -168 0
586 -585 168 0
586 585 -168 0
-587 586 197 0
-587 -586 -197 0
587 -586 197 0
587 586 -197 0
-588 587 202 0
-588 -587 -202 0
588 -587 202 0
588 587 -202 0
-588 0
-589 37 49 0
-589 -37 -49 0
589 -37 49 0
589 37 -49 0
-590 589 70 0
-590 -589 -70 0
590 -589 70 0
590 589 -70 0
-591 590 169 0
-591 -590 -169 0
591 -590 169 0
591 590 -169 0
-592 591 210 0
-592 -591 -210 0
592 -591 210 0
592 591 -210 0
-593 592 215 0
-593 -592 -215 0
593 -592 215 0
593 592 -215 0
-593 0
-594 38 50 0
-594 -38 -50 0
594 -38 50 0
594 38 -50 0
-595 594 71 0
-595 -594 -71 0
595 -594 71 0
595 594 -71 0
-596 595 170 0
-596 -595 -170 0
596 -595 170 0
596 595 -170 0
-597 596 211 0
-597 -596 -211 0
597 -596 211 0
597 596 -211 0
-598 597 216 0
-598 -597 -216 0
598 -597 216 0
598 597 -216 0
-598 0
-599 39 51 0
-599 -39 -51 0
599 -39 51 0
599 39 -51 0
-600 599 72 0
-600 -599 -72 0
600 -599 72 0
600 599 -72 0
-601 600 171 0
-601 -600 -171 0
601 -600 171 0
601 600 -171 0
-602 601 205 0
-602 -601 -205 0
602 -601 205 0
602 601 -205 0
-603 602 212 0
-603 -602 -212 0
603 -602 212 0
603 602 -212 0
-603 0
-604 40 52 0
-604 -40 -52 0
604 -40 52 0
604 40 -52 0
-605 604 61 0
-605 -604 -61 0
605 -604 61 0
605 604 -61 0
-606 605 172 0
-606 -605 -172 0
606 -605 172 0
606 605 -172 0
-607 606 206 0
-607 -606 -206 0
607 -606 206 0
607 606 -206 0
-608 607 213 0
-608 -607 -213 0
608 -607 213 0
608 607 -213 0
-608 0
-609 41 53 0
-609 -41 -53 0
609 -41 53 0
609 41 -53 0
-610 609 62 0
-610 -609 -62 0
610 -609 62 0
610 609 -62 0
-611 610 173 0
-611 -610 -173 0
611 -610 173 0
611 610 -173 0
-612 611 207 0
-612 -611 -207 0
612 -611 207 0
612 611 -207 0
-613 612 214 0
-613 -612 -214 0
613 -612 214 0
613 612 -214 0
-613 0
-614 42 54 0
-614 -42 -54 0
614 -42 54 0
614 42 -54 0
-615 614 63 0
-615 -614 -63 0
615 -614 63 0
615 614 -63 0
-616 615 174 0
-616 -615 -174 0
616 -615 174 0
616 615 -174 0
-617 616 208 0
-617 -616 -208 0
617 -616 208 0
617 616 -208 0
-618 617 215 0
-618 -617 -215 0
618 -617 215 0
618 617 -215 0
-618 0
-619 43 55 0
-619 -43 -55 0
619 -43 55 0
619 43 -55 0
-620 619 64 0
-620 -619 -64 0
620 -619 64 0
620 619 -64 0
-621 620 175 0
-621 -620 -175 0
621 -620 175 0
621 620 -175 0
-622 621 209 0
-622 -621 -209 0
622 -621 209 0
622 621 -209 0
-623 622 216 0
-623 -622 -216 0
623 -622 216 0
623 622 -216 0
-623 0
-624 44 56 0
-624 -44 -56 0
624 -44 56 0
624 44 -56 0
-625 624 65 0
-625 -624 -65 0
625 -624 65 0
625 624 -65 0
-626 625 176 0
-626 -625 -176 0
626 -625 176 0
626 625 -176 0
-627 626 205 0
-627 -626 -205 0
627 -626 205 0
627 626 -205 0
-628 627 210 0
-628 -627 -210 0
628 -627 210 0
628 627 -210 0
-628 0
-629 45 57 0
-629 -45 -57 0
629 -45 57 0
629 45 -57 0
-630 629 66 0
-630 -629 -66 0
630 -629 66 0
630 629 -66 0
-631 630 177 0
-631 -630 -177 0
631 -630 177 0
631 630 -177 0
-632 631 206 0
-632 -631 -206 0
632 -631 206 0
632 631 -206 0
-633 632 211 0
-633 -632 -211 0
633 -632 211 0
633 632 -211 0
-633 0
-634 46 58 0
-634 -46 -58 0
634 -46 58 0
634 46 -58 0
-635 634 67 0
-635 -634 -67 0
635 -634 67 0
635 634 -67 0
-636 635 178 0
-636 -635 -178 0
636 -635 178 0
636 635 -178 0
-637 636 207 0
-637 -636 -207 0
637 -636 207 0
637 636 -207 0
-638 637 212 0
-638 -637 -212 0
638 -637 212 0
638 637 -212 0
-638 0
-639 47 59 0
-639 -47 -59 0
639 -47 59 0
639 47 -59 0
-640 639 68 0
-640 -639 -68 0
640 -639 68 0
640 639 -68 0
-641 640 179 0
-641 -640 -179 0
641 -640 179 0
641 640 -179 0
-642 641 208 0
-642 -641 -208 0
642 -641 208 0
642 641 -208 0
-643 642 213 0
-643 -642 -213 0
643 -642 213 0
643 642 -213 0
-643 0
-644 48 60 0
-644 -48 -60 0
644 -48 60 0
644 48 -60 0
-645 644 69 0
-645 -644 -69 0
645 -644 69 0
645 644 -69 0
-646 645 180 0
-646 -645 -180 0
646 -645 180 0
646 645 -180 0
-647 646 209 0
-647 -646 -209 0
647 -646 209 0
647 646 -209 0
-648 647 214 0
-648 -647 -214 0
648 -647 214 0
648 647 -214 0
-648 0
-649 49 61 0
-649 -49 -61 0
649 -49 61 0
649 49 -61 0
-650 649 82 0
-650 -649 -82 0
650 -649 82 0
650 649 -82 0
-651 650 181 0
-651 -650 -181 0
651 -650 181 0
651 650 -181 0
-652 651 222 0
-652 -651 -222 0
652 -651 222 0
652 651 -222 0
-653 652 227 0
-653 -652 -227 0
653 -652 227 0
653 652 -227 0
-653 0
-654 50 62 0
-654 -50 -62 0
654 -50 62 0
654 50 -62 0
-655 654 83 0
-655 -654 -83 0
655 -654 83 0
655 654 -83 0
-656 655 182 0
-656 -655 -182 0
656 -655 182 0
656 655 -182 0
-657 656 223 0
-657 -656 -223 0
657 -656 223 0
657 656 -223 0
-658 657 228 0
-658 -657 -228 0
658 -657 228 0
658 657 -228 0
-658 0
-659 51 63 0
-659 -51 -63 0
659 -51 63 0
659 51 -63 0
-660 659 84 0
-660 -659 -84 0
660 -659 84 0
660 659 -84 0
-661 660 183 0
-661 -660 -183 0
661 -660 183 0
661 660 -183 0
-662 661 217 0
-662 -661 -217 0
662 -661 217 0
662 661 -217 0
-663 662 224 0
-663 -662 -224 0
663 -662 224 0
663 662 -224 0
-663 0
-664 52 64 0
-664 -52 -64 0
664 -52 64 0
664 52 -64 0
-665 664 73 0
-665 -664 -73 0
665 -664 73 0
665 664 -73 0
-666 665 184 0
-666 -665 -184 0
666 -665 184 0
666 665 -184 0
-667 666 218 0
-667 -666 -218 0
667 -666 218 0
667 666 -218 0
-668 667 225 0
-668 -667 -225 0
668 -667 225 0
668 667 -225 0
-668 0
-669 53 65 0
-669 -53 -65 0
669 -53 65 0
669 53 -65 0
-670 669 74 0
-670 -669 -74 0
670 -669 74 0
670 669 -74 0
-671 670 185 0
-671 -670 -185 0
671 -670 185 0
671 670 -185 0
-672 671 219 0
-672 -671 -219 0
672 -671 219 0
672 671 -219 0
-673 672 226 0
-673 -672 -226 0
673 -672 226 0
673 672 -226 0
-673 0
-674 54 66 0
-674 -54 -66 0
674 -54 66 0
674 54 -66 0
-675 674 75 0
-675 -674 -75 0
675 -674 75 0
675 674 -75 0
-676 675 186 0
-676 -675 -186 0
676 -675 186 0
676 675 -186 0
-677 676 220 0
-677 -676 -220 0
677 -676 220 0
677 676 -220 0
-678 677 227 0
-678 -677 -227 0
678 -677 227 0
678 677 -227 0
-678 0
-679 55 67 0
-679 -55 -67 0
679 -55 67 0
679 55 -67 0
-680 679 76 0
-680 -679 -76 0
680 -679 76 0
680 679 -76 0
-681 680 187 0
-681 -680 -187 0
681 -680 187 0
681 680 -187 0
-682 681 221 0
-682 -681 -221 0
682 -681 221 0
682 681 -221 0
-683 682 228 0
-683 -682 -228 0
683 -682 228 0
683 682 -228 0
-683 0
-684 56 68 0
-684 -56 -68 0
684 -56 68 0
684 56 -68 0
-685 684 77 0
-685 -684 -77 0
685 -684 77 0
685 684 -77 0
-686 685 188 0
-686 -685 -188 0
686 -685 188 0
686 685 -188 0
-687 686 217 0
-687 -686 -217 0
687 -686 217 0
687 686 -217 0
-688 687 222 0
-688 -687 -222 0
688 -687 222 0
688 687 -222 0
-688 0
-689 57 69 0
-689 -57 -69 0
689 -57 69 0
689 57 -69 0
-690 689 78 0
-690 -689 -78 0
690 -689 78 0
690 689 -78 0
-691 690 189 0
-691 -690 -189 0
691 -690 189 0
691 690 -189 0
-692 691 218 0
-692 -691 -218 0
692 -691 218 0
692 691 -218 0
-693 692 223 0
-693 -692 -223 0
693 -692 223 0
693 692 -223 0
-693 0
-694 58 70 0
-694 -58 -70 0
694 -58 70 0
694 58 -70 0
-695 694 79 0
-695 -694 -79 0
695 -694 79 0
695 694 -79 0
-696 695 190 0
-696 -695 -190 0
696 -695 190 0
696 695 -190 0
-697 696 219 0
-697 -696 -219 0
697 -696 219 0
697 696 -219 0
-698 697 224 0
-698 -697 -224 0
698 -697 224 0
698 697 -224 0
-698 0
-699 59 71 0
-699 -59 -71 0
699 -59 71 0
699 59 -71 0
-700 699 80 0
-700 -699 -80 0
700 -699 80 0
700 699 -80 0
-701 700 191 0
-701 -700 -191 0
701 -700 191 0
701 700 -191 0
-702 701 220 0
-702 -701 -220 0
702 -701 220 0
702 701 -220 0
-703 702 225 0
-703 -702 -225 0
703 -702 225 0
703 702 -225 0
-703 0
-704 60 72 0
-704 -60 -72 0
704 -60 72 0
704 60 -72 0
-705 704 81 0
-705 -704 -81 0
705 -704 81 0
705 704 -81 0
-706 705 192 0
-706 -705 -192 0
706 -705 192 0
706 705 -192 0
-707 706 221 0
-707 -706 -221 0
707 -706 221 0
707 706 -221 0
-708 707 226 0
-708 -707 -226 0
708 -707 226 0
708 707 -226 0
-708 0
-709 61 73 0
-709 -61 -73 0
709 -61 73 0
709 61 -73 0
-710 709 94 0
-710 -709 -94 0
710 -709 94 0
710 709 -94 0
-711 710 193 0
-711 -710 -193 0
711 -710 193 0
711 710 -193 0
-712 711 234 0
-712 -711 -234 0
712 -711 234 0
712 711 -234 0
-713 712 239 0
-713 -712 -239 0
713 -712 239 0
713 712 -239 0
-713 0
-714 62 74 0
-714 -62 -74 0
714 -62 74 0
714 62 -74 0
-715 714 95 0
-715 -714 -95 0
715 -714 95 0
715 714 -95 0
-716 715 194 0
-716 -715 -194 0
716 -715 194 0
716 715 -194 0
-717 716 235 0
-717 -716 -235 0
717 -716 235 0
717 716 -235 0
-718 717 240 0
-718 -717 -240 0
718 -717 240 0
718 717 -240 0
-718 0
-719 63 75 0
-719 -63 -75 0
719 -63 75 0
719 63 -75 0
-720 719 96 0
-720 -719 -96 0
720 -719 96 0
720 719 -96 0
-721 720 195 0
-721 -720 -195 0
721 -720 195 0
721 720 -195 0
-722 721 229 0
-722 -721 -229 0
722 -721 229 0
722 721 -229 0
-723 722 236 0
-723 -722 -236 0
723 -722 236 0
723 722 -236 0
-723 0
-724 64 76 0
-724 -64 -76 0
724 -64 76 0
724 64 -76 0
-725 724 85 0
-725 -724 -85 0
725 -724 85 0
725 724 -85 0
-726 725 196 0
-726 -725 -196 0
726 -725 196 0
726 725 -196 0
-727 726 230 0
-727 -726 -230 0
727 -726 230 0
727 726 -230 0
-728 727 237 0
-728 -727 -237 0
728 -727 237 0
728 727 -237 0
-728 0
-729 65 77 0
-729 -65 -77 0
729 -65 77 0
729 65 -77 0
-730 729 86 0
-730 -729 -86 0
730 -729 86 0
730 729 -86 0
-731 730 197 0
-731 -730 -197 0
731 -730 197 0
731 730 -197 0
-732 731 231 0
-732 -731 -231 0
732 -731 231 0
732 731 -231 0
-733 732 238 0
-733 -732 -238 0
733 -732 238 0
733 732 -238 0
-733 0
-734 66 78 0
-734 -66 -78 0
734 -66 78 0
734 66 -78 0
-735 734 87 0
-735 -734 -87 0
735 -734 87 0
735 734 -87 0
-736 735 198 0
-736 -735 -198 0
736 -735 198 0
736 735 -198 0
-737 736 232 0
-737 -736 -232 0
737 -736 232 0
737 736 -232 0
-738 737 239 0
-738 -737 -239 0
738 -737 239 0
738 737 -239 0
-738 0
-739 67 79 0
-739 -67 -79 0
739 -67 79 0
739 67 -79 0
-740 739 88 0
-740 -739 -88 0
740 -739 88 0
740 739 -88 0
-741 740 199 0
-741 -740 -199 0
741 -740 199 0
741 740 -199 0
-742 741 233 0
-742 -741 -233 0
742 -741 233 0
742 741 -233 0
-743 742 240 0
-743 -742 -240 0
743 -742 240 0
743 742 -240 0
-743 0
-744 68 80 0
-744 -68 -80 0
744 -68 80 0
744 68 -80 0
-745 744 89 0
-745 -744 -89 0
745 -744 89 0
745 744 -89 0
-746 745 200 0
-746 -745 -200 0
746 -745 200 0
746 745 -200 0
-747 746 229 0
-747 -746 -229 0
747 -746 229 0
747 746 -229 0
-748 747 234 0
-748 -747 -234 0
748 -747 234 0
748 747 -234 0
-748 0
-749 69 81 0
-749 -69 -81 0
749 -69 81 0
749 69 -81 0
-750 749 90 0
-750 -749 -90 0
750 -749 90 0
750 749 -90 0
-751 750 201 0
-751 -750 -201 0
751 -750 201 0
751 750 -201 0
-752 751 230 0
-752 -751 -230 0
752 -751 230 0
752 751 -230 0
-753 752 235 0
-753 -752 -235 0
753 -752 235 0
753 752 -235 0
-753 0
-754 70 82 0
-754 -70 -82 0
754 -70 82 0
754 70 -82 0
-755 754 91 0
-755 -754 -91 0
755 -754 91 0
755 754 -91 0
-756 755 202 0
-756 -755 -202 0
756 -755 202 0
756 755 -202 0
-757 756 231 0
-757 -756 -231 0
757 -756 231 0
757 756 -231 0
-758 757 236 0
-758 -757 -236 0
758 -757 236 0
758 757 -236 0
-758 0
-759 71 83 0
-759 -71 -83 0
759 -71 83 0
759 71 -83 0
-760 759 92 0
-760 -759 -92 0
760 -759 92 0
760 759 -92 0
-761 760 203 0
-761 -760 -203 0
761 -760 203 0
761 760 -203 0
-762 761 232 0
-762 -761 -232 0
762 -761 232 0
762 761 -232 0
-763 762 237 0
-763 -762 -237 0
763 -762 237 0
763 762 -237 0
-763 0
-764 72 84 0
-764 -72 -84 0
764 -72 84 0
764 72 -84 0
-765 764 93 0
-765 -764 -93 0
765 -764 93 0
765 764 -93 0
-766 765 204 0
-766 -765 -204 0
766 -765 204 0
766 765 -204 0
-767 766 233 0
-767 -766 -233 0
767 -766 233 0
767 766 -233 0
-768 767 238 0
-768 -767 -238 0
768 -767 238 0
768 767 -238 0
-768 0
-769 73 85 0
-769 -73 -85 0
769 -73 85 0
769 73 -85 0
-770 769 106 0
-770 -769 -106 0
770 -769 106 0
770 769 -106 0
-771 770 205 0
-771 -770 -205 0
771 -770 205 0
771 770 -205 0
-772 771 246 0
-772 -771 -246 0
772 -771 246 0
772 771 -246 0
-773 772 251 0
-773 -772 -251 0
773 -772 251 0
773 772 -251 0
-773 0
-774 74 86 0
-774 -74 -86 0
774 -74 86 0
774 74 -86 0
-775 774 107 0
-775 -774 -107 0
775 -774 107 0
775 774 -107 0
-776 775 206 0
-776 -775 -206 0
776 -775 206 0
776 775 -206 0
-777 776 247 0
-777 -776 -247 0
777 -776 247 0
777 776 -247 0
-778 777 252 0
-778 -777 -252 0
778 -777 252 0
778 777 -252 0
-778 0
-779 75 87 0
-779 -75 -87 0
779 -75 87 0
779 75 -87 0
-780 779 108 0
-780 -779 -108 0
780 -779 108 0
780 779 -108 0
-781 780 207 0
-781 -780 -207 0
781 -780 207 0
781 780 -207 0
-782 781 241 0
-782 -781 -241 0
782 -781 241 0
782 781 -241 0
-783 782 248 0
-783 -782 -248 0
783 -782 248 0
783 782 -248 0
-783 0
-784 76 88 0
-784 -76 -88 0
784 -76 88 0
784 76 -88 0
-785 784 97 0
-785 -784 -97 0
785 -784 97 0
785 784 -97 0
-786 785 208 0
-786 -785 -208 0
786 -785 208 0
786 785 -208 0
-787 786 242 0
-787 -786 -242 0
787 -786 242 0
787 786 -242 0
-788 787 249 0
-788 -787 -249 0
788 -787 249 0
788 787 -249 0
-788 0
-789 77 89 0
-789 -77 -89 0
789 -77 89 0
789 77 -89 0
-790 789 98 0
-790 -789 -98 0
790 -789 98 0
790 789 -98 0
-791 790 209 0
-791 -790 -209 0
791 -790 209 0
791 790 -209 0
-792 791 243 0
-792 -791 -243 0
792 -791 243 0
792 791 -243 0
-793 792 250 0
-793 -792 -250 0
793 -792 250 0
793 792 -250 0
-793 0
-794 78 90 0
-794 -78 -90 0
794 -78 90 0
794 78 -90 0
-795 794 99 0
-795 -794 -99 0
795 -794 99 0
795 794 -99 0
-796 795 210 0
-796 -795 -210 0
796 -795 210 0
796 795 -210 0
-797 796 244 0
-797 -796 -244 0
797 -796 244 0
797 796 -244 0
-798 797 251 0
-798 -797 -251 0
798 -797 251 0
798 797 -251 0
-798 0
-799 79 91 0
-799 -79 -91 0
799 -79 91 0
799 79 -91 0
-800 799 100 0
-800 -799 -100 0
800 -799 100 0
800 799 -100 0
-801 800 211 0
-801 -800 -211 0
801 -800 211 0
801 800 -211 0
-802 801 245 0
-802 -801 -245 0
802 -801 245 0
802 801 -245 0
-803 802 252 0
-803 -802 -252 0
803 -802 252 0
803 802 -252 0
-803 0
-804 80 92 0
-804 -80 -92 0
804 -80 92 0
804 80 -92 0
-805 804 101 0
-805 -804 -101 0
805 -804 101 0
805 804 -101 0
-806 805 212 0
-806 -805 -212 0
806 -805 212 0
806 805 -212 0
-807 806 241 0
-807 -806 -241 0
807 -806 241 0
807 806 -241 0
-808 807 246 0
-808 -807 -246 0
808 -807 246 0
808 807 -246 0
-808 0
-809 81 93 0
-809 -81 -93 0
809 -81 93 0
809 81 -93 0
-810 809 102 0
-810 -809 -102 0
810 -809 102 0
810 809 -102 0
-811 810 213 0
-811 -810 -213 0
811 -810 213 0
811 810 -213 0
-812 811 242 0
-812 -811 -242 0
812 -811 242 0
812 811 -242 0
-813 812 247 0
-813 -812 -247 0
813 -812 247 0
813 812 -247 0
-813 0
-814 82 94 0
-814 -82 -94 0
814 -82 94 0
814 82 -94 0
-815 814 103 0
-815 -814 -103 0
815 -814 103 0
815 814 -103 0
-816 815 214 0
-816 -815 -214 0
816 -815 214 0
816 815 -214 0
-817 816 243 0
-817 -816 -243 0
817 -816 243 0
817 816 -243 0
-818 817 248 0
-818 -817 -248 0
818 -817 248 0
818 817 -248 0
-818 0
-819 83 95 0
-819 -83 -95 0
819 -83 95 0
819 83 -95 0
-820 819 104 0
-820 -819 -104 0
820 -819 104 0
820 819 -104 0
-821 820 215 0
-821 -820 -215 0
821 -820 215 0
821 820 -215 0
-822 821 244 0
-822 -821 -244 0
822 -821 244 0
822 821 -244 0
-823 822 249 0
-823 -822 -249 0
823 -822 249 0
823 822 -249 0
-823 0
-824 84 96 0
-824 -84 -96 0
824 -84 96 0
824 84 -96 0
-825 824 105 0
-825 -824 -105 0
825 -824 105 0
825 824 -105 0
-826 825 216 0
-826 -825 -216 0
826 -825 216 0
826 825 -216 0
-827 826 245 0
-827 -826 -245 0
827 -826 245 0
827 826 -245 0
-828 827 250 0
-828 -827 -250 0
828 -827 250 0
828 827 -250 0
-828 0
-829 85 97 0
-829 -85 -97 0
829 -85 97 0
829 85 -97 0
-830 829 118 0
-830 -829 -118 0
830 -829 118 0
830 829 -118 0
-831 830 217 0
-831 -830 -217 0
831 -830 217 0
831 830 -217 0
-832 831 258 0
-832 -831 -258 0
832 -831 258 0
832 831 -258 0
-833 832 263 0
-833 -832 -263 0
833 -832 263 0
833 832 -263 0
-833 0
-834 86 98 0
-834 -86 -98 0
834 -86 98 0
834 86 -98 0
-835 834 119 0
-835 -834 -119 0
835 -834 119 0
835 834 -119 0
-836 835 218 0
-836 -835 -218 0
836 -835 218 0
836 835 -218 0
-837 836 259 0
-837 -836 -259 0
837 -836 259 0
837 836 -259 0
-838 837 264 0
-838 -837 -264 0
838 -837 264 0
838 837 -264 0
-838 0
-839 87 99 0
-839 -87 -99 0
839 -87 99 0
839 87 -99 0
-840 839 120 0
-840 -839 -120 0
840 -839 120 0
840 839 -120 0
-841 840 219 0
-841 -840 -219 0
841 -840 219 0
841 840 -219 0
-842 841 253 0
-842 -841 -253 0
842 -841 253 0
842 841 -253 0
-843 842 260 0
-843 -842 -260 0
843 -842 260 0
843 842 -260 0
-843 0
-844 88 100 0
-844 -88 -100 0
844 -88 100 0
844 88 -100 0
-845 844 109 0
-845 -844 -109 0
845 -844 109 0
845 844 -109 0
-846 845 220 0
-846 -845 -220 0
846 -845 220 0
846 845 -220 0
-847 846 254 0
-847 -846 -254 0
847 -846 254 0
847 846 -254 0
-848 847 261 0
-848 -847 -261 0
848 -847 261 0
848 847 -261 0
-848 0
-849 89 101 0
-849 -89 -101 0
849 -89 101 0
849 89 -101 0
-850 849 110 0
-850 -849 -110 0
850 -849 110 0
850 849 -110 0
-851 850 221 0
-851 -850 -221 0
851 -850 221 0
851 850 -221 0
-852 851 255 0
-852 -851 -255 0
852 -851 255 0
852 851 -255 0
-853 852 262 0
-853 -852 -262 0
853 -852 262 0
853 852 -262 0
-853 0
-854 90 102 0
-854 -90 -102 0
854 -90 102 0
854 90 -102 0
-855 854 111 0
-855 -854 -111 0
855 -854 111 0
855 854 -111 0
-856 855 222 0
-856 -855 -222 0
856 -855 222 0
856 855 -222 0
-857 856 256 0
-857 -856 -256 0
857 -856 256 0
857 856 -256 0
-858 857 263 0
-858 -857 -263 0
858 -857 263 0
858 857 -263 0
-858 0
-859 91 103 0
-859 -91 -103 0
859 -91 103 0
859 91 -103 0
-860 859 112 0
-860 -859 -112 0
860 -859 112 0
860 859 -112 0
-861 860 223 0
-861 -860 -223 0
861 -860 223 0
861 860 -223 0
-862 861 257 0
-862 -861 -257 0
862 -861 257 0
862 861 -257 0
-863 862 264 0
-863 -862 -264 0
863 -862 264 0
863 862 -264 0
-863 0
-864 92 104 0
-864 -92 -104 0
864 -92 104 0
864 92 -104 0
-865 864 113 0
-865 -864 -113 0
865 -864 113 0
865 864 -113 0
-866 865 224 0
-866 -865 -224 0
866 -865 224 0
866 865 -224 0
-867 866 253 0
-867 -866 -253 0
867 -866 253 0
867 866 -253 0
-868 867 258 0
-868 -867 -258 0
868 -867 258 0
868 867 -258 0
-868 0
-869 93 105 0
-869 -93 -105 0
869 -93 105 0
869 93 -105 0
-870 869 114 0
-870 -869 -114 0
870 -869 114 0
870 869 -114 0
-871 870 225 0
-871 -870 -225 0
871 -870 225 0
871 870 -225 0
-872 871 254 0
-872 -871 -254 0
872 -871 254 0
872 871 -254 0
-873 872 259 0
-873 -872 -259 0
873 -872 259 0
873 872 -259 0
-873 0
-874 94 106 0
-874 -94 -106 0
874 -94 106 0
874 94 -106 0
-875 874 115 0
-875 -874 -115 0
875 -874 115 0
875 874 -115 0
-876 875 226 0
-876 -875 -226 0
876 -875 226 0
876 875 -226 0
-877 876 255 0
-877 -876 -255 0
877 -876 255 0
877 876 -255 0
-878 877 260 0
-878 -877 -260 0
878 -877 260 0
878 877 -260 0
-878 0
-879 95 107 0
-879 -95 -107 0
879 -95 107 0
879 95 -107 0
-880 879 116 0
-880 -879 -116 0
880 -879 116 0
880 879 -116 0
-881 880 227 0
-881 -880 -227 0
881 -880 227 0
881 880 -227 0
-882 881 256 0
-882 -881 -256 0
882 -881 256 0
882 881 -256 0
-883 882 261 0
-883 -882 -261 0
883 -882 261 0
883 882 -261 0
-883 0
-884 96 108 0
-884 -96 -108 0
884 -96 108 0
884 96 -108 0
-885 884 117 0
-885 -884 -117 0
885 -884 117 0
885 884 -117 0
-886 885 228 0
-886 -885 -228 0
886 -885 228 0
886 885 -228 0
-887 886 257 0
-887 -886 -257 0
887 -886 257 0
887 886 -257 0
-888 887 262 0
-888 -887 -262 0
888 -887 262 0
888 887 -262 0
-888 0
-889 97 109 0
-889 -97 -109 0
889 -97 109 0
889 97 -109 0
-890 889 130 0
-890 -889 -130 0
890 -889 130 0
890 889 -130 0
-891 890 229 0
-891 -890 -229 0
891 -890 229 0
891 890 -229 0
-892 891 270 0
-892 -891 -270 0
892 -891 270 0
892 891 -270 0
-893 892 275 0
-893 -892 -275 0
893 -892 275 0
893 892 -275 0
-893 0
-894 98 110 0
-894 -98 -110 0
894 -98 110 0
894 98 -110 0
-895 894 131 0
-895 -894 -131 0
895 -894 131 0
895 894 -131 0
-896 895 230 0
-896 -895 -230 0
896 -895 230 0
896 895 -230 0
-897 896 271 0
-897 -896 -271 0
897 -896 271 0
897 896 -271 0
-898 897 276 0
-898 -897 -276 0
898 -897 276 0
898 897 -276 0
-898 0
-899 99 111 0
-899 -99 -111 0
899 -99 111 0
899 99 -111 0
-900 899 132 0
-900 -899 -132 0
900 -899 132 0
900 899 -132 0
-901 900 231 0
-901 -900 -231 0
901 -900 231 0
901 900 -231 0
-902 901 265 0
-902 -901 -265 0
902 -901 265 0
902 901 -265 0
-903 902 272 0
-903 -902 -272 0
903 -902 272 0
903 902 -272 0
-903 0
-904 100 112 0
-904 -100 -112 0
904 -100 112 0
904 100 -112 0
-905 904 121 0
-905 -904 -121 0
905 -904 121 0
905 904 -121 0
-906 905 232 0
-906 -905 -232 0
906 -905 232 0
906 905 -232 0
-907 906 266 0
-907 -906 -266 0
907 -906 266 0
907 906 -266 0
-908 907 273 0
-908 -907 -273 0
908 -907 273 0
908 907 -273 0
-908 0
-909 101 113 0
-909 -101 -113 0
909 -101 113 0
909 101 -113 0
-910 909 122 0
-910 -909 -122 0
910 -909 122 0
910 909 -122 0
-911 910 233 0
-911 -910 -233 0
911 -910 233 0
911 910 -233 0
-912 911 267 0
-912 -911 -267 0
912 -911 267 0
912 911 -267 0
-913 912 274 0
-913 -912 -274 0
913 -912 274 0
913 912 -274 0
-913 0
-914 102 114 0
-914 -102 -114 0
914 -102 114 0
914 102 -114 0
-915 914 123 0
-915 -914 -123 0
915 -914 123 0
915 914 -123 0
-916 915 234 0
-916 -915 -234 0
916 -915 234 0
916 915 -234 0
-917 916 268 0
-917 -916 -268 0
917 -916 268 0
917 916 -268 0
-918 917 275 0
-918 -917 -275 0
918 -917 275 0
918 917 -275 0
-918 0
-919 103 115 0
-919 -103 -115 0
919 -103 115 0
919 103 -115 0
-920 919 124 0
-920 -919 -124 0
920 -919 124 0
920 919 -124 0
-921 920 235 0
-921 -920 -235 0
921 -920 235 0
921 920 -235 0
-922 921 269 0
-922 -921 -269 0
922 -921 269 0
922 921 -269 0
-923 922 276 0
-923 -922 -276 0
923 -922 276 0
923 922 -276 0
-923 0
-924 104 116 0
-924 -104 -116 0
924 -104 116 0
924 104 -116 0
-925 924 125 0
-925 -924 -125 0
925 -924 125 0
925 924 -125 0
-926 925 236 0
-926 -925 -236 0
926 -925 236 0
926 925 -236 0
-927 926 265 0
-927 -926 -265 0
927 -926 265 0
927 926 -265 0
-928 927 270 0
-928 -927 -270 0
928 -927 270 0
928 927 -270 0
-928 0
-929 105 117 0
-929 -105 -117 0
929 -105 117 0
929 105 -117 0
-930 929 126 0
-930 -929 -126 0
930 -929 126 0
930 929 -126 0
-931 930 237 0
-931 -930 -237 0
931 -930 237 0
931 930 -237 0
-932 931 266 0
-932 -931 -266 0
932 -931 266 0
932 931 -266 0
-933 932 271 0
-933 -932 -271 0
933 -932 271 0
933 932 -271 0
-933 0
-934 106 118 0
-934 -106 -118 0
934 -106 118 0
934 106 -118 0
-935 934 127 0
-935 -934 -127 0
935 -934 127 0
935 934 -127 0
-936 935 238 0
-936 -935 -238 0
936 -935 238 0
936 935 -238 0
-937 936 267 0
-937 -936 -267 0
937 -936 267 0
937 936 -267 0
-938 937 272 0
-938 -937 -272 0
938 -937 272 0
938 937 -272 0
-938 0
-939 107 119 0
-939 -107 -119 0
939 -107 119 0
939 107 -119 0
-940 939 128 0
-940 -939 -128 0
940 -939 128 0
940 939 -128 0
-941 940 239 0
-941 -940 -239 0
941 -940 239 0
941 940 -239 0
-942 941 268 0
-942 -941 -268 0
942 -941 268 0
942 941 -268 0
-943 942 273 0
-943 -942 -273 0
943 -942 273 0
943 942 -273 0
-943 0
-944 108 120 0
-944 -108 -120 0
944 -108 120 0
944 108 -120 0
-945 944 129 0
-945 -944 -129 0
945 -944 129 0
945 944 -129 0
-946 945 240 0
-946 -945 -240 0
946 -945 240 0
946 945 -240 0
-947 946 269 0
-947 -946 -269 0
947 -946 269 0
947 946 -269 0
-948 947 274 0
-948 -947 -274 0
948 -947 274 0
948 947 -274 0
-948 0
-949 109 121 0
-949 -109 -121 0
949 -109 121 0
949 109 -121 0
-950 949 142 0
-950 -949 -142 0
950 -949 142 0
950 949 -142 0
-951 950 241 0
-951 -950 -241 0
951 -950 241 0
951 950 -241 0
-952 951 282 0
-952 -951 -282 0
952 -951 282 0
952 951 -282 0
-953 952 287 0
-953 -952 -287 0
953 -952 287 0
953 952 -287 0
-953 0
-954 110 122 0
-954 -110 -122 0
954 -110 122 0
954 110 -122 0
-955 954 143 0
-955 -954 -143 0
955 -954 143 0
955 954 -143 0
-956 955 242 0
-956 -955 -242 0
956 -955 242 0
956 955 -242 0
-957 956 283 0
-957 -956 -283 0
957 -956 283 0
957 956 -283 0
-958 957 288 0
-958 -957 -288 0
958 -957 288 0
958 957 -288 0
-958 0
-959 111 123 0
-959 -111 -123 0
959 -111 123 0
959 111 -123 0
-960 959 144 0
-960 -959 -144 0
960 -959 144 0
960 959 -144 0
-961 960 243 0
-961 -960 -243 0
961 -960 243 0
961 960 -243 0
-962 961 277 0
-962 -961 -277 0
962 -961 277 0
962 961 -277 0
-963 962 284 0
-963 -962 -284 0
963 -962 284 0
963 962 -284 0
-963 0
-964 112 124 0
-964 -112 -124 0
964 -112 124 0
964 112 -124 0
-965 964 133 0
-965 -964 -133 0
965 -964 133 0
965 964 -133 0
-966 965 244 0
-966 -965 -244 0
966 -965 244 0
966 965 -244 0
-967 966 278 0
-967 -966 -278 0
967 -966 278 0
967 966 -278 0
-968 967 285 0
-968 -967 -285 0
968 -967 285 0
968 967 -285 0
-968 0
-969 113 125 0
-969 -113 -125 0
969 -113 125 0
969 113 -125 0
-970 969 134 0
-970 -969 -134 0
970 -969 134 0
970 969 -134 0
-971 970 245 0
-971 -970 -245 0
971 -970 245 0
971 970 -245 0
-972 971 279 0
-972 -971 -279 0
972 -971 279 0
972 971 -279 0
-973 972 286 0
-973 -972 -286 0
973 -972 286 0
973 972 -286 0
-973 0
-974 114 126 0
-974 -114 -126 0
974 -114 126 0
974 114 -126 0
-975 974 135 0
-975 -974 -135 0
975 -974 135 0
975 974 -135 0
-976 975 246 0
-976 -975 -246 0
976 -975 246 0
976 975 -246 0
-977 976 280 0
-977 -976 -280 0
977 -976 280 0
977 976 -280 0
-978 977 287 0
-978 -977 -287 0
978 -977 287 0
978 977 -287 0
-978 0
-979 115 127 0
-979 -115 -127 0
979 -115 127 0
979 115 -127 0
-980 979 136 0
-980 -979 -136 0
980 -979 136 0
980 979 -136 0
-981 980 247 0
-981 -980 -247 0
981 -980 247 0
981 980 -247 0
-982 981 281 0
-982 -981 -281 0
982 -981 281 0
982 981 -281 0
-983 982 288 0
-983 -982 -288 0
983 -982 288 0
983 982 -288 0
-983 0
-984 116 128 0
-984 -116 -128 0
984 -116 128 0
984 116 -128 0
-985 984 137 0
-985 -984 -137 0
985 -984 137 0
985 984 -137 0
-986 985 248 0
-986 -985 -248 0
986 -985 248 0
986 985 -248 0
-987 986 277 0
-987 -986 -277 0
987 -986 277 0
987 986 -277 0
-988 987 282 0
-988 -987 -282 0
988 -987 282 0
988 987 -282 0
-988 0
-989 117 129 0
-989 -117 -129 0
989 -117 129 0
989 117 -129 0
-990 989 138 0
-990 -989 -138 0
990 -989 138 0
990 989 -138 0
-991 990 249 0
-991 -990 -249 0
991 -990 249 0
991 990 -249 0
-992 991 278 0
-992 -991 -278 0
992 -991 278 0
992 991 -278 0
-993 992 283 0
-993 -992 -283 0
993 -992 283 0
993 992 -283 0
-993 0
-994 118 130 0
-994 -118 -130 0
994 -118 130 0
994 118 -130 0
-995 994 139 0
-995 -994 -139 0
995 -994 139 0
995 994 -139 0
-996 995 250 0
-996 -995 -250 0
996 -995 250 0
996 995 -250 0
-997 996 279 0
-997 -996 -279 0
997 -996 279 0
997 996 -279 0
-998 997 284 0
-998 -997 -284 0
998 -997 284 0
998 997 -284 0
-998 0
-999 119 131 0
-999 -119 -131 0
999 -119 131 0
999 119 -131 0
-1000 999 140 0
-1000 -999 -140 0
1000 -999 140 0
1000 999 -140 0
-1001 1000 251 0
-1001 -1000 -251 0
1001 -1000 251 0
1001 1000 -251 0
-1002 1001 280 0
-1002 -1001 -280 0
1002 -1001 280 0
1002 1001 -280 0
-1003 1002 285 0
-1003 -1002 -285 0
1003 -1002 285 0
1003 1002 -285 0
-1003 0
-1004 120 132 0
-1004 -120 -132 0
1004 -120 132 0
1004 120 -132 0
-1005 1004 141 0
-1005 -1004 -141 0
1005 -1004 141 0
1005 1004 -141 0
-1006 1005 252 0
-1006 -1005 -252 0
1006 -1005 252 0
1006 1005 -252 0
-1007 1006 281 0
-1007 -1006 -281 0
1007 -1006 281 0
1007 1006 -281 0
-1008 1007 286 0
-1008 -1007 -286 0
1008 -1007 286 0
1008 1007 -286 0
-1008 0
-1009 3 6 0
-1009 -3 -6 0
1009 -3 6 0
1009 3 -6 0
-1010 1009 10 0
-1010 -1009 -10 0
1010 -1009 10 0
1010 1009 -10 0
-1011 1010 11 0
-1011 -1010 -11 0
1011 -1010 11 0
1011 1010 -11 0
-1012 1011 37 0
-1012 -1011 -37 0
1012 -1011 37 0
1012 1011 -37 0
-1013 1012 39 0
-1013 -1012 -39 0
1013 -1012 39 0
1013 1012 -39 0
-1014 1013 45 0
-1014 -1013 -45 0
1014 -1013 45 0
1014 1013 -45 0
-1015 1014 47 0
-1015 -1014 -47 0
1015 -1014 47 0
1015 1014 -47 0
-1016 1015 73 0
-1016 -1015 -73 0
1016 -1015 73 0
1016 1015 -73 0
-1017 1016 74 0
-1017 -1016 -74 0
1017 -1016 74 0
1017 1016 -74 0
-1018 1017 76 0
-1018 -1017 -76 0
1018 -1017 76 0
1018 1017 -76 0
-1019 1018 78 0
-1019 -1018 -78 0
1019 -1018 78 0
1019 1018 -78 0
-1020 1019 79 0
-1020 -1019 -79 0
1020 -1019 79 0
1020 1019 -79 0
-1021 1020 80 0
-1021 -1020 -80 0
1021 -1020 80 0
1021 1020 -80 0
-1022 1021 81 0
-1022 -1021 -81 0
1022 -1021 81 0
1022 1021 -81 0
-1023 1022 83 0
-1023 -1022 -83 0
1023 -1022 83 0
1023 1022 -83 0
-1024 1023 109 0
-1024 -1023 -109 0
1024 -1023 109 0
1024 1023 -109 0
-1025 1024 113 0
-1025 -1024 -113 0
1025 -1024 113 0
1025 1024 -113 0
-1026 4 7 0
-1026 -4 -7 0
1026 -4 7 0
1026 4 -7 0
-1027 1026 11 0
-1027 -1026 -11 0
1027 -1026 11 0
1027 1026 -11 0
-1028 1027 12 0
-1028 -1027 -12 0
1028 -1027 12 0
1028 1027 -12 0
-1029 1028 38 0
-1029 -1028 -38 0
1029 -1028 38 0
1029 1028 -38 0
-1030 1029 40 0
-1030 -1029 -40 0
1030 -1029 40 0
1030 1029 -40 0
-1031 1030 46 0
-1031 -1030 -46 0
1031 -1030 46 0
1031 1030 -46 0
-1032 1031 48 0
-1032 -1031 -48 0
1032 -1031 48 0
1032 1031 -48 0
-1033 1032 74 0
-1033 -1032 -74 0
1033 -1032 74 0
1033 1032 -74 0
-1034 1033 75 0
-1034 -1033 -75 0
1034 -1033 75 0
1034 1033 -75 0
-1035 1034 77 0
-1035 -1034 -77 0
1035 -1034 77 0
1035 1034 -77 0
-1036 1035 79 0
-1036 -1035 -79 0
1036 -1035 79 0
1036 1035 -79 0
-1037 1036 80 0
-1037 -1036 -80 0
1037 -1036 80 0
1037 1036 -80 0
-1038 1037 81 0
-1038 -1037 -81 0
1038 -1037 81 0
1038 1037 -81 0
-1039 1038 82 0
-1039 -1038 -82 0
1039 -1038 82 0
1039 1038 -82 0
-1040 1039 84 0
-1040 -1039 -84 0
1040 -1039 84 0
1040 1039 -84 0
-1041 1040 110 0
-1041 -1040 -110 0
1041 -1040 110 0
1041 1040 -110 0
-1042 1041 114 0
-1042 -1041 -114 0
1042 -1041 114 0
1042 1041 -114 0
-1043 1 5 0
-1043 -1 -5 0
1043 -1 5 0
1043 1 -5 0
-1044 1043 8 0
-1044 -1043 -8 0
1044 -1043 8 0
1044 1043 -8 0
-1045 1044 12 0
-1045 -1044 -12 0
1045 -1044 12 0
1045 1044 -12 0
-1046 1045 37 0
-1046 -1045 -37 0
1046 -1045 37 0
1046 1045 -37 0
-1047 1046 39 0
-1047 -1046 -39 0
1047 -1046 39 0
1047 1046 -39 0
-1048 1047 41 0
-1048 -1047 -41 0
1048 -1047 41 0
1048 1047 -41 0
-1049 1048 47 0
-1049 -1048 -47 0
1049 -1048 47 0
1049 1048 -47 0
-1050 1049 73 0
-1050 -1049 -73 0
1050 -1049 73 0
1050 1049 -73 0
-1051 1050 75 0
-1051 -1050 -75 0
1051 -1050 75 0
1051 1050 -75 0
-1052 1051 76 0
-1052 -1051 -76 0
1052 -1051 76 0
1052 1051 -76 0
-1053 1052 78 0
-1053 -1052 -78 0
1053 -1052 78 0
1053 1052 -78 0
-1054 1053 80 0
-1054 -1053 -80 0
1054 -1053 80 0
1054 1053 -80 0
-1055 1054 81 0
-1055 -1054 -81 0
1055 -1054 81 0
1055 1054 -81 0
-1056 1055 82 0
-1056 -1055 -82 0
1056 -1055 82 0
1056 1055 -82 0
-1057 1056 83 0
-1057 -1056 -83 0
1057 -1056 83 0
1057 1056 -83 0
-1058 1057 111 0
-1058 -1057 -111 0
1058 -1057 111 0
1058 1057 -111 0
-1059 1058 115 0
-1059 -1058 -115 0
1059 -1058 115 0
1059 1058 -115 0
-1060 1 2 0
-1060 -1 -2 0
1060 -1 2 0
1060 1 -2 0
-1061 1060 6 0
-1061 -1060 -6 0
1061 -1060 6 0
1061 1060 -6 0
-1062 1061 9 0
-1062 -1061 -9 0
1062 -1061 9 0
1062 1061 -9 0
-1063 1062 38 0
-1063 -1062 -38 0
1063 -1062 38 0
1063 1062 -38 0
-1064 1063 40 0
-1064 -1063 -40 0
1064 -1063 40 0
1064 1063 -40 0
-1065 1064 42 0
-1065 -1064 -42 0
1065 -1064 42 0
1065 1064 -42 0
-1066 1065 48 0
-1066 -1065 -48 0
1066 -1065 48 0
1066 1065 -48 0
-1067 1066 74 0
-1067 -1066 -74 0
1067 -1066 74 0
1067 1066 -74 0
-1068 1067 76 0
-1068 -1067 -76 0
1068 -1067 76 0
1068 1067 -76 0
-1069 1068 77 0
-1069 -1068 -77 0
1069 -1068 77 0
1069 1068 -77 0
-1070 1069 79 0
-1070 -1069 -79 0
1070 -1069 79 0
1070 1069 -79 0
-1071 1070 81 0
-1071 -1070 -81 0
1071 -1070 81 0
1071 1070 -81 0
-1072 1071 82 0
-1072 -1071 -82 0
1072 -1071 82 0
1072 1071 -82 0
-1073 1072 83 0
-1073 -1072 -83 0
1073 -1072 83 0
1073 1072 -83 0
-1074 1073 84 0
-1074 -1073 -84 0
1074 -1073 84 0
1074 1073 -84 0
-1075 1074 112 0
-1075 -1074 -112 0
1075 -1074 112 0
1075 1074 -112 0
-1076 1075 116 0
-1076 -1075 -116 0
1076 -1075 116 0
1076 1075 -116 0
-1077 15 18 0
-1077 -15 -18 0
1077 -15 18 0
1077 15 -18 0
-1078 1077 22 0
-1078 -1077 -22 0
1078 -1077 22 0
1078 1077 -22 0
-1079 1078 23 0
-1079 -1078 -23 0
1079 -1078 23 0
1079 1078 -23 0
-1080 1079 49 0
-1080 -1079 -49 0
1080 -1079 49 0
1080 1079 -49 0
-1081 1080 51 0
-1081 -1080 -51 0
1081 -1080 51 0
1081 1080 -51 0
-1082 1081 57 0
-1082 -1081 -57 0
1082 -1081 57 0
1082 1081 -57 0
-1083 1082 59 0
-1083 -1082 -59 0
1083 -1082 59 0
1083 1082 -59 0
-1084 1083 85 0
-1084 -1083 -85 0
1084 -1083 85 0
1084 1083 -85 0
-1085 1084 86 0
-1085 -1084 -86 0
1085 -1084 86 0
1085 1084 -86 0
-1086 1085 88 0
-1086 -1085 -88 0
1086 -1085 88 0
1086 1085 -88 0
-1087 1086 90 0
-1087 -1086 -90 0
1087 -1086 90 0
1087 1086 -90 0
-1088 1087 91 0
-1088 -1087 -91 0
1088 -1087 91 0
1088 1087 -91 0
-1089 1088 92 0
-1089 -1088 -92 0
1089 -1088 92 0
1089 1088 -92 0
-1090 1089 93 0
-1090 -1089 -93 0
1090 -1089 93 0
1090 1089 -93 0
-1091 1090 95 0
-1091 -1090 -95 0
1091 -1090 95 0
1091 1090 -95 0
-1092 1091 121 0
-1092 -1091 -121 0
1092 -1091 121 0
1092 1091 -121 0
-1093 1092 125 0
-1093 -1092 -125 0
1093 -1092 125 0
1093 1092 -125 0
-1094 16 19 0
-1094 -16 -19 0
1094 -16 19 0
1094 16 -19 0
-1095 1094 23 0
-1095 -1094 -23 0
1095 -1094 23 0
1095 1094 -23 0
-1096 1095 24 0
-1096 -1095 -24 0
1096 -1095 24 0
1096 1095 -24 0
-1097 1096 50 0
-1097 -1096 -50 0
1097 -1096 50 0
1097 1096 -50 0
-1098 1097 52 0
-1098 -1097 -52 0
1098 -1097 52 0
1098 1097 -52 0
-1099 1098 58 0
-1099 -1098 -58 0
1099 -1098 58 0
1099 1098 -58 0
-1100 1099 60 0
-1100 -1099 -60 0
1100 -1099 60 0
1100 1099 -60 0
-1101 1100 86 0
-1101 -1100 -86 0
1101 -1100 86 0
1101 1100 -86 0
-1102 1101 87 0
-1102 -1101 -87 0
1102 -1101 87 0
1102 1101 -87 0
-1103 1102 89 0
-1103 -1102 -89 0
1103 -1102 89 0
1103 1102 -89 0
-1104 1103 91 0
-1104 -1103 -91 0
1104 -1103 91 0
1104 1103 -91 0
-1105 1104 92 0
-1105 -1104 -92 0
1105 -1104 92 0
1105 1104 -92 0
-1106 1105 93 0
-1106 -1105 -93 0
1106 -1105 93 0
1106 1105 -93 0
-1107 1106 94 0
-1107 -1106 -94 0
1107 -1106 94 0
1107 1106 -94 0
-1108 1107 96 0
-1108 -1107 -96 0
1108 -1107 96 0
1108 1107 -96 0
-1109 1108 122 0
-1109 -1108 -122 0
1109 -1108 122 0
1109 1108 -122 0
-1110 1109 126 0
-1110 -1109 -126 0
1110 -1109 126 0
1110 1109 -126 0
-1111 1 2 0
-1111 -1 -2 0
1111 -1 2 0
1111 1 -2 0
-1112 1111 6 0
-1112 -1111 -6 0
1112 -1111 6 0
1112 1111 -6 0
-1113 1112 7 0
-1113 -1112 -7 0
1113 -1112 7 0
1113 1112 -7 0
-1114 1113 8 0
-1114 -1113 -8 0
1114 -1113 8 0
1114 1113 -8 0
-1115 1114 9 0
-1115 -1114 -9 0
1115 -1114 9 0
1115 1114 -9 0
-1116 1115 11 0
-1116 -1115 -11 0
1116 -1115 11 0
1116 1115 -11 0
-1117 1116 12 0
-1117 -1116 -12 0
1117 -1116 12 0
1117 1116 -12 0
-1118 1117 13 0
-1118 -1117 -13 0
1118 -1117 13 0
1118 1117 -13 0
-1119 1118 16 0
-1119 -1118 -16 0
1119 -1118 16 0
1119 1118 -16 0
-1120 1119 18 0
-1120 -1119 -18 0
1120 -1119 18 0
1120 1119 -18 0
-1121 1120 21 0
-1121 -1120 -21 0
1121 -1120 21 0
1121 1120 -21 0
-1122 1121 24 0
-1122 -1121 -24 0
1122 -1121 24 0
1122 1121 -24 0
-1123 1122 37 0
-1123 -1122 -37 0
1123 -1122 37 0
1123 1122 -37 0
-1124 1123 39 0
-1124 -1123 -39 0
1124 -1123 39 0
1124 1123 -39 0
-1125 1124 42 0
-1125 -1124 -42 0
1125 -1124 42 0
1125 1124 -42 0
-1126 1125 43 0
-1126 -1125 -43 0
1126 -1125 43 0
1126 1125 -43 0
-1127 1126 45 0
-1127 -1126 -45 0
1127 -1126 45 0
1127 1126 -45 0
-1128 1127 47 0
-1128 -1127 -47 0
1128 -1127 47 0
1128 1127 -47 0
-1129 1128 49 0
-1129 -1128 -49 0
1129 -1128 49 0
1129 1128 -49 0
-1130 1129 51 0
-1130 -1129 -51 0
1130 -1129 51 0
1130 1129 -51 0
-1131 1130 53 0
-1131 -1130 -53 0
1131 -1130 53 0
1131 1130 -53 0
-1132 1131 54 0
-1132 -1131 -54 0
1132 -1131 54 0
1132 1131 -54 0
-1133 1132 55 0
-1133 -1132 -55 0
1133 -1132 55 0
1133 1132 -55 0
-1134 1133 57 0
-1134 -1133 -57 0
1134 -1133 57 0
1134 1133 -57 0
-1135 1134 59 0
-1135 -1134 -59 0
1135 -1134 59 0
1135 1134 -59 0
-1136 1135 73 0
-1136 -1135 -73 0
1136 -1135 73 0
1136 1135 -73 0
-1137 1136 74 0
-1137 -1136 -74 0
1137 -1136 74 0
1137 1136 -74 0
-1138 1137 77 0
-1138 -1137 -77 0
1138 -1137 77 0
1138 1137 -77 0
-1139 1138 78 0
-1139 -1138 -78 0
1139 -1138 78 0
1139 1138 -78 0
-1140 1139 79 0
-1140 -1139 -79 0
1140 -1139 79 0
1140 1139 -79 0
-1141 1140 80 0
-1141 -1140 -80 0
1141 -1140 80 0
1141 1140 -80 0
-1142 1141 81 0
-1142 -1141 -81 0
1142 -1141 81 0
1142 1141 -81 0
-1143 1142 84 0
-1143 -1142 -84 0
1143 -1142 84 0
1143 1142 -84 0
-1144 1143 85 0
-1144 -1143 -85 0
1144 -1143 85 0
1144 1143 -85 0
-1145 1144 86 0
-1145 -1144 -86 0
1145 -1144 86 0
1145 1144 -86 0
-1146 1145 87 0
-1146 -1145 -87 0
1146 -1145 87 0
1146 1145 -87 0
-1147 1146 89 0
-1147 -1146 -89 0
1147 -1146 89 0
1147 1146 -89 0
-1148 1147 90 0
-1148 -1147 -90 0
1148 -1147 90 0
1148 1147 -90 0
-1149 1148 91 0
-1149 -1148 -91 0
1149 -1148 91 0
1149 1148 -91 0
-1150 1149 92 0
-1150 -1149 -92 0
1150 -1149 92 0
1150 1149 -92 0
-1151 1150 93 0
-1151 -1150 -93 0
1151 -1150 93 0
1151 1150 -93 0
-1152 1151 94 0
-1152 -1151 -94 0
1152 -1151 94 0
1152 1151 -94 0
-1153 1152 96 0
-1153 -1152 -96 0
1153 -1152 96 0
1153 1152 -96 0
-1154 1153 109 0
-1154 -1153 -109 0
1154 -1153 109 0
1154 1153 -109 0
-1155 1154 110 0
-1155 -1154 -110 0
1155 -1154 110 0
1155 1154 -110 0
-1156 1155 111 0
-1156 -1155 -111 0
1156 -1155 111 0
1156 1155 -111 0
-1157 1156 112 0
-1157 -1156 -112 0
1157 -1156 112 0
1157 1156 -112 0
-1158 1157 122 0
-1158 -1157 -122 0
1158 -1157 122 0
1158 1157 -122 0
-1159 1158 124 0
-1159 -1158 -124 0
1159 -1158 124 0
1159 1158 -124 0
-1160 1159 145 0
-1160 -1159 -145 0
1160 -1159 145 0
1160 1159 -145 0
-1161 1160 146 0
-1161 -1160 -146 0
1161 -1160 146 0
1161 1160 -146 0
-1162 1161 148 0
-1162 -1161 -148 0
1162 -1161 148 0
1162 1161 -148 0
-1163 1162 150 0
-1163 -1162 -150 0
1163 -1162 150 0
1163 1162 -150 0
-1164 1163 151 0
-1164 -1163 -151 0
1164 -1163 151 0
1164 1163 -151 0
-1165 1164 157 0
-1165 -1164 -157 0
1165 -1164 157 0
1165 1164 -157 0
-1166 1165 158 0
-1166 -1165 -158 0
1166 -1165 158 0
1166 1165 -158 0
-1167 1166 160 0
-1167 -1166 -160 0
1167 -1166 160 0
1167 1166 -160 0
-1168 1167 162 0
-1168 -1167 -162 0
1168 -1167 162 0
1168 1167 -162 0
-1169 1168 163 0
-1169 -1168 -163 0
1169 -1168 163 0
1169 1168 -163 0
-1170 14 15 0
-1170 -14 -15 0
1170 -14 15 0
1170 14 -15 0
-1171 1170 16 0
-1171 -1170 -16 0
1171 -1170 16 0
1171 1170 -16 0
-1172 1171 17 0
-1172 -1171 -17 0
1172 -1171 17 0
1172 1171 -17 0
-1173 1172 19 0
-1173 -1172 -19 0
1173 -1172 19 0
1173 1172 -19 0
-1174 1173 21 0
-1174 -1173 -21 0
1174 -1173 21 0
1174 1173 -21 0
-1175 1174 23 0
-1175 -1174 -23 0
1175 -1174 23 0
1175 1174 -23 0
-1176 1175 24 0
-1176 -1175 -24 0
1176 -1175 24 0
1176 1175 -24 0
-1177 1176 38 0
-1177 -1176 -38 0
1177 -1176 38 0
1177 1176 -38 0
-1178 1177 40 0
-1178 -1177 -40 0
1178 -1177 40 0
1178 1177 -40 0
-1179 1178 42 0
-1179 -1178 -42 0
1179 -1178 42 0
1179 1178 -42 0
-1180 1179 44 0
-1180 -1179 -44 0
1180 -1179 44 0
1180 1179 -44 0
-1181 1180 46 0
-1181 -1180 -46 0
1181 -1180 46 0
1181 1180 -46 0
-1182 1181 48 0
-1182 -1181 -48 0
1182 -1181 48 0
1182 1181 -48 0
-1183 1182 50 0
-1183 -1182 -50 0
1183 -1182 50 0
1183 1182 -50 0
-1184 1183 52 0
-1184 -1183 -52 0
1184 -1183 52 0
1184 1183 -52 0
-1185 1184 53 0
-1185 -1184 -53 0
1185 -1184 53 0
1185 1184 -53 0
-1186 1185 56 0
-1186 -1185 -56 0
1186 -1185 56 0
1186 1185 -56 0
-1187 1186 58 0
-1187 -1186 -58 0
1187 -1186 58 0
1187 1186 -58 0
-1188 1187 60 0
-1188 -1187 -60 0
1188 -1187 60 0
1188 1187 -60 0
-1189 1188 73 0
-1189 -1188 -73 0
1189 -1188 73 0
1189 1188 -73 0
-1190 1189 74 0
-1190 -1189 -74 0
1190 -1189 74 0
1190 1189 -74 0
-1191 1190 75 0
-1191 -1190 -75 0
1191 -1190 75 0
1191 1190 -75 0
-1192 1191 76 0
-1192 -1191 -76 0
1192 -1191 76 0
1192 1191 -76 0
-1193 1192 77 0
-1193 -1192 -77 0
1193 -1192 77 0
1193 1192 -77 0
-1194 1193 78 0
-1194 -1193 -78 0
1194 -1193 78 0
1194 1193 -78 0
-1195 1194 79 0
-1195 -1194 -79 0
1195 -1194 79 0
1195 1194 -79 0
-1196 1195 80 0
-1196 -1195 -80 0
1196 -1195 80 0
1196 1195 -80 0
-1197 1196 81 0
-1197 -1196 -81 0
1197 -1196 81 0
1197 1196 -81 0
-1198 1197 82 0
-1198 -1197 -82 0
1198 -1197 82 0
1198 1197 -82 0
-1199 1198 83 0
-1199 -1198 -83 0
1199 -1198 83 0
1199 1198 -83 0
-1200 1199 84 0
-1200 -1199 -84 0
1200 -1199 84 0
1200 1199 -84 0
-1201 1200 85 0
-1201 -1200 -85 0
1201 -1200 85 0
1201 1200 -85 0
-1202 1201 86 0
-1202 -1201 -86 0
1202 -1201 86 0
1202 1201 -86 0
-1203 1202 89 0
-1203 -1202 -89 0
1203 -1202 89 0
1203 1202 -89 0
-1204 1203 90 0
-1204 -1203 -90 0
1204 -1203 90 0
1204 1203 -90 0
-1205 1204 91 0
-1205 -1204 -91 0
1205 -1204 91 0
1205 1204 -91 0
-1206 1205 92 0
-1206 -1205 -92 0
1206 -1205 92 0
1206 1205 -92 0
-1207 1206 93 0
-1207 -1206 -93 0
1207 -1206 93 0
1207 1206 -93 0
-1208 1207 96 0
-1208 -1207 -96 0
1208 -1207 96 0
1208 1207 -96 0
-1209 1208 121 0
-1209 -1208 -121 0
1209 -1208 121 0
1209 1208 -121 0
-1210 1209 122 0
-1210 -1209 -122 0
1210 -1209 122 0
1210 1209 -122 0
-1211 1210 123 0
-1211 -1210 -123 0
1211 -1210 123 0
1211 1210 -123 0
-1212 1211 124 0
-1212 -1211 -124 0
1212 -1211 124 0
1212 1211 -124 0
-1213 1212 145 0
-1213 -1212 -145 0
1213 -1212 145 0
1213 1212 -145 0
-1214 1213 147 0
-1214 -1213 -147 0
1214 -1213 147 0
1214 1213 -147 0
-1215 1214 148 0
-1215 -1214 -148 0
1215 -1214 148 0
1215 1214 -148 0
-1216 1215 149 0
-1216 -1215 -149 0
1216 -1215 149 0
1216 1215 -149 0
-1217 1216 150 0
-1217 -1216 -150 0
1217 -1216 150 0
1217 1216 -150 0
-1218 1217 152 0
-1218 -1217 -152 0
1218 -1217 152 0
1218 1217 -152 0
-1219 1218 157 0
-1219 -1218 -157 0
1219 -1218 157 0
1219 1218 -157 0
-1220 1219 159 0
-1220 -1219 -159 0
1220 -1219 159 0
1220 1219 -159 0
-1221 1220 160 0
-1221 -1220 -160 0
1221 -1220 160 0
1221 1220 -160 0
-1222 1221 161 0
-1222 -1221 -161 0
1222 -1221 161 0
1222 1221 -161 0
-1223 1222 162 0
-1223 -1222 -162 0
1223 -1222 162 0
1223 1222 -162 0
-1224 1223 164 0
-1224 -1223 -164 0
1224 -1223 164 0
1224 1223 -164 0
-1225 2 7 0
-1225 -2 -7 0
1225 -2 7 0
1225 2 -7 0
-1226 1225 9 0
-1226 -1225 -9 0
1226 -1225 9 0
1226 1225 -9 0
-1227 1226 12 0
-1227 -1226 -12 0
1227 -1226 12 0
1227 1226 -12 0
-1228 1227 13 0
-1228 -1227 -13 0
1228 -1227 13 0
1228 1227 -13 0
-1229 1228 14 0
-1229 -1228 -14 0
1229 -1228 14 0
1229 1228 -14 0
-1230 1229 21 0
-1230 -1229 -21 0
1230 -1229 21 0
1230 1229 -21 0
-1231 1230 24 0
-1231 -1230 -24 0
1231 -1230 24 0
1231 1230 -24 0
-1232 1231 27 0
-1232 -1231 -27 0
1232 -1231 27 0
1232 1231 -27 0
-1233 1232 28 0
-1233 -1232 -28 0
1233 -1232 28 0
1233 1232 -28 0
-1234 1233 29 0
-1234 -1233 -29 0
1234 -1233 29 0
1234 1233 -29 0
-1235 1234 30 0
-1235 -1234 -30 0
1235 -1234 30 0
1235 1234 -30 0
-1236 1235 33 0
-1236 -1235 -33 0
1236 -1235 33 0
1236 1235 -33 0
-1237 1236 36 0
-1237 -1236 -36 0
1237 -1236 36 0
1237 1236 -36 0
-1238 1237 42 0
-1238 -1237 -42 0
1238 -1237 42 0
1238 1237 -42 0
-1239 1238 54 0
-1239 -1238 -54 0
1239 -1238 54 0
1239 1238 -54 0
-1240 1239 61 0
-1240 -1239 -61 0
1240 -1239 61 0
1240 1239 -61 0
-1241 1240 62 0
-1241 -1240 -62 0
1241 -1240 62 0
1241 1240 -62 0
-1242 1241 63 0
-1242 -1241 -63 0
1242 -1241 63 0
1242 1241 -63 0
-1243 1242 64 0
-1243 -1242 -64 0
1243 -1242 64 0
1243 1242 -64 0
-1244 1243 65 0
-1244 -1243 -65 0
1244 -1243 65 0
1244 1243 -65 0
-1245 1244 67 0
-1245 -1244 -67 0
1245 -1244 67 0
1245 1244 -67 0
-1246 1245 68 0
-1246 -1245 -68 0
1246 -1245 68 0
1246 1245 -68 0
-1247 1246 69 0
-1247 -1246 -69 0
1247 -1246 69 0
1247 1246 -69 0
-1248 1247 70 0
-1248 -1247 -70 0
1248 -1247 70 0
1248 1247 -70 0
-1249 1248 71 0
-1249 -1248 -71 0
1249 -1248 71 0
1249 1248 -71 0
-1250 1249 72 0
-1250 -1249 -72 0
1250 -1249 72 0
1250 1249 -72 0
-1251 1250 76 0
-1251 -1250 -76 0
1251 -1250 76 0
1251 1250 -76 0
-1252 1251 83 0
-1252 -1251 -83 0
1252 -1251 83 0
1252 1251 -83 0
-1253 1252 88 0
-1253 -1252 -88 0
1253 -1252 88 0
1253 1252 -88 0
-1254 1253 95 0
-1254 -1253 -95 0
1254 -1253 95 0
1254 1253 -95 0
-1255 1254 100 0
-1255 -1254 -100 0
1255 -1254 100 0
1255 1254 -100 0
-1256 1255 107 0
-1256 -1255 -107 0
1256 -1255 107 0
1256 1255 -107 0
-1257 1256 110 0
-1257 -1256 -110 0
1257 -1256 110 0
1257 1256 -110 0
-1258 1257 112 0
-1258 -1257 -112 0
1258 -1257 112 0
1258 1257 -112 0
-1259 1258 122 0
-1259 -1258 -122 0
1259 -1258 122 0
1259 1258 -122 0
-1260 1259 124 0
-1260 -1259 -124 0
1260 -1259 124 0
1260 1259 -124 0
-1261 1260 134 0
-1261 -1260 -134 0
1261 -1260 134 0
1261 1260 -134 0
-1262 1261 136 0
-1262 -1261 -136 0
1262 -1261 136 0
1262 1261 -136 0
-1263 1262 145 0
-1263 -1262 -145 0
1263 -1262 145 0
1263 1262 -145 0
-1264 1263 151 0
-1264 -1263 -151 0
1264 -1263 151 0
1264 1263 -151 0
-1265 1264 157 0
-1265 -1264 -157 0
1265 -1264 157 0
1265 1264 -157 0
-1266 1265 158 0
-1266 -1265 -158 0
1266 -1265 158 0
1266 1265 -158 0
-1267 1266 159 0
-1267 -1266 -159 0
1267 -1266 159 0
1267 1266 -159 0
-1268 1267 160 0
-1268 -1267 -160 0
1268 -1267 160 0
1268 1267 -160 0
-1269 1268 161 0
-1269 -1268 -161 0
1269 -1268 161 0
1269 1268 -161 0
-1270 1269 162 0
-1270 -1269 -162 0
1270 -1269 162 0
1270 1269 -162 0
-1271 1270 169 0
-1271 -1270 -169 0
1271 -1270 169 0
1271 1270 -169 0
-1272 1271 171 0
-1272 -1271 -171 0
1272 -1271 171 0
1272 1271 -171 0
-1273 1272 173 0
-1273 -1272 -173 0
1273 -1272 173 0
1273 1272 -173 0
-1274 2 7 0
-1274 -2 -7 0
1274 -2 7 0
1274 2 -7 0
-1275 1274 9 0
-1275 -1274 -9 0
1275 -1274 9 0
1275 1274 -9 0
-1276 1275 12 0
-1276 -1275 -12 0
1276 -1275 12 0
1276 1275 -12 0
-1277 1276 14 0
-1277 -1276 -14 0
1277 -1276 14 0
1277 1276 -14 0
-1278 1277 16 0
-1278 -1277 -16 0
1278 -1277 16 0
1278 1277 -16 0
-1279 1278 21 0
-1279 -1278 -21 0
1279 -1278 21 0
1279 1278 -21 0
-1280 1279 23 0
-1280 -1279 -23 0
1280 -1279 23 0
1280 1279 -23 0
-1281 1280 24 0
-1281 -1280 -24 0
1281 -1280 24 0
1281 1280 -24 0
-1282 1281 25 0
-1282 -1281 -25 0
1282 -1281 25 0
1282 1281 -25 0
-1283 1282 27 0
-1283 -1282 -27 0
1283 -1282 27 0
1283 1282 -27 0
-1284 1283 28 0
-1284 -1283 -28 0
1284 -1283 28 0
1284 1283 -28 0
-1285 1284 29 0
-1285 -1284 -29 0
1285 -1284 29 0
1285 1284 -29 0
-1286 1285 31 0
-1286 -1285 -31 0
1286 -1285 31 0
1286 1285 -31 0
-1287 1286 35 0
-1287 -1286 -35 0
1287 -1286 35 0
1287 1286 -35 0
-1288 1287 42 0
-1288 -1287 -42 0
1288 -1287 42 0
1288 1287 -42 0
-1289 1288 53 0
-1289 -1288 -53 0
1289 -1288 53 0
1289 1288 -53 0
-1290 1289 54 0
-1290 -1289 -54 0
1290 -1289 54 0
1290 1289 -54 0
-1291 1290 62 0
-1291 -1290 -62 0
1291 -1290 62 0
1291 1290 -62 0
-1292 1291 64 0
-1292 -1291 -64 0
1292 -1291 64 0
1292 1291 -64 0
-1293 1292 65 0
-1293 -1292 -65 0
1293 -1292 65 0
1293 1292 -65 0
-1294 1293 66 0
-1294 -1293 -66 0
1294 -1293 66 0
1294 1293 -66 0
-1295 1294 68 0
-1295 -1294 -68 0
1295 -1294 68 0
1295 1294 -68 0
-1296 1295 70 0
-1296 -1295 -70 0
1296 -1295 70 0
1296 1295 -70 0
-1297 1296 72 0
-1297 -1296 -72 0
1297 -1296 72 0
1297 1296 -72 0
-1298 1297 76 0
-1298 -1297 -76 0
1298 -1297 76 0
1298 1297 -76 0
-1299 1298 83 0
-1299 -1298 -83 0
1299 -1298 83 0
1299 1298 -83 0
-1300 1299 87 0
-1300 -1299 -87 0
1300 -1299 87 0
1300 1299 -87 0
-1301 1300 88 0
-1301 -1300 -88 0
1301 -1300 88 0
1301 1300 -88 0
-1302 1301 94 0
-1302 -1301 -94 0
1302 -1301 94 0
1302 1301 -94 0
-1303 1302 95 0
-1303 -1302 -95 0
1303 -1302 95 0
1303 1302 -95 0
-1304 1303 97 0
-1304 -1303 -97 0
1304 -1303 97 0
1304 1303 -97 0
-1305 1304 98 0
-1305 -1304 -98 0
1305 -1304 98 0
1305 1304 -98 0
-1306 1305 100 0
-1306 -1305 -100 0
1306 -1305 100 0
1306 1305 -100 0
-1307 1306 101 0
-1307 -1306 -101 0
1307 -1306 101 0
1307 1306 -101 0
-1308 1307 102 0
-1308 -1307 -102 0
1308 -1307 102 0
1308 1307 -102 0
-1309 1308 103 0
-1309 -1308 -103 0
1309 -1308 103 0
1309 1308 -103 0
-1310 1309 104 0
-1310 -1309 -104 0
1310 -1309 104 0
1310 1309 -104 0
-1311 1310 105 0
-1311 -1310 -105 0
1311 -1310 105 0
1311 1310 -105 0
-1312 1311 107 0
-1312 -1311 -107 0
1312 -1311 107 0
1312 1311 -107 0
-1313 1312 108 0
-1313 -1312 -108 0
1313 -1312 108 0
1313 1312 -108 0
-1314 1313 110 0
-1314 -1313 -110 0
1314 -1313 110 0
1314 1313 -110 0
-1315 1314 112 0
-1315 -1314 -112 0
1315 -1314 112 0
1315 1314 -112 0
-1316 1315 121 0
-1316 -1315 -121 0
1316 -1315 121 0
1316 1315 -121 0
-1317 1316 122 0
-1317 -1316 -122 0
1317 -1316 122 0
1317 1316 -122 0
-1318 1317 123 0
-1318 -1317 -123 0
1318 -1317 123 0
1318 1317 -123 0
-1319 1318 124 0
-1319 -1318 -124 0
1319 -1318 124 0
1319 1318 -124 0
-1320 1319 133 0
-1320 -1319 -133 0
1320 -1319 133 0
1320 1319 -133 0
-1321 1320 135 0
-1321 -1320 -135 0
1321 -1320 135 0
1321 1320 -135 0
-1322 1321 145 0
-1322 -1321 -145 0
1322 -1321 145 0
1322 1321 -145 0
-1323 1322 148 0
-1323 -1322 -148 0
1323 -1322 148 0
1323 1322 -148 0
-1324 1323 150 0
-1324 -1323 -150 0
1324 -1323 150 0
1324 1323 -150 0
-1325 1324 151 0
-1325 -1324 -151 0
1325 -1324 151 0
1325 1324 -151 0
-1326 1325 152 0
-1326 -1325 -152 0
1326 -1325 152 0
1326 1325 -152 0
-1327 1326 157 0
-1327 -1326 -157 0
1327 -1326 157 0
1327 1326 -157 0
-1328 1327 159 0
-1328 -1327 -159 0
1328 -1327 159 0
1328 1327 -159 0
-1329 1328 161 0
-1329 -1328 -161 0
1329 -1328 161 0
1329 1328 -161 0
-1330 1329 170 0
-1330 -1329 -170 0
1330 -1329 170 0
1330 1329 -170 0
-1331 1330 172 0
-1331 -1330 -172 0
1331 -1330 172 0
1331 1330 -172 0
-1332 1331 174 0
-1332 -1331 -174 0
1332 -1331 174 0
1332 1331 -174 0
-1333 1 6 0
-1333 -1 -6 0
1333 -1 6 0
1333 1 -6 0
-1334 1333 8 0
-1334 -1333 -8 0
1334 -1333 8 0
1334 1333 -8 0
-1335 1334 11 0
-1335 -1334 -11 0
1335 -1334 11 0
1335 1334 -11 0
-1336 1335 19 0
-1336 -1335 -19 0
1336 -1335 19 0
1336 1335 -19 0
-1337 1336 20 0
-1337 -1336 -20 0
1337 -1336 20 0
1337 1336 -20 0
-1338 1337 21 0
-1338 -1337 -21 0
1338 -1337 21 0
1338 1337 -21 0
-1339 1338 24 0
-1339 -1338 -24 0
1339 -1338 24 0
1339 1338 -24 0
-1340 1339 27 0
-1340 -1339 -27 0
1340 -1339 27 0
1340 1339 -27 0
-1341 1340 29 0
-1341 -1340 -29 0
1341 -1340 29 0
1341 1340 -29 0
-1342 1341 30 0
-1342 -1341 -30 0
1342 -1341 30 0
1342 1341 -30 0
-1343 1342 31 0
-1343 -1342 -31 0
1343 -1342 31 0
1343 1342 -31 0
-1344 1343 33 0
-1344 -1343 -33 0
1344 -1343 33 0
1344 1343 -33 0
-1345 1344 35 0
-1345 -1344 -35 0
1345 -1344 35 0
1345 1344 -35 0
-1346 1345 36 0
-1346 -1345 -36 0
1346 -1345 36 0
1346 1345 -36 0
-1347 1346 37 0
-1347 -1346 -37 0
1347 -1346 37 0
1347 1346 -37 0
-1348 1347 39 0
-1348 -1347 -39 0
1348 -1347 39 0
1348 1347 -39 0
-1349 1348 43 0
-1349 -1348 -43 0
1349 -1348 43 0
1349 1348 -43 0
-1350 1349 45 0
-1350 -1349 -45 0
1350 -1349 45 0
1350 1349 -45 0
-1351 1350 47 0
-1351 -1350 -47 0
1351 -1350 47 0
1351 1350 -47 0
-1352 1351 54 0
-1352 -1351 -54 0
1352 -1351 54 0
1352 1351 -54 0
-1353 1352 61 0
-1353 -1352 -61 0
1353 -1352 61 0
1353 1352 -61 0
-1354 1353 62 0
-1354 -1353 -62 0
1354 -1353 62 0
1354 1353 -62 0
-1355 1354 63 0
-1355 -1354 -63 0
1355 -1354 63 0
1355 1354 -63 0
-1356 1355 64 0
-1356 -1355 -64 0
1356 -1355 64 0
1356 1355 -64 0
-1357 1356 67 0
-1357 -1356 -67 0
1357 -1356 67 0
1357 1356 -67 0
-1358 1357 68 0
-1358 -1357 -68 0
1358 -1357 68 0
1358 1357 -68 0
-1359 1358 69 0
-1359 -1358 -69 0
1359 -1358 69 0
1359 1358 -69 0
-1360 1359 70 0
-1360 -1359 -70 0
1360 -1359 70 0
1360 1359 -70 0
-1361 1360 71 0
-1361 -1360 -71 0
1361 -1360 71 0
1361 1360 -71 0
-1362 1361 72 0
-1362 -1361 -72 0
1362 -1361 72 0
1362 1361 -72 0
-1363 1362 73 0
-1363 -1362 -73 0
1363 -1362 73 0
1363 1362 -73 0
-1364 1363 74 0
-1364 -1363 -74 0
1364 -1363 74 0
1364 1363 -74 0
-1365 1364 76 0
-1365 -1364 -76 0
1365 -1364 76 0
1365 1364 -76 0
-1366 1365 77 0
-1366 -1365 -77 0
1366 -1365 77 0
1366 1365 -77 0
-1367 1366 78 0
-1367 -1366 -78 0
1367 -1366 78 0
1367 1366 -78 0
-1368 1367 79 0
-1368 -1367 -79 0
1368 -1367 79 0
1368 1367 -79 0
-1369 1368 80 0
-1369 -1368 -80 0
1369 -1368 80 0
1369 1368 -80 0
-1370 1369 81 0
-1370 -1369 -81 0
1370 -1369 81 0
1370 1369 -81 0
-1371 1370 83 0
-1371 -1370 -83 0
1371 -1370 83 0
1371 1370 -83 0
-1372 1371 84 0
-1372 -1371 -84 0
1372 -1371 84 0
1372 1371 -84 0
-1373 1372 88 0
-1373 -1372 -88 0
1373 -1372 88 0
1373 1372 -88 0
-1374 1373 95 0
-1374 -1373 -95 0
1374 -1373 95 0
1374 1373 -95 0
-1375 1374 99 0
-1375 -1374 -99 0
1375 -1374 99 0
1375 1374 -99 0
-1376 1375 100 0
-1376 -1375 -100 0
1376 -1375 100 0
1376 1375 -100 0
-1377 1376 106 0
-1377 -1376 -106 0
1377 -1376 106 0
1377 1376 -106 0
-1378 1377 107 0
-1378 -1377 -107 0
1378 -1377 107 0
1378 1377 -107 0
-1379 1378 109 0
-1379 -1378 -109 0
1379 -1378 109 0
1379 1378 -109 0
-1380 1379 111 0
-1380 -1379 -111 0
1380 -1379 111 0
1380 1379 -111 0
-1381 1380 122 0
-1381 -1380 -122 0
1381 -1380 122 0
1381 1380 -122 0
-1382 1381 124 0
-1382 -1381 -124 0
1382 -1381 124 0
1382 1381 -124 0
-1383 1382 133 0
-1383 -1382 -133 0
1383 -1382 133 0
1383 1382 -133 0
-1384 1383 134 0
-1384 -1383 -134 0
1384 -1383 134 0
1384 1383 -134 0
-1385 1384 135 0
-1385 -1384 -135 0
1385 -1384 135 0
1385 1384 -135 0
-1386 1385 136 0
-1386 -1385 -136 0
1386 -1385 136 0
1386 1385 -136 0
-1387 1386 146 0
-1387 -1386 -146 0
1387 -1386 146 0
1387 1386 -146 0
-1388 1387 152 0
-1388 -1387 -152 0
1388 -1387 152 0
1388 1387 -152 0
-1389 1388 157 0
-1389 -1388 -157 0
1389 -1388 157 0
1389 1388 -157 0
-1390 1389 159 0
-1390 -1389 -159 0
1390 -1389 159 0
1390 1389 -159 0
-1391 1390 161 0
-1391 -1390 -161 0
1391 -1390 161 0
1391 1390 -161 0
-1392 1391 169 0
-1392 -1391 -169 0
1392 -1391 169 0
1392 1391 -169 0
-1393 1392 175 0
-1393 -1392 -175 0
1393 -1392 175 0
1393 1392 -175 0
-1394 13 14 0
-1394 -13 -14 0
1394 -13 14 0
1394 13 -14 0
-1395 1394 15 0
-1395 -1394 -15 0
1395 -1394 15 0
1395 1394 -15 0
-1396 1395 17 0
-1396 -1395 -17 0
1396 -1395 17 0
1396 1395 -17 0
-1397 1396 19 0
-1397 -1396 -19 0
1397 -1396 19 0
1397 1396 -19 0
-1398 1397 21 0
-1398 -1397 -21 0
1398 -1397 21 0
1398 1397 -21 0
-1399 1398 24 0
-1399 -1398 -24 0
1399 -1398 24 0
1399 1398 -24 0
-1400 1399 25 0
-1400 -1399 -25 0
1400 -1399 25 0
1400 1399 -25 0
-1401 1400 26 0
-1401 -1400 -26 0
1401 -1400 26 0
1401 1400 -26 0
-1402 1401 27 0
-1402 -1401 -27 0
1402 -1401 27 0
1402 1401 -27 0
-1403 1402 28 0
-1403 -1402 -28 0
1403 -1402 28 0
1403 1402 -28 0
-1404 1403 29 0
-1404 -1403 -29 0
1404 -1403 29 0
1404 1403 -29 0
-1405 1404 30 0
-1405 -1404 -30 0
1405 -1404 30 0
1405 1404 -30 0
-1406 1405 38 0
-1406 -1405 -38 0
1406 -1405 38 0
1406 1405 -38 0
-1407 1406 40 0
-1407 -1406 -40 0
1407 -1406 40 0
1407 1406 -40 0
-1408 1407 42 0
-1408 -1407 -42 0
1408 -1407 42 0
1408 1407 -42 0
-1409 1408 44 0
-1409 -1408 -44 0
1409 -1408 44 0
1409 1408 -44 0
-1410 1409 46 0
-1410 -1409 -46 0
1410 -1409 46 0
1410 1409 -46 0
-1411 1410 48 0
-1411 -1410 -48 0
1411 -1410 48 0
1411 1410 -48 0
-1412 1411 54 0
-1412 -1411 -54 0
1412 -1411 54 0
1412 1411 -54 0
-1413 1412 61 0
-1413 -1412 -61 0
1413 -1412 61 0
1413 1412 -61 0
-1414 1413 62 0
-1414 -1413 -62 0
1414 -1413 62 0
1414 1413 -62 0
-1415 1414 63 0
-1415 -1414 -63 0
1415 -1414 63 0
1415 1414 -63 0
-1416 1415 64 0
-1416 -1415 -64 0
1416 -1415 64 0
1416 1415 -64 0
-1417 1416 65 0
-1417 -1416 -65 0
1417 -1416 65 0
1417 1416 -65 0
-1418 1417 66 0
-1418 -1417 -66 0
1418 -1417 66 0
1418 1417 -66 0
-1419 1418 67 0
-1419 -1418 -67 0
1419 -1418 67 0
1419 1418 -67 0
-1420 1419 68 0
-1420 -1419 -68 0
1420 -1419 68 0
1420 1419 -68 0
-1421 1420 69 0
-1421 -1420 -69 0
1421 -1420 69 0
1421 1420 -69 0
-1422 1421 70 0
-1422 -1421 -70 0
1422 -1421 70 0
1422 1421 -70 0
-1423 1422 71 0
-1423 -1422 -71 0
1423 -1422 71 0
1423 1422 -71 0
-1424 1423 72 0
-1424 -1423 -72 0
1424 -1423 72 0
1424 1423 -72 0
-1425 1424 73 0
-1425 -1424 -73 0
1425 -1424 73 0
1425 1424 -73 0
-1426 1425 74 0
-1426 -1425 -74 0
1426 -1425 74 0
1426 1425 -74 0
-1427 1426 75 0
-1427 -1426 -75 0
1427 -1426 75 0
1427 1426 -75 0
-1428 1427 76 0
-1428 -1427 -76 0
1428 -1427 76 0
1428 1427 -76 0
-1429 1428 77 0
-1429 -1428 -77 0
1429 -1428 77 0
1429 1428 -77 0
-1430 1429 78 0
-1430 -1429 -78 0
1430 -1429 78 0
1430 1429 -78 0
-1431 1430 79 0
-1431 -1430 -79 0
1431 -1430 79 0
1431 1430 -79 0
-1432 1431 80 0
-1432 -1431 -80 0
1432 -1431 80 0
1432 1431 -80 0
-1433 1432 81 0
-1433 -1432 -81 0
1433 -1432 81 0
1433 1432 -81 0
-1434 1433 82 0
-1434 -1433 -82 0
1434 -1433 82 0
1434 1433 -82 0
-1435 1434 83 0
-1435 -1434 -83 0
1435 -1434 83 0
1435 1434 -83 0
-1436 1435 84 0
-1436 -1435 -84 0
1436 -1435 84 0
1436 1435 -84 0
-1437 1436 88 0
-1437 -1436 -88 0
1437 -1436 88 0
1437 1436 -88 0
-1438 1437 95 0
-1438 -1437 -95 0
1438 -1437 95 0
1438 1437 -95 0
-1439 1438 122 0
-1439 -1438 -122 0
1439 -1438 122 0
1439 1438 -122 0
-1440 1439 124 0
-1440 -1439 -124 0
1440 -1439 124 0
1440 1439 -124 0
-1441 1440 145 0
-1441 -1440 -145 0
1441 -1440 145 0
1441 1440 -145 0
-1442 1441 147 0
-1442 -1441 -147 0
1442 -1441 147 0
1442 1441 -147 0
-1443 1442 149 0
-1443 -1442 -149 0
1443 -1442 149 0
1443 1442 -149 0
-1444 1443 158 0
-1444 -1443 -158 0
1444 -1443 158 0
1444 1443 -158 0
-1445 1444 160 0
-1445 -1444 -160 0
1445 -1444 160 0
1445 1444 -160 0
-1446 1445 162 0
-1446 -1445 -162 0
1446 -1445 162 0
1446 1445 -162 0
-1447 1446 170 0
-1447 -1446 -170 0
1447 -1446 170 0
1447 1446 -170 0
-1448 1447 176 0
-1448 -1447 -176 0
1448 -1447 176 0
1448 1447 -176 0
1025 1042 1059 1076 1093 1110 1169 1224 1273 1332 1393 1448 0
-1 1449 0
-1450 0
-1451 0
-1452 0
-1453 0
-1454 0
-1455 0
-1456 0
-1457 0
-2 1458 0
-1449 1458 0
-2 -1449 1459 0
-1450 1459 0
-2 -1450 1460 0
-1451 1460 0
-2 -1451 1461 0
-1452 1461 0
-2 -1452 1462 0
-1453 1462 0
-2 -1453 1463 0
-1454 1463 0
-2 -1454 1464 0
-1455 1464 0
-2 -1455 1465 0
-1456 1465 0
-2 -1456 1466 0
-1457 1466 0
-2 -1457 0
-3 1467 0
-1458 1467 0
-3 -1458 1468 0
-1459 1468 0
-3 -1459 1469 0
-1460 1469 0
-3 -1460 1470 0
-1461 1470 0
-3 -1461 1471 0
-1462 1471 0
-3 -1462 1472 0
-1463 1472 0
-3 -1463 1473 0
-1464 1473 0
-3 -1464 1474 0
-1465 1474 0
-3 -1465 1475 0
-1466 1475 0
-3 -1466 0
-4 1476 0
-1467 1476 0
-4 -1467 1477 0
-1468 1477 0
-4 -1468 1478 0
-1469 1478 0
-4 -1469 1479 0
-1470 1479 0
-4 -1470 1480 0
-1471 1480 0
-4 -1471 1481 0
-1472 1481 0
-4 -1472 1482 0
-1473 1482 0
-4 -1473 1483 0
-1474 1483 0
-4 -1474 1484 0
-1475 1484 0
-4 -1475 0
-5 1485 0
-1476 1485 0
-5 -1476 1486 0
-1477 1486 0
-5 -1477 1487 0
-1478 1487 0
-5 -1478 1488 0
-1479 1488 0
-5 -1479 1489 0
-1480 1489 0
-5 -1480 1490 0
-1481 1490 0
-5 -1481 1491 0
-1482 1491 0
-5 -1482 1492 0
-1483 1492 0
-5 -1483 1493 0
-1484 1493 0
-5 -1484 0
-6 1494 0
-1485 1494 0
-6 -1485 1495 0
-1486 1495 0
-6 -1486 1496 0
-1487 1496 0
-6 -1487 1497 0
-1488 1497 0
-6 -1488 1498 0
-1489 1498 0
-6 -1489 1499 0
-1490 1499 0
-6 -1490 1500 0
-1491 1500 0
-6 -1491 1501 0
-1492 1501 0
-6 -1492 1502 0
-1493 1502 0
-6 -1493 0
-7 1503 0
-1494 1503 0
-7 -1494 1504 0
-1495 1504 0
-7 -1495 1505 0
-1496 1505 0
-7 -1496 1506 0
-1497 1506 0
-7 -1497 1507 0
-1498 1507 0
-7 -1498 1508 0
-1499 1508 0
-7 -1499 1509 0
-1500 1509 0
-7 -1500 1510 0
-1501 1510 0
-7 -1501 1511 0
-1502 1511 0
-7 -1502 0
-8 1512 0
-1503 1512 0
-8 -1503 1513 0
-1504 1513 0
-8 -1504 1514 0
-1505 1514 0
-8 -1505 1515 0
-1506 1515 0
-8 -1506 1516 0
-1507 1516 0
-8 -1507 1517 0
-1508 1517 0
-8 -1508 1518 0
-1509 1518 0
-8 -1509 1519 0
-1510 1519 0
-8 -1510 1520 0
-1511 1520 0
-8 -1511 0
-9 1521 0
-1512 1521 0
-9 -1512 1522 0
-1513 1522 0
-9 -1513 1523 0
-1514 1523 0
-9 -1514 1524 0
-1515 1524 0
-9 -1515 1525 0
-1516 1525 0
-9 -1516 1526 0
-1517 1526 0
-9 -1517 1527 0
-1518 1527 0
-9 -1518 1528 0
-1519 1528 0
-9 -1519 1529 0
-1520 1529 0
-9 -1520 0
-10 1530 0
-1521 1530 0
-10 -1521 1531 0
-1522 1531 0
-10 -1522 1532 0
-1523 1532 0
-10 -1523 1533 0
-1524 1533 0
-10 -1524 1534 0
-1525 1534 0
-10 -1525 1535 0
-1526 1535 0
-10 -1526 1536 0
-1527 1536 0
-10 -1527 1537 0
-1528 1537 0
-10 -1528 1538 0
-1529 1538 0
-10 -1529 0
-11 1539 0
-1530 1539 0
-11 -1530 1540 0
-1531 1540 0
-11 -1531 1541 0
-1532 1541 0
-11 -1532 1542 0
-1533 1542 0
-11 -1533 1543 0
-1534 1543 0
-11 -1534 1544 0
-1535 1544 0
-11 -1535 1545 0
-1536 1545 0
-11 -1536 1546 0
-1537 1546 0
-11 -1537 1547 0
-1538 1547 0
-11 -1538 0
-12 1548 0
-1539 1548 0
-12 -1539 1549 0
-1540 1549 0
-12 -1540 1550 0
-1541 1550 0
-12 -1541 1551 0
-1542 1551 0
-12 -1542 1552 0
-1543 1552 0
-12 -1543 1553 0
-1544 1553 0
-12 -1544 1554 0
-1545 1554 0
-12 -1545 1555 0
-1546 1555 0
-12 -1546 1556 0
-1547 1556 0
-12 -1547 0
-13 1557 0
-1548 1557 0
-13 -1548 1558 0
-1549 1558 0
-13 -1549 1559 0
-1550 1559 0
-13 -1550 1560 0
-1551 1560 0
-13 -1551 1561 0
-1552 1561 0
-13 -1552 1562 0
-1553 1562 0
-13 -1553 1563 0
-1554 1563 0
-13 -1554 1564 0
-1555 1564 0
-13 -1555 1565 0
-1556 1565 0
-13 -1556 0
-14 1566 0
-1557 1566 0
-14 -1557 1567 0
-1558 1567 0
-14 -1558 1568 0
-1559 1568 0
-14 -1559 1569 0
-1560 1569 0
-14 -1560 1570 0
-1561 1570 0
-14 -1561 1571 0
-1562 1571 0
-14 -1562 1572 0
-1563 1572 0
-14 -1563 1573 0
-1564 1573 0
-14 -1564 1574 0
-1565 1574 0
-14 -1565 0
-15 1575 0
-1566 1575 0
-15 -1566 1576 0
-1567 1576 0
-15 -1567 1577 0
-1568 1577 0
-15 -1568 1578 0
-1569 1578 0
-15 -1569 1579 0
-1570 1579 0
-15 -1570 1580 0
-1571 1580 0
-15 -1571 1581 0
-1572 1581 0
-15 -1572 1582 0
-1573 1582 0
-15 -1573 1583 0
-1574 1583 0
-15 -1574 0
-16 1584 0
-1575 1584 0
-16 -1575 1585 0
-1576 1585 0
-16 -1576 1586 0
-1577 1586 0
-16 -1577 1587 0
-1578 1587 0
-16 -1578 1588 0
-1579 1588 0
-16 -1579 1589 0
-1580 1589 0
-16 -1580 1590 0
-1581 1590 0
-16 -1581 1591 0
-1582 1591 0
-16 -1582 1592 0
-1583 1592 0
-16 -1583 0
-17 1593 0
-1584 1593 0
-17 -1584 1594 0
-1585 1594 0
-17 -1585 1595 0
-1586 1595 0
-17 -1586 1596 0
-1587 1596 0
-17 -1587 1597 0
-1588 1597 0
-17 -1588 1598 0
-1589 1598 0
-17 -1589 1599 0
-1590 1599 0
-17 -1590 1600 0
-1591 1600 0
-17 -1591 1601 0
-1592 1601 0
-17 -1592 0
-18 1602 0
-1593 1602 0
-18 -1593 1603 0
-1594 1603 0
-18 -1594 1604 0
-1595 1604 0
-18 -1595 1605 0
-1596 1605 0
-18 -1596 1606 0
-1597 1606 0
-18 -1597 1607 0
-1598 1607 0
-18 -1598 1608 0
-1599 1608 0
-18 -1599 1609 0
-1600 1609 0
-18 -1600 1610 0
-1601 1610 0
-18 -1601 0
-19 1611 0
-1602 1611 0
-19 -1602 1612 0
-1603 1612 0
-19 -1603 1613 0
-1604 1613 0
-19 -1604 1614 0
-1605 1614 0
-19 -1605 1615 0
-1606 1615 0
-19 -1606 1616 0
-1607 1616 0
-19 -1607 1617 0
-1608 1617 0
-19 -1608 1618 0
-1609 1618 0
-19 -1609 1619 0
-1610 1619 0
-19 -1610 0
-20 1620 0
-1611 1620 0
-20 -1611 1621 0
-1612 1621 0
-20 -1612 1622 0
-1613 1622 0
-20 -1613 1623 0
-1614 1623 0
-20 -1614 1624 0
-1615 1624 0
-20 -1615 1625 0
-1616 1625 0
-20 -1616 1626 0
-1617 1626 0
-20 -1617 1627 0
-1618 1627 0
-20 -1618 1628 0
-1619 1628 0
-20 -1619 0
-21 1629 0
-1620 1629 0
-21 -1620 1630 0
-1621 1630 0
-21 -1621 1631 0
-1622 1631 0
-21 -1622 1632 0
-1623 1632 0
-21 -1623 1633 0
-1624 1633 0
-21 -1624 1634 0
-1625 1634 0
-21 -1625 1635 0
-1626 1635 0
-21 -1626 1636 0
-1627 1636 0
-21 -1627 1637 0
-1628 1637 0
-21 -1628 0
-22 1638 0
-1629 1638 0
-22 -1629 1639 0
-1630 1639 0
-22 -1630 1640 0
-1631 1640 0
-22 -1631 1641 0
-1632 1641 0
-22 -1632 1642 0
-1633 1642 0
-22 -1633 1643 0
-1634 1643 0
-22 -1634 1644 0
-1635 1644 0
-22 -1635 1645 0
-1636 1645 0
-22 -1636 1646 0
-1637 1646 0
-22 -1637 0
-23 1647 0
-1638 1647 0
-23 -1638 1648 0
-1639 1648 0
-23 -1639 1649 0
-1640 1649 0
-23 -1640 1650 0
-1641 1650 0
-23 -1641 1651 0
-1642 1651 0
-23 -1642 1652 0
-1643 1652 0
-23 -1643 1653 0
-1644 1653 0
-23 -1644 1654 0
-1645 1654 0
-23 -1645 1655 0
-1646 1655 0
-23 -1646 0
-24 1656 0
-1647 1656 0
-24 -1647 1657 0
-1648 1657 0
-24 -1648 1658 0
-1649 1658 0
-24 -1649 1659 0
-1650 1659 0
-24 -1650 1660 0
-1651 1660 0
-24 -1651 1661 0
-1652 1661 0
-24 -1652 1662 0
-1653 1662 0
-24 -1653 1663 0
-1654 1663 0
-24 -1654 1664 0
-1655 1664 0
-24 -1655 0
-25 1665 0
-1656 1665 0
-25 -1656 1666 0
-1657 1666 0
-25 -1657 1667 0
-1658 1667 0
-25 -1658 1668 0
-1659 1668 0
-25 -1659 1669 0
-1660 1669 0
-25 -1660 1670 0
-1661 1670 0
-25 -1661 1671 0
-1662 1671 0
-25 -1662 1672 0
-1663 1672 0
-25 -1663 1673 0
-1664 1673 0
-25 -1664 0
-26 1674 0
-1665 1674 0
-26 -1665 1675 0
-1666 1675 0
-26 -1666 1676 0
-1667 1676 0
-26 -1667 1677 0
-1668 1677 0
-26 -1668 1678 0
-1669 1678 0
-26 -1669 1679 0
-1670 1679 0
-26 -1670 1680 0
-1671 1680 0
-26 -1671 1681 0
-1672 1681 0
-26 -1672 1682 0
-1673 1682 0
-26 -1673 0
-27 1683 0
-1674 1683 0
-27 -1674 1684 0
-1675 1684 0
-27 -1675 1685 0
-1676 1685 0
-27 -1676 1686 0
-1677 1686 0
-27 -1677 1687 0
-1678 1687 0
-27 -1678 1688 0
-1679 1688 0
-27 -1679 1689 0
-1680 1689 0
-27 -1680 1690 0
-1681 1690 0
-27 -1681 1691 0
-1682 1691 0
-27 -1682 0
-28 1692 0
-1683 1692 0
-28 -1683 1693 0
-1684 1693 0
-28 -1684 1694 0
-1685 1694 0
-28 -1685 1695 0
-1686 1695 0
-28 -1686 1696 0
-1687 1696 0
-28 -1687 1697 0
-1688 1697 0
-28 -1688 1698 0
-1689 1698 0
-28 -1689 1699 0
-1690 1699 0
-28 -1690 1700 0
-1691 1700 0
-28 -1691 0
-29 1701 0
-1692 1701 0
-29 -1692 1702 0
-1693 1702 0
-29 -1693 1703 0
-1694 1703 0
-29 -1694 1704 0
-1695 1704 0
-29 -1695 1705 0
-1696 1705 0
-29 -1696 1706 0
-1697 1706 0
-29 -1697 1707 0
-1698 1707 0
-29 -1698 1708 0
-1699 1708 0
-29 -1699 1709 0
-1700 1709 0
-29 -1700 0
-30 1710 0
-1701 1710 0
-30 -1701 1711 0
-1702 1711 0
-30 -1702 1712 0
-1703 1712 0
-30 -1703 1713 0
-1704 1713 0
-30 -1704 1714 0
-1705 1714 0
-30 -1705 1715 0
-1706 1715 0
-30 -1706 1716 0
-1707 1716 0
-30 -1707 1717 0
-1708 1717 0
-30 -1708 1718 0
-1709 1718 0
-30 -1709 0
-31 1719 0
-1710 1719 0
-31 -1710 1720 0
-1711 1720 0
-31 -1711 1721 0
-1712 1721 0
-31 -1712 1722 0
-1713 1722 0
-31 -1713 1723 0
-1714 1723 0
-31 -1714 1724 0
-1715 1724 0
-31 -1715 1725 0
-1716 1725 0
-31 -1716 1726 0
-1717 1726 0
-31 -1717 1727 0
-1718 1727 0
-31 -1718 0
-32 1728 0
-1719 1728 0
-32 -1719 1729 0
-1720 1729 0
-32 -1720 1730 0
-1721 1730 0
-32 -1721 1731 0
-1722 1731 0
-32 -1722 1732 0
-1723 1732 0
-32 -1723 1733 0
-1724 1733 0
-32 -1724 1734 0
-1725 1734 0
-32 -1725 1735 0
-1726 1735 0
-32 -1726 1736 0
-1727 1736 0
-32 -1727 0
-33 1737 0
-1728 1737 0
-33 -1728 1738 0
-1729 1738 0
-33 -1729 1739 0
-1730 1739 0
-33 -1730 1740 0
-1731 1740 0
-33 -1731 1741 0
-1732 1741 0
-33 -1732 1742 0
-1733 1742 0
-33 -1733 1743 0
-1734 1743 0
-33 -1734 1744 0
-1735 1744 0
-33 -1735 1745 0
-1736 1745 0
-33 -1736 0
-34 1746 0
-1737 1746 0
-34 -1737 1747 0
-1738 1747 0
-34 -1738 1748 0
-1739 1748 0
-34 -1739 1749 0
-1740 1749 0
-34 -1740 1750 0
-1741 1750 0
-34 -1741 1751 0
-1742 1751 0
-34 -1742 1752 0
-1743 1752 0
-34 -1743 1753 0
-1744 1753 0
-34 -1744 1754 0
-1745 1754 0
-34 -1745 0
-35 1755 0
-1746 1755 0
-35 -1746 1756 0
-1747 1756 0
-35 -1747 1757 0
-1748 1757 0
-35 -1748 1758 0
-1749 1758 0
-35 -1749 1759 0
-1750 1759 0
-35 -1750 1760 0
-1751 1760 0
-35 -1751 1761 0
-1752 1761 0
-35 -1752 1762 0
-1753 1762 0
-35 -1753 1763 0
-1754 1763 0
-35 -1754 0
-36 1764 0
-1755 1764 0
-36 -1755 1765 0
-1756 1765 0
-36 -1756 1766 0
-1757 1766 0
-36 -1757 1767 0
-1758 1767 0
-36 -1758 1768 0
-1759 1768 0
-36 -1759 1769 0
-1760 1769 0
-36 -1760 1770 0
-1761 1770 0
-36 -1761 1771 0
-1762 1771 0
-36 -1762 1772 0
-1763 1772 0
-36 -1763 0
-37 1773 0
-1764 1773 0
-37 -1764 1774 0
-1765 1774 0
-37 -1765 1775 0
-1766 1775 0
-37 -1766 1776 0
-1767 1776 0
-37 -1767 1777 0
-1768 1777 0
-37 -1768 1778 0
-1769 1778 0
-37 -1769 1779 0
-1770 1779 0
-37 -1770 1780 0
-1771 1780 0
-37 -1771 1781 0
-1772 1781 0
-37 -1772 0
-38 1782 0
-1773 1782 0
-38 -1773 1783 0
-1774 1783 0
-38 -1774 1784 0
-1775 1784 0
-38 -1775 1785 0
-1776 1785 0
-38 -1776 1786 0
-1777 1786 0
-38 -1777 1787 0
-1778 1787 0
-38 -1778 1788 0
-1779 1788 0
-38 -1779 1789 0
-1780 1789 0
-38 -1780 1790 0
-1781 1790 0
-38 -1781 0
-39 1791 0
-1782 1791 0
-39 -1782 1792 0
-1783 1792 0
-39 -1783 1793 0
-1784 1793 0
-39 -1784 1794 0
-1785 1794 0
-39 -1785 1795 0
-1786 1795 0
-39 -1786 1796 0
-1787 1796 0
-39 -1787 1797 0
-1788 1797 0
-39 -1788 1798 0
-1789 1798 0
-39 -1789 1799 0
-1790 1799 0
-39 -1790 0
-40 1800 0
-1791 1800 0
-40 -1791 1801 0
-1792 1801 0
-40 -1792 1802 0
-1793 1802 0
-40 -1793 1803 0
-1794 1803 0
-40 -1794 1804 0
-1795 1804 0
-40 -1795 1805 0
-1796 1805 0
-40 -1796 1806 0
-1797 1806 0
-40 -1797 1807 0
-1798 1807 0
-40 -1798 1808 0
-1799 1808 0
-40 -1799 0
-41 1809 0
-1800 1809 0
-41 -1800 1810 0
-1801 1810 0
-41 -1801 1811 0
-1802 1811 0
-41 -1802 1812 0
-1803 1812 0
-41 -1803 1813 0
-1804 1813 0
-41 -1804 1814 0
-1805 1814 0
-41 -1805 1815 0
-1806 1815 0
-41 -1806 1816 0
-1807 1816 0
-41 -1807 1817 0
-1808 1817 0
-41 -1808 0
-42 1818 0
-1809 1818 0
-42 -1809 1819 0
-1810 1819 0
-42 -1810 1820 0
-1811 1820 0
-42 -1811 1821 0
-1812 1821 0
-42 -1812 1822 0
-1813 1822 0
-42 -1813 1823 0
-1814 1823 0
-42 -1814 1824 0
-1815 1824 0
-42 -1815 1825 0
-1816 1825 0
-42 -1816 1826 0
-1817 1826 0
-42 -1817 0
-43 1827 0
-1818 1827 0
-43 -1818 1828 0
-1819 1828 0
-43 -1819 1829 0
-1820 1829 0
-43 -1820 1830 0
-1821 1830 0
-43 -1821 1831 0
-1822 1831 0
-43 -1822 1832 0
-1823 1832 0
-43 -1823 1833 0
-1824 1833 0
-43 -1824 1834 0
-1825 1834 0
-43 -1825 1835 0
-1826 1835 0
-43 -1826 0
-44 1836 0
-1827 1836 0
-44 -1827 1837 0
-1828 1837 0
-44 -1828 1838 0
-1829 1838 0
-44 -1829 1839 0
-1830 1839 0
-44 -1830 1840 0
-1831 1840 0
-44 -1831 1841 0
-1832 1841 0
-44 -1832 1842 0
-1833 1842 0
-44 -1833 1843 0
-1834 1843 0
-44 -1834 1844 0
-1835 1844 0
-44 -1835 0
-45 1845 0
-1836 1845 0
-45 -1836 1846 0
-1837 1846 0
-45 -1837 1847 0
-1838 1847 0
-45 -1838 1848 0
-1839 1848 0
-45 -1839 1849 0
-1840 1849 0
-45 -1840 1850 0
-1841 1850 0
-45 -1841 1851 0
-1842 1851 0
-45 -1842 1852 0
-1843 1852 0
-45 -1843 1853 0
-1844 1853 0
-45 -1844 0
-46 1854 0
-1845 1854 0
-46 -1845 1855 0
-1846 1855 0
-46 -1846 1856 0
-1847 1856 0
-46 -1847 1857 0
-1848 1857 0
-46 -1848 1858 0
-1849 1858 0
-46 -1849 1859 0
-1850 1859 0
-46 -1850 1860 0
-1851 1860 0
-46 -1851 1861 0
-1852 1861 0
-46 -1852 1862 0
-1853 1862 0
-46 -1853 0
-47 1863 0
-1854 1863 0
-47 -1854 1864 0
-1855 1864 0
-47 -1855 1865 0
-1856 1865 0
-47 -1856 1866 0
-1857 1866 0
-47 -1857 1867 0
-1858 1867 0
-47 -1858 1868 0
-1859 1868 0
-47 -1859 1869 0
-1860 1869 0
-47 -1860 1870 0
-1861 1870 0
-47 -1861 1871 0
-1862 1871 0
-47 -1862 0
-48 1872 0
-1863 1872 0
-48 -1863 1873 0
-1864 1873 0
-48 -1864 1874 0
-1865 1874 0
-48 -1865 1875 0
-1866 1875 0
-48 -1866 1876 0
-1867 1876 0
-48 -1867 1877 0
-1868 1877 0
-48 -1868 1878 0
-1869 1878 0
-48 -1869 1879 0
-1870 1879 0
-48 -1870 1880 0
-1871 1880 0
-48 -1871 0
-49 1881 0
-1872 1881 0
-49 -1872 1882 0
-1873 1882 0
-49 -1873 1883 0
-1874 1883 0
-49 -1874 1884 0
-1875 1884 0
-49 -1875 1885 0
-1876 1885 0
-49 -1876 1886 0
-1877 1886 0
-49 -1877 1887 0
-1878 1887 0
-49 -1878 1888 0
-1879 1888 0
-49 -1879 1889 0
-1880 1889 0
-49 -1880 0
-50 1890 0
-1881 1890 0
-50 -1881 1891 0
-1882 1891 0
-50 -1882 1892 0
-1883 1892 0
-50 -1883 1893 0
-1884 1893 0
-50 -1884 1894 0
-1885 1894 0
-50 -1885 1895 0
-1886 1895 0
-50 -1886 1896 0
-1887 1896 0
-50 -1887 1897 0
-1888 1897 0
-50 -1888 1898 0
-1889 1898 0
-50 -1889 0
-51 1899 0
-1890 1899 0
-51 -1890 1900 0
-1891 1900 0
-51 -1891 1901 0
-1892 1901 0
-51 -1892 1902 0
-1893 1902 0
-51 -1893 1903 0
-1894 1903 0
-51 -1894 1904 0
-1895 1904 0
-51 -1895 1905 0
-1896 1905 0
-51 -1896 1906 0
-1897 1906 0
-51 -1897 1907 0
-1898 1907 0
-51 -1898 0
-52 1908 0
-1899 1908 0
-52 -1899 1909 0
-1900 1909 0
-52 -1900 1910 0
-1901 1910 0
-52 -1901 1911 0
-1902 1911 0
-52 -1902 1912 0
-1903 1912 0
-52 -1903 1913 0
-1904 1913 0
-52 -1904 1914 0
-1905 1914 0
-52 -1905 1915 0
-1906 1915 0
-52 -1906 1916 0
-1907 1916 0
-52 -1907 0
-53 1917 0
-1908 1917 0
-53 -1908 1918 0
-1909 1918 0
-53 -1909 1919 0
-1910 1919 0
-53 -1910 1920 0
-1911 1920 0
-53 -1911 1921 0
-1912 1921 0
-53 -1912 1922 0
-1913 1922 0
-53 -1913 1923 0
-1914 1923 0
-53 -1914 1924 0
-1915 1924 0
-53 -1915 1925 0
-1916 1925 0
-53 -1916 0
-54 1926 0
-1917 1926 0
-54 -1917 1927 0
-1918 1927 0
-54 -1918 1928 0
-1919 1928 0
-54 -1919 1929 0
-1920 1929 0
-54 -1920 1930 0
-1921 1930 0
-54 -1921 1931 0
-1922 1931 0
-54 -1922 1932 0
-1923 1932 0
-54 -1923 1933 0
-1924 1933 0
-54 -1924 1934 0
-1925 1934 0
-54 -1925 0
-55 1935 0
-1926 1935 0
-55 -1926 1936 0
-1927 1936 0
-55 -1927 1937 0
-1928 1937 0
-55 -1928 1938 0
-1929 1938 0
-55 -1929 1939 0
-1930 1939 0
-55 -1930 1940 0
-1931 1940 0
-55 -1931 1941 0
-1932 1941 0
-55 -1932 1942 0
-1933 1942 0
-55 -1933 1943 0
-1934 1943 0
-55 -1934 0
-56 1944 0
-1935 1944 0
-56 -1935 1945 0
-1936 1945 0
-56 -1936 1946 0
-1937 1946 0
-56 -1937 1947 0
-1938 1947 0
-56 -1938 1948 0
-1939 1948 0
-56 -1939 1949 0
-1940 1949 0
-56 -1940 1950 0
-1941 1950 0
-56 -1941 1951 0
-1942 1951 0
-56 -1942 1952 0
-1943 1952 0
-56 -1943 0
-57 1953 0
-1944 1953 0
-57 -1944 1954 0
-1945 1954 0
-57 -1945 1955 0
-1946 1955 0
-57 -1946 1956 0
-1947 1956 0
-57 -1947 1957 0
-1948 1957 0
-57 -1948 1958 0
-1949 1958 0
-57 -1949 1959 0
-1950 1959 0
-57 -1950 1960 0
-1951 1960 0
-57 -1951 1961 0
-1952 1961 0
-57 -1952 0
-58 1962 0
-1953 1962 0
-58 -1953 1963 0
-1954 1963 0
-58 -1954 1964 0
-1955 1964 0
-58 -1955 1965 0
-1956 1965 0
-58 -1956 1966 0
-1957 1966 0
-58 -1957 1967 0
-1958 1967 0
-58 -1958 1968 0
-1959 1968 0
-58 -1959 1969 0
-1960 1969 0
-58 -1960 1970 0
-1961 1970 0
-58 -1961 0
-59 1971 0
-1962 1971 0
-59 -1962 1972 0
-1963 1972 0
-59 -1963 1973 0
-1964 1973 0
-59 -1964 1974 0
-1965 1974 0
-59 -1965 1975 0
-1966 1975 0
-59 -1966 1976 0
-1967 1976 0
-59 -1967 1977 0
-1968 1977 0
-59 -1968 1978 0
-1969 1978 0
-59 -1969 1979 0
-1970 1979 0
-59 -1970 0
-60 1980 0
-1971 1980 0
-60 -1971 1981 0
-1972 1981 0
-60 -1972 1982 0
-1973 1982 0
-60 -1973 1983 0
-1974 1983 0
-60 -1974 1984 0
-1975 1984 0
-60 -1975 1985 0
-1976 1985 0
-60 -1976 1986 0
-1977 1986 0
-60 -1977 1987 0
-1978 1987 0
-60 -1978 1988 0
-1979 1988 0
-60 -1979 0
-61 1989 0
-1980 1989 0
-61 -1980 1990 0
-1981 1990 0
-61 -1981 1991 0
-1982 1991 0
-61 -1982 1992 0
-1983 1992 0
-61 -1983 1993 0
-1984 1993 0
-61 -1984 1994 0
-1985 1994 0
-61 -1985 1995 0
-1986 1995 0
-61 -1986 1996 0
-1987 1996 0
-61 -1987 1997 0
-1988 1997 0
-61 -1988 0
-62 1998 0
-1989 1998 0
-62 -1989 1999 0
-1990 1999 0
-62 -1990 2000 0
-1991 2000 0
-62 -1991 2001 0
-1992 2001 0
-62 -1992 2002 0
-1993 2002 0
-62 -1993 2003 0
-1994 2003 0
-62 -1994 2004 0
-1995 2004 0
-62 -1995 2005 0
-1996 2005 0
-62 -1996 2006 0
-1997 2006 0
-62 -1997 0
-63 2007 0
-1998 2007 0
-63 -1998 2008 0
-1999 2008 0
-63 -1999 2009 0
-2000 2009 0
-63 -2000 2010 0
-2001 2010 0
-63 -2001 2011 0
-2002 2011 0
-63 -2002 2012 0
-2003 2012 0
-63 -2003 2013 0
-2004 2013 0
-63 -2004 2014 0
-2005 2014 0
-63 -2005 2015 0
-2006 2015 0
-63 -2006 0
-64 2016 0
-2007 2016 0
-64 -2007 2017 0
-2008 2017 0
-64 -2008 2018 0
-2009 2018 0
-64 -2009 2019 0
-2010 2019 0
-64 -2010 2020 0
-2011 2020 0
-64 -2011 2021 0
-2012 2021 0
-64 -2012 2022 0
-2013 2022 0
-64 -2013 2023 0
-2014 2023 0
-64 -2014 2024 0
-2015 2024 0
-64 -2015 0
-65 2025 0
-2016 2025 0
-65 -2016 2026 0
-2017 2026 0
-65 -2017 2027 0
-2018 2027 0
-65 -2018 2028 0
-2019 2028 0
-65 -2019 2029 0
-2020 2029 0
-65 -2020 2030 0
-2021 2030 0
-65 -2021 2031 0
-2022 2031 0
-65 -2022 2032 0
-2023 2032 0
-65 -2023 2033 0
-2024 2033 0
-65 -2024 0
-66 2034 0
-2025 2034 0
-66 -2025 2035 0
-2026 2035 0
-66 -2026 2036 0
-2027 2036 0
-66 -2027 2037 0
-2028 2037 0
-66 -2028 2038 0
-2029 2038 0
-66 -2029 2039 0
-2030 2039 0
-66 -2030 2040 0
-2031 2040 0
-66 -2031 2041 0
-2032 2041 0
-66 -2032 2042 0
-2033 2042 0
-66 -2033 0
-67 2043 0
-2034 2043 0
-67 -2034 2044 0
-2035 2044 0
-67 -2035 2045 0
-2036 2045 0
-67 -2036 2046 0
-2037 2046 0
-67 -2037 2047 0
-2038 2047 0
-67 -2038 2048 0
-2039 2048 0
-67 -2039 2049 0
-2040 2049 0
-67 -2040 2050 0
-2041 2050 0
-67 -2041 2051 0
-2042 2051 0
-67 -2042 0
-68 2052 0
-2043 2052 0
-68 -2043 2053 0
-2044 2053 0
-68 -2044 2054 0
-2045 2054 0
-68 -2045 2055 0
-2046 2055 0
-68 -2046 2056 0
-2047 2056 0
-68 -2047 2057 0
-2048 2057 0
-68 -2048 2058 0
-2049 2058 0
-68 -2049 2059 0
-2050 2059 0
-68 -2050 2060 0
-2051 2060 0
-68 -2051 0
-69 2061 0
-2052 2061 0
-69 -2052 2062 0
-2053 2062 0
-69 -2053 2063 0
-2054 2063 0
-69 -2054 2064 0
-2055 2064 0
-69 -2055 2065 0
-2056 2065 0
-69 -2056 2066 0
-2057 2066 0
-69 -2057 2067 0
-2058 2067 0
-69 -2058 2068 0
-2059 2068 0
-69 -2059 2069 0
-2060 2069 0
-69 -2060 0
-70 2070 0
-2061 2070 0
-70 -2061 2071 0
-2062 2071 0
-70 -2062 2072 0
-2063 2072 0
-70 -2063 2073 0
-2064 2073 0
-70 -2064 2074 0
-2065 2074 0
-70 -2065 2075 0
-2066 2075 0
-70 -2066 2076 0
-2067 2076 0
-70 -2067 2077 0
-2068 2077 0
-70 -2068 2078 0
-2069 2078 0
-70 -2069 0
-71 2079 0
-2070 2079 0
-71 -2070 2080 0
-2071 2080 0
-71 -2071 2081 0
-2072 2081 0
-71 -2072 2082 0
-2073 2082 0
-71 -2073 2083 0
-2074 2083 0
-71 -2074 2084 0
-2075 2084 0
-71 -2075 2085 0
-2076 2085 0
-71 -2076 2086 0
-2077 2086 0
-71 -2077 2087 0
-2078 2087 0
-71 -2078 0
-72 2088 0
-2079 2088 0
-72 -2079 2089 0
-2080 2089 0
-72 -2080 2090 0
-2081 2090 0
-72 -2081 2091 0
-2082 2091 0
-72 -2082 2092 0
-2083 2092 0
-72 -2083 2093 0
-2084 2093 0
-72 -2084 2094 0
-2085 2094 0
-72 -2085 2095 0
-2086 2095 0
-72 -2086 2096 0
-2087 2096 0
-72 -2087 0
-73 2097 0
-2088 2097 0
-73 -2088 2098 0
-2089 2098 0
-73 -2089 2099 0
-2090 2099 0
-73 -2090 2100 0
-2091 2100 0
-73 -2091 2101 0
-2092 2101 0
-73 -2092 2102 0
-2093 2102 0
-73 -2093 2103 0
-2094 2103 0
-73 -2094 2104 0
-2095 2104 0
-73 -2095 2105 0
-2096 2105 0
-73 -2096 0
-74 2106 0
-2097 2106 0
-74 -2097 2107 0
-2098 2107 0
-74 -2098 2108 0
-2099 2108 0
-74 -2099 2109 0
-2100 2109 0
-74 -2100 2110 0
-2101 2110 0
-74 -2101 2111 0
-2102 2111 0
-74 -2102 2112 0
-2103 2112 0
-74 -2103 2113 0
-2104 2113 0
-74 -2104 2114 0
-2105 2114 0
-74 -2105 0
-75 2115 0
-2106 2115 0
-75 -2106 2116 0
-2107 2116 0
-75 -2107 2117 0
-2108 2117 0
-75 -2108 2118 0
-2109 2118 0
-75 -2109 2119 0
-2110 2119 0
-75 -2110 2120 0
-2111 2120 0
-75 -2111 2121 0
-2112 2121 0
-75 -2112 2122 0
-2113 2122 0
-75 -2113 2123 0
-2114 2123 0
-75 -2114 0
-76 2124 0
-2115 2124 0
-76 -2115 2125 0
-2116 2125 0
-76 -2116 2126 0
-2117 2126 0
-76 -2117 2127 0
-2118 2127 0
-76 -2118 2128 0
-2119 2128 0
-76 -2119 2129 0
-2120 2129 0
-76 -2120 2130 0
-2121 2130 0
-76 -2121 2131 0
-2122 2131 0
-76 -2122 2132 0
-2123 2132 0
-76 -2123 0
-77 2133 0
-2124 2133 0
-77 -2124 2134 0
-2125 2134 0
-77 -2125 2135 0
-2126 2135 0
-77 -2126 2136 0
-2127 2136 0
-77 -2127 2137 0
-2128 2137 0
-77 -2128 2138 0
-2129 2138 0
-77 -2129 2139 0
-2130 2139 0
-77 -2130 2140 0
-2131 2140 0
-77 -2131 2141 0
-2132 2141 0
-77 -2132 0
-78 2142 0
-2133 2142 0
-78 -2133 2143 0
-2134 2143 0
-78 -2134 2144 0
-2135 2144 0
-78 -2135 2145 0
-2136 2145 0
-78 -2136 2146 0
-2137 2146 0
-78 -2137 2147 0
-2138 2147 0
-78 -2138 2148 0
-2139 2148 0
-78 -2139 2149 0
-2140 2149 0
-78 -2140 2150 0
-2141 2150 0
-78 -2141 0
-79 2151 0
-2142 2151 0
-79 -2142 2152 0
-2143 2152 0
-79 -2143 2153 0
-2144 2153 0
-79 -2144 2154 0
-2145 2154 0
-79 -2145 2155 0
-2146 2155 0
-79 -2146 2156 0
-2147 2156 0
-79 -2147 2157 0
-2148 2157 0
-79 -2148 2158 0
-2149 2158 0
-79 -2149 2159 0
-2150 2159 0
-79 -2150 0
-80 2160 0
-2151 2160 0
-80 -2151 2161 0
-2152 2161 0
-80 -2152 2162 0
-2153 2162 0
-80 -2153 2163 0
-2154 2163 0
-80 -2154 2164 0
-2155 2164 0
-80 -2155 2165 0
-2156 2165 0
-80 -2156 2166 0
-2157 2166 0
-80 -2157 2167 0
-2158 2167 0
-80 -2158 2168 0
-2159 2168 0
-80 -2159 0
-81 2169 0
-2160 2169 0
-81 -2160 2170 0
-2161 2170 0
-81 -2161 2171 0
-2162 2171 0
-81 -2162 2172 0
-2163 2172 0
-81 -2163 2173 0
-2164 2173 0
-81 -2164 2174 0
-2165 2174 0
-81 -2165 2175 0
-2166 2175 0
-81 -2166 2176 0
-2167 2176 0
-81 -2167 2177 0
-2168 2177 0
-81 -2168 0
-82 2178 0
-2169 2178 0
-82 -2169 2179 0
-2170 2179 0
-82 -2170 2180 0
-2171 2180 0
-82 -2171 2181 0
-2172 2181 0
-82 -2172 2182 0
-2173 2182 0
-82 -2173 2183 0
-2174 2183 0
-82 -2174 2184 0
-2175 2184 0
-82 -2175 2185 0
-2176 2185 0
-82 -2176 2186 0
-2177 2186 0
-82 -2177 0
-83 2187 0
-2178 2187 0
-83 -2178 2188 0
-2179 2188 0
-83 -2179 2189 0
-2180 2189 0
-83 -2180 2190 0
-2181 2190 0
-83 -2181 2191 0
-2182 2191 0
-83 -2182 2192 0
-2183 2192 0
-83 -2183 2193 0
-2184 2193 0
-83 -2184 2194 0
-2185 2194 0
-83 -2185 2195 0
-2186 2195 0
-83 -2186 0
-84 2196 0
-2187 2196 0
-84 -2187 2197 0
-2188 2197 0
-84 -2188 2198 0
-2189 2198 0
-84 -2189 2199 0
-2190 2199 0
-84 -2190 2200 0
-2191 2200 0
-84 -2191 2201 0
-2192 2201 0
-84 -2192 2202 0
-2193 2202 0
-84 -2193 2203 0
-2194 2203 0
-84 -2194 2204 0
-2195 2204 0
-84 -2195 0
-85 2205 0
-2196 2205 0
-85 -2196 2206 0
-2197 2206 0
-85 -2197 2207 0
-2198 2207 0
-85 -2198 2208 0
-2199 2208 0
-85 -2199 2209 0
-2200 2209 0
-85 -2200 2210 0
-2201 2210 0
-85 -2201 2211 0
-2202 2211 0
-85 -2202 2212 0
-2203 2212 0
-85 -2203 2213 0
-2204 2213 0
-85 -2204 0
-86 2214 0
-2205 2214 0
-86 -2205 2215 0
-2206 2215 0
-86 -2206 2216 0
-2207 2216 0
-86 -2207 2217 0
-2208 2217 0
-86 -2208 2218 0
-2209 2218 0
-86 -2209 2219 0
-2210 2219 0
-86 -2210 2220 0
-2211 2220 0
-86 -2211 2221 0
-2212 2221 0
-86 -2212 2222 0
-2213 2222 0
-86 -2213 0
-87 2223 0
-2214 2223 0
-87 -2214 2224 0
-2215 2224 0
-87 -2215 2225 0
-2216 2225 0
-87 -2216 2226 0
-2217 2226 0
-87 -2217 2227 0
-2218 2227 0
-87 -2218 2228 0
-2219 2228 0
-87 -2219 2229 0
-2220 2229 0
-87 -2220 2230 0
-2221 2230 0
-87 -2221 2231 0
-2222 2231 0
-87 -2222 0
-88 2232 0
-2223 2232 0
-88 -2223 2233 0
-2224 2233 0
-88 -2224 2234 0
-2225 2234 0
-88 -2225 2235 0
-2226 2235 0
-88 -2226 2236 0
-2227 2236 0
-88 -2227 2237 0
-2228 2237 0
-88 -2228 2238 0
-2229 2238 0
-88 -2229 2239 0
-2230 2239 0
-88 -2230 2240 0
-2231 2240 0
-88 -2231 0
-89 2241 0
-2232 2241 0
-89 -2232 2242 0
-2233 2242 0
-89 -2233 2243 0
-2234 2243 0
-89 -2234 2244 0
-2235 2244 0
-89 -2235 2245 0
-2236 2245 0
-89 -2236 2246 0
-2237 2246 0
-89 -2237 2247 0
-2238 2247 0
-89 -2238 2248 0
-2239 2248 0
-89 -2239 2249 0
-2240 2249 0
-89 -2240 0
-90 2250 0
-2241 2250 0
-90 -2241 2251 0
-2242 2251 0
-90 -2242 2252 0
-2243 2252 0
-90 -2243 2253 0
-2244 2253 0
-90 -2244 2254 0
-2245 2254 0
-90 -2245 2255 0
-2246 2255 0
-90 -2246 2256 0
-2247 2256 0
-90 -2247 2257 0
-2248 2257 0
-90 -2248 2258 0
-2249 2258 0
-90 -2249 0
-91 2259 0
-2250 2259 0
-91 -2250 2260 0
-2251 2260 0
-91 -2251 2261 0
-2252 2261 0
-91 -2252 2262 0
-2253 2262 0
-91 -2253 2263 0
-2254 2263 0
-91 -2254 2264 0
-2255 2264 0
-91 -2255 2265 0
-2256 2265 0
-91 -2256 2266 0
-2257 2266 0
-91 -2257 2267 0
-2258 2267 0
-91 -2258 0
-92 2268 0
-2259 2268 0
-92 -2259 2269 0
-2260 2269 0
-92 -2260 2270 0
-2261 2270 0
-92 -2261 2271 0
-2262 2271 0
-92 -2262 2272 0
-2263 2272 0
-92 -2263 2273 0
-2264 2273 0
-92 -2264 2274 0
-2265 2274 0
-92 -2265 2275 0
-2266 2275 0
-92 -2266 2276 0
-2267 2276 0
-92 -2267 0
-93 2277 0
-2268 2277 0
-93 -2268 2278 0
-2269 2278 0
-93 -2269 2279 0
-2270 2279 0
-93 -2270 2280 0
-2271 2280 0
-93 -2271 2281 0
-2272 2281 0
-93 -2272 2282 0
-2273 2282 0
-93 -2273 2283 0
-2274 2283 0
-93 -2274 2284 0
-2275 2284 0
-93 -2275 2285 0
-2276 2285 0
-93 -2276 0
-94 2286 0
-2277 2286 0
-94 -2277 2287 0
-2278 2287 0
-94 -2278 2288 0
-2279 2288 0
-94 -2279 2289 0
-2280 2289 0
-94 -2280 2290 0
-2281 2290 0
-94 -2281 2291 0
-2282 2291 0
-94 -2282 2292 0
-2283 2292 0
-94 -2283 2293 0
-2284 2293 0
-94 -2284 2294 0
-2285 2294 0
-94 -2285 0
-95 2295 0
-2286 2295 0
-95 -2286 2296 0
-2287 2296 0
-95 -2287 2297 0
-2288 2297 0
-95 -2288 2298 0
-2289 2298 0
-95 -2289 2299 0
-2290 2299 0
-95 -2290 2300 0
-2291 2300 0
-95 -2291 2301 0
-2292 2301 0
-95 -2292 2302 0
-2293 2302 0
-95 -2293 2303 0
-2294 2303 0
-95 -2294 0
-96 2304 0
-2295 2304 0
-96 -2295 2305 0
-2296 2305 0
-96 -2296 2306 0
-2297 2306 0
-96 -2297 2307 0
-2298 2307 0
-96 -2298 2308 0
-2299 2308 0
-96 -2299 2309 0
-2300 2309 0
-96 -2300 2310 0
-2301 2310 0
-96 -2301 2311 0
-2302 2311 0
-96 -2302 2312 0
-2303 2312 0
-96 -2303 0
-97 2313 0
-2304 2313 0
-97 -2304 2314 0
-2305 2314 0
-97 -2305 2315 0
-2306 2315 0
-97 -2306 2316 0
-2307 2316 0
-97 -2307 2317 0
-2308 2317 0
-97 -2308 2318 0
-2309 2318 0
-97 -2309 2319 0
-2310 2319 0
-97 -2310 2320 0
-2311 2320 0
-97 -2311 2321 0
-2312 2321 0
-97 -2312 0
-98 2322 0
-2313 2322 0
-98 -2313 2323 0
-2314 2323 0
-98 -2314 2324 0
-2315 2324 0
-98 -2315 2325 0
-2316 2325 0
-98 -2316 2326 0
-2317 2326 0
-98 -2317 2327 0
-2318 2327 0
-98 -2318 2328 0
-2319 2328 0
-98 -2319 2329 0
-2320 2329 0
-98 -2320 2330 0
-2321 2330 0
-98 -2321 0
-99 2331 0
-2322 2331 0
-99 -2322 2332 0
-2323 2332 0
-99 -2323 2333 0
-2324 2333 0
-99 -2324 2334 0
-2325 2334 0
-99 -2325 2335 0
-2326 2335 0
-99 -2326 2336 0
-2327 2336 0
-99 -2327 2337 0
-2328 2337 0
-99 -2328 2338 0
-2329 2338 0
-99 -2329 2339 0
-2330 2339 0
-99 -2330 0
-100 2340 0
-2331 2340 0
-100 -2331 2341 0
-2332 2341 0
-100 -2332 2342 0
-2333 2342 0
-100 -2333 2343 0
-2334 2343 0
-100 -2334 2344 0
-2335 2344 0
-100 -2335 2345 0
-2336 2345 0
-100 -2336 2346 0
-2337 2346 0
-100 -2337 2347 0
-2338 2347 0
-100 -2338 2348 0
-2339 2348 0
-100 -2339 0
-101 2349 0
-2340 2349 0
-101 -2340 2350 0
-2341 2350 0
-101 -2341 2351 0
-2342 2351 0
-101 -2342 2352 0
-2343 2352 0
-101 -2343 2353 0
-2344 2353 0
-101 -2344 2354 0
-2345 2354 0
-101 -2345 2355 0
-2346 2355 0
-101 -2346 2356 0
-2347 2356 0
-101 -2347 2357 0
-2348 2357 0
-101 -2348 0
-102 2358 0
-2349 2358 0
-102 -2349 2359 0
-2350 2359 0
-102 -2350 2360 0
-2351 2360 0
-102 -2351 2361 0
-2352 2361 0
-102 -2352 2362 0
-2353 2362 0
-102 -2353 2363 0
-2354 2363 0
-102 -2354 2364 0
-2355 2364 0
-102 -2355 2365 0
-2356 2365 0
-102 -2356 2366 0
-2357 2366 0
-102 -2357 0
-103 2367 0
-2358 2367 0
-103 -2358 2368 0
-2359 2368 0
-103 -2359 2369 0
-2360 2369 0
-103 -2360 2370 0
-2361 2370 0
-103 -2361 2371 0
-2362 2371 0
-103 -2362 2372 0
-2363 2372 0
-103 -2363 2373 0
-2364 2373 0
-103 -2364 2374 0
-2365 2374 0
-103 -2365 2375 0
-2366 2375 0
-103 -2366 0
-104 2376 0
-2367 2376 0
-104 -2367 2377 0
-2368 2377 0
-104 -2368 2378 0
-2369 2378 0
-104 -2369 2379 0
-2370 2379 0
-104 -2370 2380 0
-2371 2380 0
-104 -2371 2381 0
-2372 2381 0
-104 -2372 2382 0
-2373 2382 0
-104 -2373 2383 0
-2374 2383 0
-104 -2374 2384 0
-2375 2384 0
-104 -2375 0
-105 2385 0
-2376 2385 0
-105 -2376 2386 0
-2377 2386 0
-105 -2377 2387 0
-2378 2387 0
-105 -2378 2388 0
-2379 2388 0
-105 -2379 2389 0
-2380 2389 0
-105 -2380 2390 0
-2381 2390 0
-105 -2381 2391 0
-2382 2391 0
-105 -2382 2392 0
-2383 2392 0
-105 -2383 2393 0
-2384 2393 0
-105 -2384 0
-106 2394 0
-2385 2394 0
-106 -2385 2395 0
-2386 2395 0
-106 -2386 2396 0
-2387 2396 0
-106 -2387 2397 0
-2388 2397 0
-106 -2388 2398 0
-2389 2398 0
-106 -2389 2399 0
-2390 2399 0
-106 -2390 2400 0
-2391 2400 0
-106 -2391 2401 0
-2392 2401 0
-106 -2392 2402 0
-2393 2402 0
-106 -2393 0
-107 2403 0
-2394 2403 0
-107 -2394 2404 0
-2395 2404 0
-107 -2395 2405 0
-2396 2405 0
-107 -2396 2406 0
-2397 2406 0
-107 -2397 2407 0
-2398 2407 0
-107 -2398 2408 0
-2399 2408 0
-107 -2399 2409 0
-2400 2409 0
-107 -2400 2410 0
-2401 2410 0
-107 -2401 2411 0
-2402 2411 0
-107 -2402 0
-108 2412 0
-2403 2412 0
-108 -2403 2413 0
-2404 2413 0
-108 -2404 2414 0
-2405 2414 0
-108 -2405 2415 0
-2406 2415 0
-108 -2406 2416 0
-2407 2416 0
-108 -2407 2417 0
-2408 2417 0
-108 -2408 2418 0
-2409 2418 0
-108 -2409 2419 0
-2410 2419 0
-108 -2410 2420 0
-2411 2420 0
-108 -2411 0
-109 2421 0
-2412 2421 0
-109 -2412 2422 0
-2413 2422 0
-109 -2413 2423 0
-2414 2423 0
-109 -2414 2424 0
-2415 2424 0
-109 -2415 2425 0
-2416 2425 0
-109 -2416 2426 0
-2417 2426 0
-109 -2417 2427 0
-2418 2427 0
-109 -2418 2428 0
-2419 2428 0
-109 -2419 2429 0
-2420 2429 0
-109 -2420 0
-110 2430 0
-2421 2430 0
-110 -2421 2431 0
-2422 2431 0
-110 -2422 2432 0
-2423 2432 0
-110 -2423 2433 0
-2424 2433 0
-110 -2424 2434 0
-2425 2434 0
-110 -2425 2435 0
-2426 2435 0
-110 -2426 2436 0
-2427 2436 0
-110 -2427 2437 0
-2428 2437 0
-110 -2428 2438 0
-2429 2438 0
-110 -2429 0
-111 2439 0
-2430 2439 0
-111 -2430 2440 0
-2431 2440 0
-111 -2431 2441 0
-2432 2441 0
-111 -2432 2442 0
-2433 2442 0
-111 -2433 2443 0
-2434 2443 0
-111 -2434 2444 0
-2435 2444 0
-111 -2435 2445 0
-2436 2445 0
-111 -2436 2446 0
-2437 2446 0
-111 -2437 2447 0
-2438 2447 0
-111 -2438 0
-112 2448 0
-2439 2448 0
-112 -2439 2449 0
-2440 2449 0
-112 -2440 2450 0
-2441 2450 0
-112 -2441 2451 0
-2442 2451 0
-112 -2442 2452 0
-2443 2452 0
-112 -2443 2453 0
-2444 2453 0
-112 -2444 2454 0
-2445 2454 0
-112 -2445 2455 0
-2446 2455 0
-112 -2446 2456 0
-2447 2456 0
-112 -2447 0
-113 2457 0
-2448 2457 0
-113 -2448 2458 0
-2449 2458 0
-113 -2449 2459 0
-2450 2459 0
-113 -2450 2460 0
-2451 2460 0
-113 -2451 2461 0
-2452 2461 0
-113 -2452 2462 0
-2453 2462 0
-113 -2453 2463 0
-2454 2463 0
-113 -2454 2464 0
-2455 2464 0
-113 -2455 2465 0
-2456 2465 0
-113 -2456 0
-114 2466 0
-2457 2466 0
-114 -2457 2467 0
-2458 2467 0
-114 -2458 2468 0
-2459 2468 0
-114 -2459 2469 0
-2460 2469 0
-114 -2460 2470 0
-2461 2470 0
-114 -2461 2471 0
-2462 2471 0
-114 -2462 2472 0
-2463 2472 0
-114 -2463 2473 0
-2464 2473 0
-114 -2464 2474 0
-2465 2474 0
-114 -2465 0
-115 2475 0
-2466 2475 0
-115 -2466 2476 0
-2467 2476 0
-115 -2467 2477 0
-2468 2477 0
-115 -2468 2478 0
-2469 2478 0
-115 -2469 2479 0
-2470 2479 0
-115 -2470 2480 0
-2471 2480 0
-115 -2471 2481 0
-2472 2481 0
-115 -2472 2482 0
-2473 2482 0
-115 -2473 2483 0
-2474 2483 0
-115 -2474 0
-116 2484 0
-2475 2484 0
-116 -2475 2485 0
-2476 2485 0
-116 -2476 2486 0
-2477 2486 0
-116 -2477 2487 0
-2478 2487 0
-116 -2478 2488 0
-2479 2488 0
-116 -2479 2489 0
-2480 2489 0
-116 -2480 2490 0
-2481 2490 0
-116 -2481 2491 0
-2482 2491 0
-116 -2482 2492 0
-2483 2492 0
-116 -2483 0
-117 2493 0
-2484 2493 0
-117 -2484 2494 0
-2485 2494 0
-117 -2485 2495 0
-2486 2495 0
-117 -2486 2496 0
-2487 2496 0
-117 -2487 2497 0
-2488 2497 0
-117 -2488 2498 0
-2489 2498 0
-117 -2489 2499 0
-2490 2499 0
-117 -2490 2500 0
-2491 2500 0
-117 -2491 2501 0
-2492 2501 0
-117 -2492 0
-118 2502 0
-2493 2502 0
-118 -2493 2503 0
-2494 2503 0
-118 -2494 2504 0
-2495 2504 0
-118 -2495 2505 0
-2496 2505 0
-118 -2496 2506 0
-2497 2506 0
-118 -2497 2507 0
-2498 2507 0
-118 -2498 2508 0
-2499 2508 0
-118 -2499 2509 0
-2500 2509 0
-118 -2500 2510 0
-2501 2510 0
-118 -2501 0
-119 2511 0
-2502 2511 0
-119 -2502 2512 0
-2503 2512 0
-119 -2503 2513 0
-2504 2513 0
-119 -2504 2514 0
-2505 2514 0
-119 -2505 2515 0
-2506 2515 0
-119 -2506 2516 0
-2507 2516 0
-119 -2507 2517 0
-2508 2517 0
-119 -2508 2518 0
-2509 2518 0
-119 -2509 2519 0
-2510 2519 0
-119 -2510 0
-120 2520 0
-2511 2520 0
-120 -2511 2521 0
-2512 2521 0
-120 -2512 2522 0
-2513 2522 0
-120 -2513 2523 0
-2514 2523 0
-120 -2514 2524 0
-2515 2524 0
-120 -2515 2525 0
-2516 2525 0
-120 -2516 2526 0
-2517 2526 0
-120 -2517 2527 0
-2518 2527 0
-120 -2518 2528 0
-2519 2528 0
-120 -2519 0
-121 2529 0
-2520 2529 0
-121 -2520 2530 0
-2521 2530 0
-121 -2521 2531 0
-2522 2531 0
-121 -2522 2532 0
-2523 2532 0
-121 -2523 2533 0
-2524 2533 0
-121 -2524 2534 0
-2525 2534 0
-121 -2525 2535 0
-2526 2535 0
-121 -2526 2536 0
-2527 2536 0
-121 -2527 2537 0
-2528 2537 0
-121 -2528 0
-122 2538 0
-2529 2538 0
-122 -2529 2539 0
-2530 2539 0
-122 -2530 2540 0
-2531 2540 0
-122 -2531 2541 0
-2532 2541 0
-122 -2532 2542 0
-2533 2542 0
-122 -2533 2543 0
-2534 2543 0
-122 -2534 2544 0
-2535 2544 0
-122 -2535 2545 0
-2536 2545 0
-122 -2536 2546 0
-2537 2546 0
-122 -2537 0
-123 2547 0
-2538 2547 0
-123 -2538 2548 0
-2539 2548 0
-123 -2539 2549 0
-2540 2549 0
-123 -2540 2550 0
-2541 2550 0
-123 -2541 2551 0
-2542 2551 0
-123 -2542 2552 0
-2543 2552 0
-123 -2543 2553 0
-2544 2553 0
-123 -2544 2554 0
-2545 2554 0
-123 -2545 2555 0
-2546 2555 0
-123 -2546 0
-124 2556 0
-2547 2556 0
-124 -2547 2557 0
-2548 2557 0
-124 -2548 2558 0
-2549 2558 0
-124 -2549 2559 0
-2550 2559 0
-124 -2550 2560 0
-2551 2560 0
-124 -2551 2561 0
-2552 2561 0
-124 -2552 2562 0
-2553 2562 0
-124 -2553 2563 0
-2554 2563 0
-124 -2554 2564 0
-2555 2564 0
-124 -2555 0
-125 2565 0
-2556 2565 0
-125 -2556 2566 0
-2557 2566 0
-125 -2557 2567 0
-2558 2567 0
-125 -2558 2568 0
-2559 2568 0
-125 -2559 2569 0
-2560 2569 0
-125 -2560 2570 0
-2561 2570 0
-125 -2561 2571 0
-2562 2571 0
-125 -2562 2572 0
-2563 2572 0
-125 -2563 2573 0
-2564 2573 0
-125 -2564 0
-126 2574 0
-2565 2574 0
-126 -2565 2575 0
-2566 2575 0
-126 -2566 2576 0
-2567 2576 0
-126 -2567 2577 0
-2568 2577 0
-126 -2568 2578 0
-2569 2578 0
-126 -2569 2579 0
-2570 2579 0
-126 -2570 2580 0
-2571 2580 0
-126 -2571 2581 0
-2572 2581 0
-126 -2572 2582 0
-2573 2582 0
-126 -2573 0
-127 2583 0
-2574 2583 0
-127 -2574 2584 0
-2575 2584 0
-127 -2575 2585 0
-2576 2585 0
-127 -2576 2586 0
-2577 2586 0
-127 -2577 2587 0
-2578 2587 0
-127 -2578 2588 0
-2579 2588 0
-127 -2579 2589 0
-2580 2589 0
-127 -2580 2590 0
-2581 2590 0
-127 -2581 2591 0
-2582 2591 0
-127 -2582 0
-128 2592 0
-2583 2592 0
-128 -2583 2593 0
-2584 2593 0
-128 -2584 2594 0
-2585 2594 0
-128 -2585 2595 0
-2586 2595 0
-128 -2586 2596 0
-2587 2596 0
-128 -2587 2597 0
-2588 2597 0
-128 -2588 2598 0
-2589 2598 0
-128 -2589 2599 0
-2590 2599 0
-128 -2590 2600 0
-2591 2600 0
-128 -2591 0
-129 2601 0
-2592 2601 0
-129 -2592 2602 0
-2593 2602 0
-129 -2593 2603 0
-2594 2603 0
-129 -2594 2604 0
-2595 2604 0
-129 -2595 2605 0
-2596 2605 0
-129 -2596 2606 0
-2597 2606 0
-129 -2597 2607 0
-2598 2607 0
-129 -2598 2608 0
-2599 2608 0
-129 -2599 2609 0
-2600 2609 0
-129 -2600 0
-130 2610 0
-2601 2610 0
-130 -2601 2611 0
-2602 2611 0
-130 -2602 2612 0
-2603 2612 0
-130 -2603 2613 0
-2604 2613 0
-130 -2604 2614 0
-2605 2614 0
-130 -2605 2615 0
-2606 2615 0
-130 -2606 2616 0
-2607 2616 0
-130 -2607 2617 0
-2608 2617 0
-130 -2608 2618 0
-2609 2618 0
-130 -2609 0
-131 2619 0
-2610 2619 0
-131 -2610 2620 0
-2611 2620 0
-131 -2611 2621 0
-2612 2621 0
-131 -2612 2622 0
-2613 2622 0
-131 -2613 2623 0
-2614 2623 0
-131 -2614 2624 0
-2615 2624 0
-131 -2615 2625 0
-2616 2625 0
-131 -2616 2626 0
-2617 2626 0
-131 -2617 2627 0
-2618 2627 0
-131 -2618 0
-132 2628 0
-2619 2628 0
-132 -2619 2629 0
-2620 2629 0
-132 -2620 2630 0
-2621 2630 0
-132 -2621 2631 0
-2622 2631 0
-132 -2622 2632 0
-2623 2632 0
-132 -2623 2633 0
-2624 2633 0
-132 -2624 2634 0
-2625 2634 0
-132 -2625 2635 0
-2626 2635 0
-132 -2626 2636 0
-2627 2636 0
-132 -2627 0
-133 2637 0
-2628 2637 0
-133 -2628 2638 0
-2629 2638 0
-133 -2629 2639 0
-2630 2639 0
-133 -2630 2640 0
-2631 2640 0
-133 -2631 2641 0
-2632 2641 0
-133 -2632 2642 0
-2633 2642 0
-133 -2633 2643 0
-2634 2643 0
-133 -2634 2644 0
-2635 2644 0
-133 -2635 2645 0
-2636 2645 0
-133 -2636 0
-134 2646 0
-2637 2646 0
-134 -2637 2647 0
-2638 2647 0
-134 -2638 2648 0
-2639 2648 0
-134 -2639 2649 0
-2640 2649 0
-134 -2640 2650 0
-2641 2650 0
-134 -2641 2651 0
-2642 2651 0
-134 -2642 2652 0
-2643 2652 0
-134 -2643 2653 0
-2644 2653 0
-134 -2644 2654 0
-2645 2654 0
-134 -2645 0
-135 2655 0
-2646 2655 0
-135 -2646 2656 0
-2647 2656 0
-135 -2647 2657 0
-2648 2657 0
-135 -2648 2658 0
-2649 2658 0
-135 -2649 2659 0
-2650 2659 0
-135 -2650 2660 0
-2651 2660 0
-135 -2651 2661 0
-2652 2661 0
-135 -2652 2662 0
-2653 2662 0
-135 -2653 2663 0
-2654 2663 0
-135 -2654 0
-136 2664 0
-2655 2664 0
-136 -2655 2665 0
-2656 2665 0
-136 -2656 2666 0
-2657 2666 0
-136 -2657 2667 0
-2658 2667 0
-136 -2658 2668 0
-2659 2668 0
-136 -2659 2669 0
-2660 2669 0
-136 -2660 2670 0
-2661 2670 0
-136 -2661 2671 0
-2662 2671 0
-136 -2662 2672 0
-2663 2672 0
-136 -2663 0
-137 2673 0
-2664 2673 0
-137 -2664 2674 0
-2665 2674 0
-137 -2665 2675 0
-2666 2675 0
-137 -2666 2676 0
-2667 2676 0
-137 -2667 2677 0
-2668 2677 0
-137 -2668 2678 0
-2669 2678 0
-137 -2669 2679 0
-2670 2679 0
-137 -2670 2680 0
-2671 2680 0
-137 -2671 2681 0
-2672 2681 0
-137 -2672 0
-138 2682 0
-2673 2682 0
-138 -2673 2683 0
-2674 2683 0
-138 -2674 2684 0
-2675 2684 0
-138 -2675 2685 0
-2676 2685 0
-138 -2676 2686 0
-2677 2686 0
-138 -2677 2687 0
-2678 2687 0
-138 -2678 2688 0
-2679 2688 0
-138 -2679 2689 0
-2680 2689 0
-138 -2680 2690 0
-2681 2690 0
-138 -2681 0
-139 2691 0
-2682 2691 0
-139 -2682 2692 0
-2683 2692 0
-139 -2683 2693 0
-2684 2693 0
-139 -2684 2694 0
-2685 2694 0
-139 -2685 2695 0
-2686 2695 0
-139 -2686 2696 0
-2687 2696 0
-139 -2687 2697 0
-2688 2697 0
-139 -2688 2698 0
-2689 2698 0
-139 -2689 2699 0
-2690 2699 0
-139 -2690 0
-140 2700 0
-2691 2700 0
-140 -2691 2701 0
-2692 2701 0
-140 -2692 2702 0
-2693 2702 0
-140 -2693 2703 0
-2694 2703 0
-140 -2694 2704 0
-2695 2704 0
-140 -2695 2705 0
-2696 2705 0
-140 -2696 2706 0
-2697 2706 0
-140 -2697 2707 0
-2698 2707 0
-140 -2698 2708 0
-2699 2708 0
-140 -2699 0
-141 2709 0
-2700 2709 0
-141 -2700 2710 0
-2701 2710 0
-141 -2701 2711 0
-2702 2711 0
-141 -2702 2712 0
-2703 2712 0
-141 -2703 2713 0
-2704 2713 0
-141 -2704 2714 0
-2705 2714 0
-141 -2705 2715 0
-2706 2715 0
-141 -2706 2716 0
-2707 2716 0
-141 -2707 2717 0
-2708 2717 0
-141 -2708 0
-142 2718 0
-2709 2718 0
-142 -2709 2719 0
-2710 2719 0
-142 -2710 2720 0
-2711 2720 0
-142 -2711 2721 0
-2712 2721 0
-142 -2712 2722 0
-2713 2722 0
-142 -2713 2723 0
-2714 2723 0
-142 -2714 2724 0
-2715 2724 0
-142 -2715 2725 0
-2716 2725 0
-142 -2716 2726 0
-2717 2726 0
-142 -2717 0
-143 2727 0
-2718 2727 0
-143 -2718 2728 0
-2719 2728 0
-143 -2719 2729 0
-2720 2729 0
-143 -2720 2730 0
-2721 2730 0
-143 -2721 2731 0
-2722 2731 0
-143 -2722 2732 0
-2723 2732 0
-143 -2723 2733 0
-2724 2733 0
-143 -2724 2734 0
-2725 2734 0
-143 -2725 2735 0
-2726 2735 0
-143 -2726 0
-144 2736 0
-2727 2736 0
-144 -2727 2737 0
-2728 2737 0
-144 -2728 2738 0
-2729 2738 0
-144 -2729 2739 0
-2730 2739 0
-144 -2730 2740 0
-2731 2740 0
-144 -2731 2741 0
-2732 2741 0
-144 -2732 2742 0
-2733 2742 0
-144 -2733 2743 0
-2734 2743 0
-144 -2734 2744 0
-2735 2744 0
-144 -2735 0
-145 2745 0
-2736 2745 0
-145 -2736 2746 0
-2737 2746 0
-145 -2737 2747 0
-2738 2747 0
-145 -2738 2748 0
-2739 2748 0
-145 -2739 2749 0
-2740 2749 0
-145 -2740 2750 0
-2741 2750 0
-145 -2741 2751 0
-2742 2751 0
-145 -2742 2752 0
-2743 2752 0
-145 -2743 2753 0
-2744 2753 0
-145 -2744 0
-146 2754 0
-2745 2754 0
-146 -2745 2755 0
-2746 2755 0
-146 -2746 2756 0
-2747 2756 0
-146 -2747 2757 0
-2748 2757 0
-146 -2748 2758 0
-2749 2758 0
-146 -2749 2759 0
-2750 2759 0
-146 -2750 2760 0
-2751 2760 0
-146 -2751 2761 0
-2752 2761 0
-146 -2752 2762 0
-2753 2762 0
-146 -2753 0
-147 2763 0
-2754 2763 0
-147 -2754 2764 0
-2755 2764 0
-147 -2755 2765 0
-2756 2765 0
-147 -2756 2766 0
-2757 2766 0
-147 -2757 2767 0
-2758 2767 0
-147 -2758 2768 0
-2759 2768 0
-147 -2759 2769 0
-2760 2769 0
-147 -2760 2770 0
-2761 2770 0
-147 -2761 2771 0
-2762 2771 0
-147 -2762 0
-148 2772 0
-2763 2772 0
-148 -2763 2773 0
-2764 2773 0
-148 -2764 2774 0
-2765 2774 0
-148 -2765 2775 0
-2766 2775 0
-148 -2766 2776 0
-2767 2776 0
-148 -2767 2777 0
-2768 2777 0
-148 -2768 2778 0
-2769 2778 0
-148 -2769 2779 0
-2770 2779 0
-148 -2770 2780 0
-2771 2780 0
-148 -2771 0
-149 2781 0
-2772 2781 0
-149 -2772 2782 0
-2773 2782 0
-149 -2773 2783 0
-2774 2783 0
-149 -2774 2784 0
-2775 2784 0
-149 -2775 2785 0
-2776 2785 0
-149 -2776 2786 0
-2777 2786 0
-149 -2777 2787 0
-2778 2787 0
-149 -2778 2788 0
-2779 2788 0
-149 -2779 2789 0
-2780 2789 0
-149 -2780 0
-150 2790 0
-2781 2790 0
-150 -2781 2791 0
-2782 2791 0
-150 -2782 2792 0
-2783 2792 0
-150 -2783 2793 0
-2784 2793 0
-150 -2784 2794 0
-2785 2794 0
-150 -2785 2795 0
-2786 2795 0
-150 -2786 2796 0
-2787 2796 0
-150 -2787 2797 0
-2788 2797 0
-150 -2788 2798 0
-2789 2798 0
-150 -2789 0
-151 2799 0
-2790 2799 0
-151 -2790 2800 0
-2791 2800 0
-151 -2791 2801 0
-2792 2801 0
-151 -2792 2802 0
-2793 2802 0
-151 -2793 2803 0
-2794 2803 0
-151 -2794 2804 0
-2795 2804 0
-151 -2795 2805 0
-2796 2805 0
-151 -2796 2806 0
-2797 2806 0
-151 -2797 2807 0
-2798 2807 0
-151 -2798 0
-152 2808 0
-2799 2808 0
-152 -2799 2809 0
-2800 2809 0
-152 -2800 2810 0
-2801 2810 0
-152 -2801 2811 0
-2802 2811 0
-152 -2802 2812 0
-2803 2812 0
-152 -2803 2813 0
-2804 2813 0
-152 -2804 2814 0
-2805 2814 0
-152 -2805 2815 0
-2806 2815 0
-152 -2806 2816 0
-2807 2816 0
-152 -2807 0
-153 2817 0
-2808 2817 0
-153 -2808 2818 0
-2809 2818 0
-153 -2809 2819 0
-2810 2819 0
-153 -2810 2820 0
-2811 2820 0
-153 -2811 2821 0
-2812 2821 0
-153 -2812 2822 0
-2813 2822 0
-153 -2813 2823 0
-2814 2823 0
-153 -2814 2824 0
-2815 2824 0
-153 -2815 2825 0
-2816 2825 0
-153 -2816 0
-154 2826 0
-2817 2826 0
-154 -2817 2827 0
-2818 2827 0
-154 -2818 2828 0
-2819 2828 0
-154 -2819 2829 0
-2820 2829 0
-154 -2820 2830 0
-2821 2830 0
-154 -2821 2831 0
-2822 2831 0
-154 -2822 2832 0
-2823 2832 0
-154 -2823 2833 0
-2824 2833 0
-154 -2824 2834 0
-2825 2834 0
-154 -2825 0
-155 2835 0
-2826 2835 0
-155 -2826 2836 0
-2827 2836 0
-155 -2827 2837 0
-2828 2837 0
-155 -2828 2838 0
-2829 2838 0
-155 -2829 2839 0
-2830 2839 0
-155 -2830 2840 0
-2831 2840 0
-155 -2831 2841 0
-2832 2841 0
-155 -2832 2842 0
-2833 2842 0
-155 -2833 2843 0
-2834 2843 0
-155 -2834 0
-156 2844 0
-2835 2844 0
-156 -2835 2845 0
-2836 2845 0
-156 -2836 2846 0
-2837 2846 0
-156 -2837 2847 0
-2838 2847 0
-156 -2838 2848 0
-2839 2848 0
-156 -2839 2849 0
-2840 2849 0
-156 -2840 2850 0
-2841 2850 0
-156 -2841 2851 0
-2842 2851 0
-156 -2842 2852 0
-2843 2852 0
-156 -2843 0
-157 2853 0
-2844 2853 0
-157 -2844 2854 0
-2845 2854 0
-157 -2845 2855 0
-2846 2855 0
-157 -2846 2856 0
-2847 2856 0
-157 -2847 2857 0
-2848 2857 0
-157 -2848 2858 0
-2849 2858 0
-157 -2849 2859 0
-2850 2859 0
-157 -2850 2860 0
-2851 2860 0
-157 -2851 2861 0
-2852 2861 0
-157 -2852 0
-158 2862 0
-2853 2862 0
-158 -2853 2863 0
-2854 2863 0
-158 -2854 2864 0
-2855 2864 0
-158 -2855 2865 0
-2856 2865 0
-158 -2856 2866 0
-2857 2866 0
-158 -2857 2867 0
-2858 2867 0
-158 -2858 2868 0
-2859 2868 0
-158 -2859 2869 0
-2860 2869 0
-158 -2860 2870 0
-2861 2870 0
-158 -2861 0
-159 2871 0
-2862 2871 0
-159 -2862 2872 0
-2863 2872 0
-159 -2863 2873 0
-2864 2873 0
-159 -2864 2874 0
-2865 2874 0
-159 -2865 2875 0
-2866 2875 0
-159 -2866 2876 0
-2867 2876 0
-159 -2867 2877 0
-2868 2877 0
-159 -2868 2878 0
-2869 2878 0
-159 -2869 2879 0
-2870 2879 0
-159 -2870 0
-160 2880 0
-2871 2880 0
-160 -2871 2881 0
-2872 2881 0
-160 -2872 2882 0
-2873 2882 0
-160 -2873 2883 0
-2874 2883 0
-160 -2874 2884 0
-2875 2884 0
-160 -2875 2885 0
-2876 2885 0
-160 -2876 2886 0
-2877 2886 0
-160 -2877 2887 0
-2878 2887 0
-160 -2878 2888 0
-2879 2888 0
-160 -2879 0
-161 2889 0
-2880 2889 0
-161 -2880 2890 0
-2881 2890 0
-161 -2881 2891 0
-2882 2891 0
-161 -2882 2892 0
-2883 2892 0
-161 -2883 2893 0
-2884 2893 0
-161 -2884 2894 0
-2885 2894 0
-161 -2885 2895 0
-2886 2895 0
-161 -2886 2896 0
-2887 2896 0
-161 -2887 2897 0
-2888 2897 0
-161 -2888 0
-162 2898 0
-2889 2898 0
-162 -2889 2899 0
-2890 2899 0
-162 -2890 2900 0
-2891 2900 0
-162 -2891 2901 0
-2892 2901 0
-162 -2892 2902 0
-2893 2902 0
-162 -2893 2903 0
-2894 2903 0
-162 -2894 2904 0
-2895 2904 0
-162 -2895 2905 0
-2896 2905 0
-162 -2896 2906 0
-2897 2906 0
-162 -2897 0
-163 2907 0
-2898 2907 0
-163 -2898 2908 0
-2899 2908 0
-163 -2899 2909 0
-2900 2909 0
-163 -2900 2910 0
-2901 2910 0
-163 -2901 2911 0
-2902 2911 0
-163 -2902 2912 0
-2903 2912 0
-163 -2903 2913 0
-2904 2913 0
-163 -2904 2914 0
-2905 2914 0
-163 -2905 2915 0
-2906 2915 0
-163 -2906 0
-164 2916 0
-2907 2916 0
-164 -2907 2917 0
-2908 2917 0
-164 -2908 2918 0
-2909 2918 0
-164 -2909 2919 0
-2910 2919 0
-164 -2910 2920 0
-2911 2920 0
-164 -2911 2921 0
-2912 2921 0
-164 -2912 2922 0
-2913 2922 0
-164 -2913 2923 0
-2914 2923 0
-164 -2914 2924 0
-2915 2924 0
-164 -2915 0
-165 2925 0
-2916 2925 0
-165 -2916 2926 0
-2917 2926 0
-165 -2917 2927 0
-2918 2927 0
-165 -2918 2928 0
-2919 2928 0
-165 -2919 2929 0
-2920 2929 0
-165 -2920 2930 0
-2921 2930 0
-165 -2921 2931 0
-2922 2931 0
-165 -2922 2932 0
-2923 2932 0
-165 -2923 2933 0
-2924 2933 0
-165 -2924 0
-166 2934 0
-2925 2934 0
-166 -2925 2935 0
-2926 2935 0
-166 -2926 2936 0
-2927 2936 0
-166 -2927 2937 0
-2928 2937 0
-166 -2928 2938 0
-2929 2938 0
-166 -2929 2939 0
-2930 2939 0
-166 -2930 2940 0
-2931 2940 0
-166 -2931 2941 0
-2932 2941 0
-166 -2932 2942 0
-2933 2942 0
-166 -2933 0
-167 2943 0
-2934 2943 0
-167 -2934 2944 0
-2935 2944 0
-167 -2935 2945 0
-2936 2945 0
-167 -2936 2946 0
-2937 2946 0
-167 -2937 2947 0
-2938 2947 0
-167 -2938 2948 0
-2939 2948 0
-167 -2939 2949 0
-2940 2949 0
-167 -2940 2950 0
-2941 2950 0
-167 -2941 2951 0
-2942 2951 0
-167 -2942 0
-168 2952 0
-2943 2952 0
-168 -2943 2953 0
-2944 2953 0
-168 -2944 2954 0
-2945 2954 0
-168 -2945 2955 0
-2946 2955 0
-168 -2946 2956 0
-2947 2956 0
-168 -2947 2957 0
-2948 2957 0
-168 -2948 2958 0
-2949 2958 0
-168 -2949 2959 0
-2950 2959 0
-168 -2950 2960 0
-2951 2960 0
-168 -2951 0
-169 2961 0
-2952 2961 0
-169 -2952 2962 0
-2953 2962 0
-169 -2953 2963 0
-2954 2963 0
-169 -2954 2964 0
-2955 2964 0
-169 -2955 2965 0
-2956 2965 0
-169 -2956 2966 0
-2957 2966 0
-169 -2957 2967 0
-2958 2967 0
-169 -2958 2968 0
-2959 2968 0
-169 -2959 2969 0
-2960 2969 0
-169 -2960 0
-170 2970 0
-2961 2970 0
-170 -2961 2971 0
-2962 2971 0
-170 -2962 2972 0
-2963 2972 0
-170 -2963 2973 0
-2964 2973 0
-170 -2964 2974 0
-2965 2974 0
-170 -2965 2975 0
-2966 2975 0
-170 -2966 2976 0
-2967 2976 0
-170 -2967 2977 0
-2968 2977 0
-170 -2968 2978 0
-2969 2978 0
-170 -2969 0
-171 2979 0
-2970 2979 0
-171 -2970 2980 0
-2971 2980 0
-171 -2971 2981 0
-2972 2981 0
-171 -2972 2982 0
-2973 2982 0
-171 -2973 2983 0
-2974 2983 0
-171 -2974 2984 0
-2975 2984 0
-171 -2975 2985 0
-2976 2985 0
-171 -2976 2986 0
-2977 2986 0
-171 -2977 2987 0
-2978 2987 0
-171 -2978 0
-172 2988 0
-2979 2988 0
-172 -2979 2989 0
-2980 2989 0
-172 -2980 2990 0
-2981 2990 0
-172 -2981 2991 0
-2982 2991 0
-172 -2982 2992 0
-2983 2992 0
-172 -2983 2993 0
-2984 2993 0
-172 -2984 2994 0
-2985 2994 0
-172 -2985 2995 0
-2986 2995 0
-172 -2986 2996 0
-2987 2996 0
-172 -2987 0
-173 2997 0
-2988 2997 0
-173 -2988 2998 0
-2989 2998 0
-173 -2989 2999 0
-2990 2999 0
-173 -2990 3000 0
-2991 3000 0
-173 -2991 3001 0
-2992 3001 0
-173 -2992 3002 0
-2993 3002 0
-173 -2993 3003 0
-2994 3003 0
-173 -2994 3004 0
-2995 3004 0
-173 -2995 3005 0
-2996 3005 0
-173 -2996 0
-174 3006 0
-2997 3006 0
-174 -2997 3007 0
-2998 3007 0
-174 -2998 3008 0
-2999 3008 0
-174 -2999 3009 0
-3000 3009 0
-174 -3000 3010 0
-3001 3010 0
-174 -3001 3011 0
-3002 3011 0
-174 -3002 3012 0
-3003 3012 0
-174 -3003 3013 0
-3004 3013 0
-174 -3004 3014 0
-3005 3014 0
-174 -3005 0
-175 3015 0
-3006 3015 0
-175 -3006 3016 0
-3007 3016 0
-175 -3007 3017 0
-3008 3017 0
-175 -3008 3018 0
-3009 3018 0
-175 -3009 3019 0
-3010 3019 0
-175 -3010 3020 0
-3011 3020 0
-175 -3011 3021 0
-3012 3021 0
-175 -3012 3022 0
-3013 3022 0
-175 -3013 3023 0
-3014 3023 0
-175 -3014 0
-176 3024 0
-3015 3024 0
-176 -3015 3025 0
-3016 3025 0
-176 -3016 3026 0
-3017 3026 0
-176 -3017 3027 0
-3018 3027 0
-176 -3018 3028 0
-3019 3028 0
-176 -3019 3029 0
-3020 3029 0
-176 -3020 3030 0
-3021 3030 0
-176 -3021 3031 0
-3022 3031 0
-176 -3022 3032 0
-3023 3032 0
-176 -3023 0
-177 3033 0
-3024 3033 0
-177 -3024 3034 0
-3025 3034 0
-177 -3025 3035 0
-3026 3035 0
-177 -3026 3036 0
-3027 3036 0
-177 -3027 3037 0
-3028 3037 0
-177 -3028 3038 0
-3029 3038 0
-177 -3029 3039 0
-3030 3039 0
-177 -3030 3040 0
-3031 3040 0
-177 -3031 3041 0
-3032 3041 0
-177 -3032 0
-178 3042 0
-3033 3042 0
-178 -3033 3043 0
-3034 3043 0
-178 -3034 3044 0
-3035 3044 0
-178 -3035 3045 0
-3036 3045 0
-178 -3036 3046 0
-3037 3046 0
-178 -3037 3047 0
-3038 3047 0
-178 -3038 3048 0
-3039 3048 0
-178 -3039 3049 0
-3040 3049 0
-178 -3040 3050 0
-3041 3050 0
-178 -3041 0
-179 3051 0
-3042 3051 0
-179 -3042 3052 0
-3043 3052 0
-179 -3043 3053 0
-3044 3053 0
-179 -3044 3054 0
-3045 3054 0
-179 -3045 3055 0
-3046 3055 0
-179 -3046 3056 0
-3047 3056 0
-179 -3047 3057 0
-3048 3057 0
-179 -3048 3058 0
-3049 3058 0
-179 -3049 3059 0
-3050 3059 0
-179 -3050 0
-180 3060 0
-3051 3060 0
-180 -3051 3061 0
-3052 3061 0
-180 -3052 3062 0
-3053 3062 0
-180 -3053 3063 0
-3054 3063 0
-180 -3054 3064 0
-3055 3064 0
-180 -3055 3065 0
-3056 3065 0
-180 -3056 3066 0
-3057 3066 0
-180 -3057 3067 0
-3058 3067 0
-180 -3058 3068 0
-3059 3068 0
-180 -3059 0
-181 3069 0
-3060 3069 0
-181 -3060 3070 0
-3061 3070 0
-181 -3061 3071 0
-3062 3071 0
-181 -3062 3072 0
-3063 3072 0
-181 -3063 3073 0
-3064 3073 0
-181 -3064 3074 0
-3065 3074 0
-181 -3065 3075 0
-3066 3075 0
-181 -3066 3076 0
-3067 3076 0
-181 -3067 3077 0
-3068 3077 0
-181 -3068 0
-182 3078 0
-3069 3078 0
-182 -3069 3079 0
-3070 3079 0
-182 -3070 3080 0
-3071 3080 0
-182 -3071 3081 0
-3072 3081 0
-182 -3072 3082 0
-3073 3082 0
-182 -3073 3083 0
-3074 3083 0
-182 -3074 3084 0
-3075 3084 0
-182 -3075 3085 0
-3076 3085 0
-182 -3076 3086 0
-3077 3086 0
-182 -3077 0
-183 3087 0
-3078 3087 0
-183 -3078 3088 0
-3079 3088 0
-183 -3079 3089 0
-3080 3089 0
-183 -3080 3090 0
-3081 3090 0
-183 -3081 3091 0
-3082 3091 0
-183 -3082 3092 0
-3083 3092 0
-183 -3083 3093 0
-3084 3093 0
-183 -3084 3094 0
-3085 3094 0
-183 -3085 3095 0
-3086 3095 0
-183 -3086 0
-184 3096 0
-3087 3096 0
-184 -3087 3097 0
-3088 3097 0
-184 -3088 3098 0
-3089 3098 0
-184 -3089 3099 0
-3090 3099 0
-184 -3090 3100 0
-3091 3100 0
-184 -3091 3101 0
-3092 3101 0
-184 -3092 3102 0
-3093 3102 0
-184 -3093 3103 0
-3094 3103 0
-184 -3094 3104 0
-3095 3104 0
-184 -3095 0
-185 3105 0
-3096 3105 0
-185 -3096 3106 0
-3097 3106 0
-185 -3097 3107 0
-3098 3107 0
-185 -3098 3108 0
-3099 3108 0
-185 -3099 3109 0
-3100 3109 0
-185 -3100 3110 0
-3101 3110 0
-185 -3101 3111 0
-3102 3111 0
-185 -3102 3112 0
-3103 3112 0
-185 -3103 3113 0
-3104 3113 0
-185 -3104 0
-186 3114 0
-3105 3114 0
-186 -3105 3115 0
-3106 3115 0
-186 -3106 3116 0
-3107 3116 0
-186 -3107 3117 0
-3108 3117 0
-186 -3108 3118 0
-3109 3118 0
-186 -3109 3119 0
-3110 3119 0
-186 -3110 3120 0
-3111 3120 0
-186 -3111 3121 0
-3112 3121 0
-186 -3112 3122 0
-3113 3122 0
-186 -3113 0
-187 3123 0
-3114 3123 0
-187 -3114 3124 0
-3115 3124 0
-187 -3115 3125 0
-3116 3125 0
-187 -3116 3126 0
-3117 3126 0
-187 -3117 3127 0
-3118 3127 0
-187 -3118 3128 0
-3119 3128 0
-187 -3119 3129 0
-3120 3129 0
-187 -3120 3130 0
-3121 3130 0
-187 -3121 3131 0
-3122 3131 0
-187 -3122 0
-188 3132 0
-3123 3132 0
-188 -3123 3133 0
-3124 3133 0
-188 -3124 3134 0
-3125 3134 0
-188 -3125 3135 0
-3126 3135 0
-188 -3126 3136 0
-3127 3136 0
-188 -3127 3137 0
-3128 3137 0
-188 -3128 3138 0
-3129 3138 0
-188 -3129 3139 0
-3130 3139 0
-188 -3130 3140 0
-3131 3140 0
-188 -3131 0
-189 3141 0
-3132 3141 0
-189 -3132 3142 0
-3133 3142 0
-189 -3133 3143 0
-3134 3143 0
-189 -3134 3144 0
-3135 3144 0
-189 -3135 3145 0
-3136 3145 0
-189 -3136 3146 0
-3137 3146 0
-189 -3137 3147 0
-3138 3147 0
-189 -3138 3148 0
-3139 3148 0
-189 -3139 3149 0
-3140 3149 0
-189 -3140 0
-190 3150 0
-3141 3150 0
-190 -3141 3151 0
-3142 3151 0
-190 -3142 3152 0
-3143 3152 0
-190 -3143 3153 0
-3144 3153 0
-190 -3144 3154 0
-3145 3154 0
-190 -3145 3155 0
-3146 3155 0
-190 -3146 3156 0
-3147 3156 0
-190 -3147 3157 0
-3148 3157 0
-190 -3148 3158 0
-3149 3158 0
-190 -3149 0
-191 3159 0
-3150 3159 0
-191 -3150 3160 0
-3151 3160 0
-191 -3151 3161 0
-3152 3161 0
-191 -3152 3162 0
-3153 3162 0
-191 -3153 3163 0
-3154 3163 0
-191 -3154 3164 0
-3155 3164 0
-191 -3155 3165 0
-3156 3165 0
-191 -3156 3166 0
-3157 3166 0
-191 -3157 3167 0
-3158 3167 0
-191 -3158 0
-192 3168 0
-3159 3168 0
-192 -3159 3169 0
-3160 3169 0
-192 -3160 3170 0
-3161 3170 0
-192 -3161 3171 0
-3162 3171 0
-192 -3162 3172 0
-3163 3172 0
-192 -3163 3173 0
-3164 3173 0
-192 -3164 3174 0
-3165 3174 0
-192 -3165 3175 0
-3166 3175 0
-192 -3166 3176 0
-3167 3176 0
-192 -3167 0
-193 3177 0
-3168 3177 0
-193 -3168 3178 0
-3169 3178 0
-193 -3169 3179 0
-3170 3179 0
-193 -3170 3180 0
-3171 3180 0
-193 -3171 3181 0
-3172 3181 0
-193 -3172 3182 0
-3173 3182 0
-193 -3173 3183 0
-3174 3183 0
-193 -3174 3184 0
-3175 3184 0
-193 -3175 3185 0
-3176 3185 0
-193 -3176 0
-194 3186 0
-3177 3186 0
-194 -3177 3187 0
-3178 3187 0
-194 -3178 3188 0
-3179 3188 0
-194 -3179 3189 0
-3180 3189 0
-194 -3180 3190 0
-3181 3190 0
-194 -3181 3191 0
-3182 3191 0
-194 -3182 3192 0
-3183 3192 0
-194 -3183 3193 0
-3184 3193 0
-194 -3184 3194 0
-3185 3194 0
-194 -3185 0
-195 3195 0
-3186 3195 0
-195 -3186 3196 0
-3187 3196 0
-195 -3187 3197 0
-3188 3197 0
-195 -3188 3198 0
-3189 3198 0
-195 -3189 3199 0
-3190 3199 0
-195 -3190 3200 0
-3191 3200 0
-195 -3191 3201 0
-3192 3201 0
-195 -3192 3202 0
-3193 3202 0
-195 -3193 3203 0
-3194 3203 0
-195 -3194 0
-196 3204 0
-3195 3204 0
-196 -3195 3205 0
-3196 3205 0
-196 -3196 3206 0
-3197 3206 0
-196 -3197 3207 0
-3198 3207 0
-196 -3198 3208 0
-3199 3208 0
-196 -3199 3209 0
-3200 3209 0
-196 -3200 3210 0
-3201 3210 0
-196 -3201 3211 0
-3202 3211 0
-196 -3202 3212 0
-3203 3212 0
-196 -3203 0
-197 3213 0
-3204 3213 0
-197 -3204 3214 0
-3205 3214 0
-197 -3205 3215 0
-3206 3215 0
-197 -3206 3216 0
-3207 3216 0
-197 -3207 3217 0
-3208 3217 0
-197 -3208 3218 0
-3209 3218 0
-197 -3209 3219 0
-3210 3219 0
-197 -3210 3220 0
-3211 3220 0
-197 -3211 3221 0
-3212 3221 0
-197 -3212 0
-198 3222 0
-3213 3222 0
-198 -3213 3223 0
-3214 3223 0
-198 -3214 3224 0
-3215 3224 0
-198 -3215 3225 0
-3216 3225 0
-198 -3216 3226 0
-3217 3226 0
-198 -3217 3227 0
-3218 3227 0
-198 -3218 3228 0
-3219 3228 0
-198 -3219 3229 0
-3220 3229 0
-198 -3220 3230 0
-3221 3230 0
-198 -3221 0
-199 3231 0
-3222 3231 0
-199 -3222 3232 0
-3223 3232 0
-199 -3223 3233 0
-3224 3233 0
-199 -3224 3234 0
-3225 3234 0
-199 -3225 3235 0
-3226 3235 0
-199 -3226 3236 0
-3227 3236 0
-199 -3227 3237 0
-3228 3237 0
-199 -3228 3238 0
-3229 3238 0
-199 -3229 3239 0
-3230 3239 0
-199 -3230 0
-200 3240 0
-3231 3240 0
-200 -3231 3241 0
-3232 3241 0
-200 -3232 3242 0
-3233 3242 0
-200 -3233 3243 0
-3234 3243 0
-200 -3234 3244 0
-3235 3244 0
-200 -3235 3245 0
-3236 3245 0
-200 -3236 3246 0
-3237 3246 0
-200 -3237 3247 0
-3238 3247 0
-200 -3238 3248 0
-3239 3248 0
-200 -3239 0
-201 3249 0
-3240 3249 0
-201 -3240 3250 0
-3241 3250 0
-201 -3241 3251 0
-3242 3251 0
-201 -3242 3252 0
-3243 3252 0
-201 -3243 3253 0
-3244 3253 0
-201 -3244 3254 0
-3245 3254 0
-201 -3245 3255 0
-3246 3255 0
-201 -3246 3256 0
-3247 3256 0
-201 -3247 3257 0
-3248 3257 0
-201 -3248 0
-202 3258 0
-3249 3258 0
-202 -3249 3259 0
-3250 3259 0
-202 -3250 3260 0
-3251 3260 0
-202 -3251 3261 0
-3252 3261 0
-202 -3252 3262 0
-3253 3262 0
-202 -3253 3263 0
-3254 3263 0
-202 -3254 3264 0
-3255 3264 0
-202 -3255 3265 0
-3256 3265 0
-202 -3256 3266 0
-3257 3266 0
-202 -3257 0
-203 3267 0
-3258 3267 0
-203 -3258 3268 0
-3259 3268 0
-203 -3259 3269 0
-3260 3269 0
-203 -3260 3270 0
-3261 3270 0
-203 -3261 3271 0
-3262 3271 0
-203 -3262 3272 0
-3263 3272 0
-203 -3263 3273 0
-3264 3273 0
-203 -3264 3274 0
-3265 3274 0
-203 -3265 3275 0
-3266 3275 0
-203 -3266 0
-204 3276 0
-3267 3276 0
-204 -3267 3277 0
-3268 3277 0
-204 -3268 3278 0
-3269 3278 0
-204 -3269 3279 0
-3270 3279 0
-204 -3270 3280 0
-3271 3280 0
-204 -3271 3281 0
-3272 3281 0
-204 -3272 3282 0
-3273 3282 0
-204 -3273 3283 0
-3274 3283 0
-204 -3274 3284 0
-3275 3284 0
-204 -3275 0
-205 3285 0
-3276 3285 0
-205 -3276 3286 0
-3277 3286 0
-205 -3277 3287 0
-3278 3287 0
-205 -3278 3288 0
-3279 3288 0
-205 -3279 3289 0
-3280 3289 0
-205 -3280 3290 0
-3281 3290 0
-205 -3281 3291 0
-3282 3291 0
-205 -3282 3292 0
-3283 3292 0
-205 -3283 3293 0
-3284 3293 0
-205 -3284 0
-206 3294 0
-3285 3294 0
-206 -3285 3295 0
-3286 3295 0
-206 -3286 3296 0
-3287 3296 0
-206 -3287 3297 0
-3288 3297 0
-206 -3288 3298 0
-3289 3298 0
-206 -3289 3299 0
-3290 3299 0
-206 -3290 3300 0
-3291 3300 0
-206 -3291 3301 0
-3292 3301 0
-206 -3292 3302 0
-3293 3302 0
-206 -3293 0
-207 3303 0
-3294 3303 0
-207 -3294 3304 0
-3295 3304 0
-207 -3295 3305 0
-3296 3305 0
-207 -3296 3306 0
-3297 3306 0
-207 -3297 3307 0
-3298 3307 0
-207 -3298 3308 0
-3299 3308 0
-207 -3299 3309 0
-3300 3309 0
-207 -3300 3310 0
-3301 3310 0
-207 -3301 3311 0
-3302 3311 0
-207 -3302 0
-208 3312 0
-3303 3312 0
-208 -3303 3313 0
-3304 3313 0
-208 -3304 3314 0
-3305 3314 0
-208 -3305 3315 0
-3306 3315 0
-208 -3306 3316 0
-3307 3316 0
-208 -3307 3317 0
-3308 3317 0
-208 -3308 3318 0
-3309 3318 0
-208 -3309 3319 0
-3310 3319 0
-208 -3310 3320 0
-3311 3320 0
-208 -3311 0
-209 3321 0
-3312 3321 0
-209 -3312 3322 0
-3313 3322 0
-209 -3313 3323 0
-3314 3323 0
-209 -3314 3324 0
-3315 3324 0
-209 -3315 3325 0
-3316 3325 0
-209 -3316 3326 0
-3317 3326 0
-209 -3317 3327 0
-3318 3327 0
-209 -3318 3328 0
-3319 3328 0
-209 -3319 3329 0
-3320 3329 0
-209 -3320 0
-210 3330 0
-3321 3330 0
-210 -3321 3331 0
-3322 3331 0
-210 -3322 3332 0
-3323 3332 0
-210 -3323 3333 0
-3324 3333 0
-210 -3324 3334 0
-3325 3334 0
-210 -3325 3335 0
-3326 3335 0
-210 -3326 3336 0
-3327 3336 0
-210 -3327 3337 0
-3328 3337 0
-210 -3328 3338 0
-3329 3338 0
-210 -3329 0
-211 3339 0
-3330 3339 0
-211 -3330 3340 0
-3331 3340 0
-211 -3331 3341 0
-3332 3341 0
-211 -3332 3342 0
-3333 3342 0
-211 -3333 3343 0
-3334 3343 0
-211 -3334 3344 0
-3335 3344 0
-211 -3335 3345 0
-3336 3345 0
-211 -3336 3346 0
-3337 3346 0
-211 -3337 3347 0
-3338 3347 0
-211 -3338 0
-212 3348 0
-3339 3348 0
-212 -3339 3349 0
-3340 3349 0
-212 -3340 3350 0
-3341 3350 0
-212 -3341 3351 0
-3342 3351 0
-212 -3342 3352 0
-3343 3352 0
-212 -3343 3353 0
-3344 3353 0
-212 -3344 3354 0
-3345 3354 0
-212 -3345 3355 0
-3346 3355 0
-212 -3346 3356 0
-3347 3356 0
-212 -3347 0
-213 3357 0
-3348 3357 0
-213 -3348 3358 0
-3349 3358 0
-213 -3349 3359 0
-3350 3359 0
-213 -3350 3360 0
-3351 3360 0
-213 -3351 3361 0
-3352 3361 0
-213 -3352 3362 0
-3353 3362 0
-213 -3353 3363 0
-3354 3363 0
-213 -3354 3364 0
-3355 3364 0
-213 -3355 3365 0
-3356 3365 0
-213 -3356 0
-214 3366 0
-3357 3366 0
-214 -3357 3367 0
-3358 3367 0
-214 -3358 3368 0
-3359 3368 0
-214 -3359 3369 0
-3360 3369 0
-214 -3360 3370 0
-3361 3370 0
-214 -3361 3371 0
-3362 3371 0
-214 -3362 3372 0
-3363 3372 0
-214 -3363 3373 0
-3364 3373 0
-214 -3364 3374 0
-3365 3374 0
-214 -3365 0
-215 3375 0
-3366 3375 0
-215 -3366 3376 0
-3367 3376 0
-215 -3367 3377 0
-3368 3377 0
-215 -3368 3378 0
-3369 3378 0
-215 -3369 3379 0
-3370 3379 0
-215 -3370 3380 0
-3371 3380 0
-215 -3371 3381 0
-3372 3381 0
-215 -3372 3382 0
-3373 3382 0
-215 -3373 3383 0
-3374 3383 0
-215 -3374 0
-216 3384 0
-3375 3384 0
-216 -3375 3385 0
-3376 3385 0
-216 -3376 3386 0
-3377 3386 0
-216 -3377 3387 0
-3378 3387 0
-216 -3378 3388 0
-3379 3388 0
-216 -3379 3389 0
-3380 3389 0
-216 -3380 3390 0
-3381 3390 0
-216 -3381 3391 0
-3382 3391 0
-216 -3382 3392 0
-3383 3392 0
-216 -3383 0
-217 3393 0
-3384 3393 0
-217 -3384 3394 0
-3385 3394 0
-217 -3385 3395 0
-3386 3395 0
-217 -3386 3396 0
-3387 3396 0
-217 -3387 3397 0
-3388 3397 0
-217 -3388 3398 0
-3389 3398 0
-217 -3389 3399 0
-3390 3399 0
-217 -3390 3400 0
-3391 3400 0
-217 -3391 3401 0
-3392 3401 0
-217 -3392 0
-218 3402 0
-3393 3402 0
-218 -3393 3403 0
-3394 3403 0
-218 -3394 3404 0
-3395 3404 0
-218 -3395 3405 0
-3396 3405 0
-218 -3396 3406 0
-3397 3406 0
-218 -3397 3407 0
-3398 3407 0
-218 -3398 3408 0
-3399 3408 0
-218 -3399 3409 0
-3400 3409 0
-218 -3400 3410 0
-3401 3410 0
-218 -3401 0
-219 3411 0
-3402 3411 0
-219 -3402 3412 0
-3403 3412 0
-219 -3403 3413 0
-3404 3413 0
-219 -3404 3414 0
-3405 3414 0
-219 -3405 3415 0
-3406 3415 0
-219 -3406 3416 0
-3407 3416 0
-219 -3407 3417 0
-3408 3417 0
-219 -3408 3418 0
-3409 3418 0
-219 -3409 3419 0
-3410 3419 0
-219 -3410 0
-220 3420 0
-3411 3420 0
-220 -3411 3421 0
-3412 3421 0
-220 -3412 3422 0
-3413 3422 0
-220 -3413 3423 0
-3414 3423 0
-220 -3414 3424 0
-3415 3424 0
-220 -3415 3425 0
-3416 3425 0
-220 -3416 3426 0
-3417 3426 0
-220 -3417 3427 0
-3418 3427 0
-220 -3418 3428 0
-3419 3428 0
-220 -3419 0
-221 3429 0
-3420 3429 0
-221 -3420 3430 0
-3421 3430 0
-221 -3421 3431 0
-3422 3431 0
-221 -3422 3432 0
-3423 3432 0
-221 -3423 3433 0
-3424 3433 0
-221 -3424 3434 0
-3425 3434 0
-221 -3425 3435 0
-3426 3435 0
-221 -3426 3436 0
-3427 3436 0
-221 -3427 3437 0
-3428 3437 0
-221 -3428 0
-222 3438 0
-3429 3438 0
-222 -3429 3439 0
-3430 3439 0
-222 -3430 3440 0
-3431 3440 0
-222 -3431 3441 0
-3432 3441 0
-222 -3432 3442 0
-3433 3442 0
-222 -3433 3443 0
-3434 3443 0
-222 -3434 3444 0
-3435 3444 0
-222 -3435 3445 0
-3436 3445 0
-222 -3436 3446 0
-3437 3446 0
-222 -3437 0
-223 3447 0
-3438 3447 0
-223 -3438 3448 0
-3439 3448 0
-223 -3439 3449 0
-3440 3449 0
-223 -3440 3450 0
-3441 3450 0
-223 -3441 3451 0
-3442 3451 0
-223 -3442 3452 0
-3443 3452 0
-223 -3443 3453 0
-3444 3453 0
-223 -3444 3454 0
-3445 3454 0
-223 -3445 3455 0
-3446 3455 0
-223 -3446 0
-224 3456 0
-3447 3456 0
-224 -3447 3457 0
-3448 3457 0
-224 -3448 3458 0
-3449 3458 0
-224 -3449 3459 0
-3450 3459 0
-224 -3450 3460 0
-3451 3460 0
-224 -3451 3461 0
-3452 3461 0
-224 -3452 3462 0
-3453 3462 0
-224 -3453 3463 0
-3454 3463 0
-224 -3454 3464 0
-3455 3464 0
-224 -3455 0
-225 3465 0
-3456 3465 0
-225 -3456 3466 0
-3457 3466 0
-225 -3457 3467 0
-3458 3467 0
-225 -3458 3468 0
-3459 3468 0
-225 -3459 3469 0
-3460 3469 0
-225 -3460 3470 0
-3461 3470 0
-225 -3461 3471 0
-3462 3471 0
-225 -3462 3472 0
-3463 3472 0
-225 -3463 3473 0
-3464 3473 0
-225 -3464 0
-226 3474 0
-3465 3474 0
-226 -3465 3475 0
-3466 3475 0
-226 -3466 3476 0
-3467 3476 0
-226 -3467 3477 0
-3468 3477 0
-226 -3468 3478 0
-3469 3478 0
-226 -3469 3479 0
-3470 3479 0
-226 -3470 3480 0
-3471 3480 0
-226 -3471 3481 0
-3472 3481 0
-226 -3472 3482 0
-3473 3482 0
-226 -3473 0
-227 3483 0
-3474 3483 0
-227 -3474 3484 0
-3475 3484 0
-227 -3475 3485 0
-3476 3485 0
-227 -3476 3486 0
-3477 3486 0
-227 -3477 3487 0
-3478 3487 0
-227 -3478 3488 0
-3479 3488 0
-227 -3479 3489 0
-3480 3489 0
-227 -3480 3490 0
-3481 3490 0
-227 -3481 3491 0
-3482 3491 0
-227 -3482 0
-228 3492 0
-3483 3492 0
-228 -3483 3493 0
-3484 3493 0
-228 -3484 3494 0
-3485 3494 0
-228 -3485 3495 0
-3486 3495 0
-228 -3486 3496 0
-3487 3496 0
-228 -3487 3497 0
-3488 3497 0
-228 -3488 3498 0
-3489 3498 0
-228 -3489 3499 0
-3490 3499 0
-228 -3490 3500 0
-3491 3500 0
-228 -3491 0
-229 3501 0
-3492 3501 0
-229 -3492 3502 0
-3493 3502 0
-229 -3493 3503 0
-3494 3503 0
-229 -3494 3504 0
-3495 3504 0
-229 -3495 3505 0
-3496 3505 0
-229 -3496 3506 0
-3497 3506 0
-229 -3497 3507 0
-3498 3507 0
-229 -3498 3508 0
-3499 3508 0
-229 -3499 3509 0
-3500 3509 0
-229 -3500 0
-230 3510 0
-3501 3510 0
-230 -3501 3511 0
-3502 3511 0
-230 -3502 3512 0
-3503 3512 0
-230 -3503 3513 0
-3504 3513 0
-230 -3504 3514 0
-3505 3514 0
-230 -3505 3515 0
-3506 3515 0
-230 -3506 3516 0
-3507 3516 0
-230 -3507 3517 0
-3508 3517 0
-230 -3508 3518 0
-3509 3518 0
-230 -3509 0
-231 3519 0
-3510 3519 0
-231 -3510 3520 0
-3511 3520 0
-231 -3511 3521 0
-3512 3521 0
-231 -3512 3522 0
-3513 3522 0
-231 -3513 3523 0
-3514 3523 0
-231 -3514 3524 0
-3515 3524 0
-231 -3515 3525 0
-3516 3525 0
-231 -3516 3526 0
-3517 3526 0
-231 -3517 3527 0
-3518 3527 0
-231 -3518 0
-232 3528 0
-3519 3528 0
-232 -3519 3529 0
-3520 3529 0
-232 -3520 3530 0
-3521 3530 0
-232 -3521 3531 0
-3522 3531 0
-232 -3522 3532 0
-3523 3532 0
-232 -3523 3533 0
-3524 3533 0
-232 -3524 3534 0
-3525 3534 0
-232 -3525 3535 0
-3526 3535 0
-232 -3526 3536 0
-3527 3536 0
-232 -3527 0
-233 3537 0
-3528 3537 0
-233 -3528 3538 0
-3529 3538 0
-233 -3529 3539 0
-3530 3539 0
-233 -3530 3540 0
-3531 3540 0
-233 -3531 3541 0
-3532 3541 0
-233 -3532 3542 0
-3533 3542 0
-233 -3533 3543 0
-3534 3543 0
-233 -3534 3544 0
-3535 3544 0
-233 -3535 3545 0
-3536 3545 0
-233 -3536 0
-234 3546 0
-3537 3546 0
-234 -3537 3547 0
-3538 3547 0
-234 -3538 3548 0
-3539 3548 0
-234 -3539 3549 0
-3540 3549 0
-234 -3540 3550 0
-3541 3550 0
-234 -3541 3551 0
-3542 3551 0
-234 -3542 3552 0
-3543 3552 0
-234 -3543 3553 0
-3544 3553 0
-234 -3544 3554 0
-3545 3554 0
-234 -3545 0
-235 3555 0
-3546 3555 0
-235 -3546 3556 0
-3547 3556 0
-235 -3547 3557 0
-3548 3557 0
-235 -3548 3558 0
-3549 3558 0
-235 -3549 3559 0
-3550 3559 0
-235 -3550 3560 0
-3551 3560 0
-235 -3551 3561 0
-3552 3561 0
-235 -3552 3562 0
-3553 3562 0
-235 -3553 3563 0
-3554 3563 0
-235 -3554 0
-236 3564 0
-3555 3564 0
-236 -3555 3565 0
-3556 3565 0
-236 -3556 3566 0
-3557 3566 0
-236 -3557 3567 0
-3558 3567 0
-236 -3558 3568 0
-3559 3568 0
-236 -3559 3569 0
-3560 3569 0
-236 -3560 3570 0
-3561 3570 0
-236 -3561 3571 0
-3562 3571 0
-236 -3562 3572 0
-3563 3572 0
-236 -3563 0
-237 3573 0
-3564 3573 0
-237 -3564 3574 0
-3565 3574 0
-237 -3565 3575 0
-3566 3575 0
-237 -3566 3576 0
-3567 3576 0
-237 -3567 3577 0
-3568 3577 0
-237 -3568 3578 0
-3569 3578 0
-237 -3569 3579 0
-3570 3579 0
-237 -3570 3580 0
-3571 3580 0
-237 -3571 3581 0
-3572 3581 0
-237 -3572 0
-238 3582 0
-3573 3582 0
-238 -3573 3583 0
-3574 3583 0
-238 -3574 3584 0
-3575 3584 0
-238 -3575 3585 0
-3576 3585 0
-238 -3576 3586 0
-3577 3586 0
-238 -3577 3587 0
-3578 3587 0
-238 -3578 3588 0
-3579 3588 0
-238 -3579 3589 0
-3580 3589 0
-238 -3580 3590 0
-3581 3590 0
-238 -3581 0
-239 3591 0
-3582 3591 0
-239 -3582 3592 0
-3583 3592 0
-239 -3583 3593 0
-3584 3593 0
-239 -3584 3594 0
-3585 3594 0
-239 -3585 3595 0
-3586 3595 0
-239 -3586 3596 0
-3587 3596 0
-239 -3587 3597 0
-3588 3597 0
-239 -3588 3598 0
-3589 3598 0
-239 -3589 3599 0
-3590 3599 0
-239 -3590 0
-240 3600 0
-3591 3600 0
-240 -3591 3601 0
-3592 3601 0
-240 -3592 3602 0
-3593 3602 0
-240 -3593 3603 0
-3594 3603 0
-240 -3594 3604 0
-3595 3604 0
-240 -3595 3605 0
-3596 3605 0
-240 -3596 3606 0
-3597 3606 0
-240 -3597 3607 0
-3598 3607 0
-240 -3598 3608 0
-3599 3608 0
-240 -3599 0
-241 3609 0
-3600 3609 0
-241 -3600 3610 0
-3601 3610 0
-241 -3601 3611 0
-3602 3611 0
-241 -3602 3612 0
-3603 3612 0
-241 -3603 3613 0
-3604 3613 0
-241 -3604 3614 0
-3605 3614 0
-241 -3605 3615 0
-3606 3615 0
-241 -3606 3616 0
-3607 3616 0
-241 -3607 3617 0
-3608 3617 0
-241 -3608 0
-242 3618 0
-3609 3618 0
-242 -3609 3619 0
-3610 3619 0
-242 -3610 3620 0
-3611 3620 0
-242 -3611 3621 0
-3612 3621 0
-242 -3612 3622 0
-3613 3622 0
-242 -3613 3623 0
-3614 3623 0
-242 -3614 3624 0
-3615 3624 0
-242 -3615 3625 0
-3616 3625 0
-242 -3616 3626 0
-3617 3626 0
-242 -3617 0
-243 3627 0
-3618 3627 0
-243 -3618 3628 0
-3619 3628 0
-243 -3619 3629 0
-3620 3629 0
-243 -3620 3630 0
-3621 3630 0
-243 -3621 3631 0
-3622 3631 0
-243 -3622 3632 0
-3623 3632 0
-243 -3623 3633 0
-3624 3633 0
-243 -3624 3634 0
-3625 3634 0
-243 -3625 3635 0
-3626 3635 0
-243 -3626 0
-244 3636 0
-3627 3636 0
-244 -3627 3637 0
-3628 3637 0
-244 -3628 3638 0
-3629 3638 0
-244 -3629 3639 0
-3630 3639 0
-244 -3630 3640 0
-3631 3640 0
-244 -3631 3641 0
-3632 3641 0
-244 -3632 3642 0
-3633 3642 0
-244 -3633 3643 0
-3634 3643 0
-244 -3634 3644 0
-3635 3644 0
-244 -3635 0
-245 3645 0
-3636 3645 0
-245 -3636 3646 0
-3637 3646 0
-245 -3637 3647 0
-3638 3647 0
-245 -3638 3648 0
-3639 3648 0
-245 -3639 3649 0
-3640 3649 0
-245 -3640 3650 0
-3641 3650 0
-245 -3641 3651 0
-3642 3651 0
-245 -3642 3652 0
-3643 3652 0
-245 -3643 3653 0
-3644 3653 0
-245 -3644 0
-246 3654 0
-3645 3654 0
-246 -3645 3655 0
-3646 3655 0
-246 -3646 3656 0
-3647 3656 0
-246 -3647 3657 0
-3648 3657 0
-246 -3648 3658 0
-3649 3658 0
-246 -3649 3659 0
-3650 3659 0
-246 -3650 3660 0
-3651 3660 0
-246 -3651 3661 0
-3652 3661 0
-246 -3652 3662 0
-3653 3662 0
-246 -3653 0
-247 3663 0
-3654 3663 0
-247 -3654 3664 0
-3655 3664 0
-247 -3655 3665 0
-3656 3665 0
-247 -3656 3666 0
-3657 3666 0
-247 -3657 3667 0
-3658 3667 0
-247 -3658 3668 0
-3659 3668 0
-247 -3659 3669 0
-3660 3669 0
-247 -3660 3670 0
-3661 3670 0
-247 -3661 3671 0
-3662 3671 0
-247 -3662 0
-248 3672 0
-3663 3672 0
-248 -3663 3673 0
-3664 3673 0
-248 -3664 3674 0
-3665 3674 0
-248 -3665 3675 0
-3666 3675 0
-248 -3666 3676 0
-3667 3676 0
-248 -3667 3677 0
-3668 3677 0
-248 -3668 3678 0
-3669 3678 0
-248 -3669 3679 0
-3670 3679 0
-248 -3670 3680 0
-3671 3680 0
-248 -3671 0
-249 3681 0
-3672 3681 0
-249 -3672 3682 0
-3673 3682 0
-249 -3673 3683 0
-3674 3683 0
-249 -3674 3684 0
-3675 3684 0
-249 -3675 3685 0
-3676 3685 0
-249 -3676 3686 0
-3677 3686 0
-249 -3677 3687 0
-3678 3687 0
-249 -3678 3688 0
-3679 3688 0
-249 -3679 3689 0
-3680 3689 0
-249 -3680 0
-250 3690 0
-3681 3690 0
-250 -3681 3691 0
-3682 3691 0
-250 -3682 3692 0
-3683 3692 0
-250 -3683 3693 0
-3684 3693 0
-250 -3684 3694 0
-3685 3694 0
-250 -3685 3695 0
-3686 3695 0
-250 -3686 3696 0
-3687 3696 0
-250 -3687 3697 0
-3688 3697 0
-250 -3688 3698 0
-3689 3698 0
-250 -3689 0
-251 3699 0
-3690 3699 0
-251 -3690 3700 0
-3691 3700 0
-251 -3691 3701 0
-3692 3701 0
-251 -3692 3702 0
-3693 3702 0
-251 -3693 3703 0
-3694 3703 0
-251 -3694 3704 0
-3695 3704 0
-251 -3695 3705 0
-3696 3705 0
-251 -3696 3706 0
-3697 3706 0
-251 -3697 3707 0
-3698 3707 0
-251 -3698 0
-252 3708 0
-3699 3708 0
-252 -3699 3709 0
-3700 3709 0
-252 -3700 3710 0
-3701 3710 0
-252 -3701 3711 0
-3702 3711 0
-252 -3702 3712 0
-3703 3712 0
-252 -3703 3713 0
-3704 3713 0
-252 -3704 3714 0
-3705 3714 0
-252 -3705 3715 0
-3706 3715 0
-252 -3706 3716 0
-3707 3716 0
-252 -3707 0
-253 3717 0
-3708 3717 0
-253 -3708 3718 0
-3709 3718 0
-253 -3709 3719 0
-3710 3719 0
-253 -3710 3720 0
-3711 3720 0
-253 -3711 3721 0
-3712 3721 0
-253 -3712 3722 0
-3713 3722 0
-253 -3713 3723 0
-3714 3723 0
-253 -3714 3724 0
-3715 3724 0
-253 -3715 3725 0
-3716 3725 0
-253 -3716 0
-254 3726 0
-3717 3726 0
-254 -3717 3727 0
-3718 3727 0
-254 -3718 3728 0
-3719 3728 0
-254 -3719 3729 0
-3720 3729 0
-254 -3720 3730 0
-3721 3730 0
-254 -3721 3731 0
-3722 3731 0
-254 -3722 3732 0
-3723 3732 0
-254 -3723 3733 0
-3724 3733 0
-254 -3724 3734 0
-3725 3734 0
-254 -3725 0
-255 3735 0
-3726 3735 0
-255 -3726 3736 0
-3727 3736 0
-255 -3727 3737 0
-3728 3737 0
-255 -3728 3738 0
-3729 3738 0
-255 -3729 3739 0
-3730 3739 0
-255 -3730 3740 0
-3731 3740 0
-255 -3731 3741 0
-3732 3741 0
-255 -3732 3742 0
-3733 3742 0
-255 -3733 3743 0
-3734 3743 0
-255 -3734 0
-256 3744 0
-3735 3744 0
-256 -3735 3745 0
-3736 3745 0
-256 -3736 3746 0
-3737 3746 0
-256 -3737 3747 0
-3738 3747 0
-256 -3738 3748 0
-3739 3748 0
-256 -3739 3749 0
-3740 3749 0
-256 -3740 3750 0
-3741 3750 0
-256 -3741 3751 0
-3742 3751 0
-256 -3742 3752 0
-3743 3752 0
-256 -3743 0
-257 3753 0
-3744 3753 0
-257 -3744 3754 0
-3745 3754 0
-257 -3745 3755 0
-3746 3755 0
-257 -3746 3756 0
-3747 3756 0
-257 -3747 3757 0
-3748 3757 0
-257 -3748 3758 0
-3749 3758 0
-257 -3749 3759 0
-3750 3759 0
-257 -3750 3760 0
-3751 3760 0
-257 -3751 3761 0
-3752 3761 0
-257 -3752 0
-258 3762 0
-3753 3762 0
-258 -3753 3763 0
-3754 3763 0
-258 -3754 3764 0
-3755 3764 0
-258 -3755 3765 0
-3756 3765 0
-258 -3756 3766 0
-3757 3766 0
-258 -3757 3767 0
-3758 3767 0
-258 -3758 3768 0
-3759 3768 0
-258 -3759 3769 0
-3760 3769 0
-258 -3760 3770 0
-3761 3770 0
-258 -3761 0
-259 3771 0
-3762 3771 0
-259 -3762 3772 0
-3763 3772 0
-259 -3763 3773 0
-3764 3773 0
-259 -3764 3774 0
-3765 3774 0
-259 -3765 3775 0
-3766 3775 0
-259 -3766 3776 0
-3767 3776 0
-259 -3767 3777 0
-3768 3777 0
-259 -3768 3778 0
-3769 3778 0
-259 -3769 3779 0
-3770 3779 0
-259 -3770 0
-260 3780 0
-3771 3780 0
-260 -3771 3781 0
-3772 3781 0
-260 -3772 3782 0
-3773 3782 0
-260 -3773 3783 0
-3774 3783 0
-260 -3774 3784 0
-3775 3784 0
-260 -3775 3785 0
-3776 3785 0
-260 -3776 3786 0
-3777 3786 0
-260 -3777 3787 0
-3778 3787 0
-260 -3778 3788 0
-3779 3788 0
-260 -3779 0
-261 3789 0
-3780 3789 0
-261 -3780 3790 0
-3781 3790 0
-261 -3781 3791 0
-3782 3791 0
-261 -3782 3792 0
-3783 3792 0
-261 -3783 3793 0
-3784 3793 0
-261 -3784 3794 0
-3785 3794 0
-261 -3785 3795 0
-3786 3795 0
-261 -3786 3796 0
-3787 3796 0
-261 -3787 3797 0
-3788 3797 0
-261 -3788 0
-262 3798 0
-3789 3798 0
-262 -3789 3799 0
-3790 3799 0
-262 -3790 3800 0
-3791 3800 0
-262 -3791 3801 0
-3792 3801 0
-262 -3792 3802 0
-3793 3802 0
-262 -3793 3803 0
-3794 3803 0
-262 -3794 3804 0
-3795 3804 0
-262 -3795 3805 0
-3796 3805 0
-262 -3796 3806 0
-3797 3806 0
-262 -3797 0
-263 3807 0
-3798 3807 0
-263 -3798 3808 0
-3799 3808 0
-263 -3799 3809 0
-3800 3809 0
-263 -3800 3810 0
-3801 3810 0
-263 -3801 3811 0
-3802 3811 0
-263 -3802 3812 0
-3803 3812 0
-263 -3803 3813 0
-3804 3813 0
-263 -3804 3814 0
-3805 3814 0
-263 -3805 3815 0
-3806 3815 0
-263 -3806 0
-264 3816 0
-3807 3816 0
-264 -3807 3817 0
-3808 3817 0
-264 -3808 3818 0
-3809 3818 0
-264 -3809 3819 0
-3810 3819 0
-264 -3810 3820 0
-3811 3820 0
-264 -3811 3821 0
-3812 3821 0
-264 -3812 3822 0
-3813 3822 0
-264 -3813 3823 0
-3814 3823 0
-264 -3814 3824 0
-3815 3824 0
-264 -3815 0
-265 3825 0
-3816 3825 0
-265 -3816 3826 0
-3817 3826 0
-265 -3817 3827 0
-3818 3827 0
-265 -3818 3828 0
-3819 3828 0
-265 -3819 3829 0
-3820 3829 0
-265 -3820 3830 0
-3821 3830 0
-265 -3821 3831 0
-3822 3831 0
-265 -3822 3832 0
-3823 3832 0
-265 -3823 3833 0
-3824 3833 0
-265 -3824 0
-266 3834 0
-3825 3834 0
-266 -3825 3835 0
-3826 3835 0
-266 -3826 3836 0
-3827 3836 0
-266 -3827 3837 0
-3828 3837 0
-266 -3828 3838 0
-3829 3838 0
-266 -3829 3839 0
-3830 3839 0
-266 -3830 3840 0
-3831 3840 0
-266 -3831 3841 0
-3832 3841 0
-266 -3832 3842 0
-3833 3842 0
-266 -3833 0
-267 3843 0
-3834 3843 0
-267 -3834 3844 0
-3835 3844 0
-267 -3835 3845 0
-3836 3845 0
-267 -3836 3846 0
-3837 3846 0
-267 -3837 3847 0
-3838 3847 0
-267 -3838 3848 0
-3839 3848 0
-267 -3839 3849 0
-3840 3849 0
-267 -3840 3850 0
-3841 3850 0
-267 -3841 3851 0
-3842 3851 0
-267 -3842 0
-268 3852 0
-3843 3852 0
-268 -3843 3853 0
-3844 3853 0
-268 -3844 3854 0
-3845 3854 0
-268 -3845 3855 0
-3846 3855 0
-268 -3846 3856 0
-3847 3856 0
-268 -3847 3857 0
-3848 3857 0
-268 -3848 3858 0
-3849 3858 0
-268 -3849 3859 0
-3850 3859 0
-268 -3850 3860 0
-3851 3860 0
-268 -3851 0
-269 3861 0
-3852 3861 0
-269 -3852 3862 0
-3853 3862 0
-269 -3853 3863 0
-3854 3863 0
-269 -3854 3864 0
-3855 3864 0
-269 -3855 3865 0
-3856 3865 0
-269 -3856 3866 0
-3857 3866 0
-269 -3857 3867 0
-3858 3867 0
-269 -3858 3868 0
-3859 3868 0
-269 -3859 3869 0
-3860 3869 0
-269 -3860 0
-270 3870 0
-3861 3870 0
-270 -3861 3871 0
-3862 3871 0
-270 -3862 3872 0
-3863 3872 0
-270 -3863 3873 0
-3864 3873 0
-270 -3864 3874 0
-3865 3874 0
-270 -3865 3875 0
-3866 3875 0
-270 -3866 3876 0
-3867 3876 0
-270 -3867 3877 0
-3868 3877 0
-270 -3868 3878 0
-3869 3878 0
-270 -3869 0
-271 3879 0
-3870 3879 0
-271 -3870 3880 0
-3871 3880 0
-271 -3871 3881 0
-3872 3881 0
-271 -3872 3882 0
-3873 3882 0
-271 -3873 3883 0
-3874 3883 0
-271 -3874 3884 0
-3875 3884 0
-271 -3875 3885 0
-3876 3885 0
-271 -3876 3886 0
-3877 3886 0
-271 -3877 3887 0
-3878 3887 0
-271 -3878 0
-272 3888 0
-3879 3888 0
-272 -3879 3889 0
-3880 3889 0
-272 -3880 3890 0
-3881 3890 0
-272 -3881 3891 0
-3882 3891 0
-272 -3882 3892 0
-3883 3892 0
-272 -3883 3893 0
-3884 3893 0
-272 -3884 3894 0
-3885 3894 0
-272 -3885 3895 0
-3886 3895 0
-272 -3886 3896 0
-3887 3896 0
-272 -3887 0
-273 3897 0
-3888 3897 0
-273 -3888 3898 0
-3889 3898 0
-273 -3889 3899 0
-3890 3899 0
-273 -3890 3900 0
-3891 3900 0
-273 -3891 3901 0
-3892 3901 0
-273 -3892 3902 0
-3893 3902 0
-273 -3893 3903 0
-3894 3903 0
-273 -3894 3904 0
-3895 3904 0
-273 -3895 3905 0
-3896 3905 0
-273 -3896 0
-274 3906 0
-3897 3906 0
-274 -3897 3907 0
-3898 3907 0
-274 -3898 3908 0
-3899 3908 0
-274 -3899 3909 0
-3900 3909 0
-274 -3900 3910 0
-3901 3910 0
-274 -3901 3911 0
-3902 3911 0
-274 -3902 3912 0
-3903 3912 0
-274 -3903 3913 0
-3904 3913 0
-274 -3904 3914 0
-3905 3914 0
-274 -3905 0
-275 3915 0
-3906 3915 0
-275 -3906 3916 0
-3907 3916 0
-275 -3907 3917 0
-3908 3917 0
-275 -3908 3918 0
-3909 3918 0
-275 -3909 3919 0
-3910 3919 0
-275 -3910 3920 0
-3911 3920 0
-275 -3911 3921 0
-3912 3921 0
-275 -3912 3922 0
-3913 3922 0
-275 -3913 3923 0
-3914 3923 0
-275 -3914 0
-276 3924 0
-3915 3924 0
-276 -3915 3925 0
-3916 3925 0
-276 -3916 3926 0
-3917 3926 0
-276 -3917 3927 0
-3918 3927 0
-276 -3918 3928 0
-3919 3928 0
-276 -3919 3929 0
-3920 3929 0
-276 -3920 3930 0
-3921 3930 0
-276 -3921 3931 0
-3922 3931 0
-276 -3922 3932 0
-3923 3932 0
-276 -3923 0
-277 3933 0
-3924 3933 0
-277 -3924 3934 0
-3925 3934 0
-277 -3925 3935 0
-3926 3935 0
-277 -3926 3936 0
-3927 3936 0
-277 -3927 3937 0
-3928 3937 0
-277 -3928 3938 0
-3929 3938 0
-277 -3929 3939 0
-3930 3939 0
-277 -3930 3940 0
-3931 3940 0
-277 -3931 3941 0
-3932 3941 0
-277 -3932 0
-278 3942 0
-3933 3942 0
-278 -3933 3943 0
-3934 3943 0
-278 -3934 3944 0
-3935 3944 0
-278 -3935 3945 0
-3936 3945 0
-278 -3936 3946 0
-3937 3946 0
-278 -3937 3947 0
-3938 3947 0
-278 -3938 3948 0
-3939 3948 0
-278 -3939 3949 0
-3940 3949 0
-278 -3940 3950 0
-3941 3950 0
-278 -3941 0
-279 3951 0
-3942 3951 0
-279 -3942 3952 0
-3943 3952 0
-279 -3943 3953 0
-3944 3953 0
-279 -3944 3954 0
-3945 3954 0
-279 -3945 3955 0
-3946 3955 0
-279 -3946 3956 0
-3947 3956 0
-279 -3947 3957 0
-3948 3957 0
-279 -3948 3958 0
-3949 3958 0
-279 -3949 3959 0
-3950 3959 0
-279 -3950 0
-280 3960 0
-3951 3960 0
-280 -3951 3961 0
-3952 3961 0
-280 -3952 3962 0
-3953 3962 0
-280 -3953 3963 0
-3954 3963 0
-280 -3954 3964 0
-3955 3964 0
-280 -3955 3965 0
-3956 3965 0
-280 -3956 3966 0
-3957 3966 0
-280 -3957 3967 0
-3958 3967 0
-280 -3958 3968 0
-3959 3968 0
-280 -3959 0
-281 3969 0
-3960 3969 0
-281 -3960 3970 0
-3961 3970 0
-281 -3961 3971 0
-3962 3971 0
-281 -3962 3972 0
-3963 3972 0
-281 -3963 3973 0
-3964 3973 0
-281 -3964 3974 0
-3965 3974 0
-281 -3965 3975 0
-3966 3975 0
-281 -3966 3976 0
-3967 3976 0
-281 -3967 3977 0
-3968 3977 0
-281 -3968 0
-282 3978 0
-3969 3978 0
-282 -3969 3979 0
-3970 3979 0
-282 -3970 3980 0
-3971 3980 0
-282 -3971 3981 0
-3972 3981 0
-282 -3972 3982 0
-3973 3982 0
-282 -3973 3983 0
-3974 3983 0
-282 -3974 3984 0
-3975 3984 0
-282 -3975 3985 0
-3976 3985 0
-282 -3976 3986 0
-3977 3986 0
-282 -3977 0
-283 3987 0
-3978 3987 0
-283 -3978 3988 0
-3979 3988 0
-283 -3979 3989 0
-3980 3989 0
-283 -3980 3990 0
-3981 3990 0
-283 -3981 3991 0
-3982 3991 0
-283 -3982 3992 0
-3983 3992 0
-283 -3983 3993 0
-3984 3993 0
-283 -3984 3994 0
-3985 3994 0
-283 -3985 3995 0
-3986 3995 0
-283 -3986 0
-284 3996 0
-3987 3996 0
-284 -3987 3997 0
-3988 3997 0
-284 -3988 3998 0
-3989 3998 0
-284 -3989 3999 0
-3990 3999 0
-284 -3990 4000 0
-3991 4000 0
-284 -3991 4001 0
-3992 4001 0
-284 -3992 4002 0
-3993 4002 0
-284 -3993 4003 0
-3994 4003 0
-284 -3994 4004 0
-3995 4004 0
-284 -3995 0
-285 4005 0
-3996 4005 0
-285 -3996 4006 0
-3997 4006 0
-285 -3997 4007 0
-3998 4007 0
-285 -3998 4008 0
-3999 4008 0
-285 -3999 4009 0
-4000 4009 0
-285 -4000 4010 0
-4001 4010 0
-285 -4001 4011 0
-4002 4011 0
-285 -4002 4012 0
-4003 4012 0
-285 -4003 4013 0
-4004 4013 0
-285 -4004 0
-286 4014 0
-4005 4014 0
-286 -4005 4015 0
-4006 4015 0
-286 -4006 4016 0
-4007 4016 0
-286 -4007 4017 0
-4008 4017 0
-286 -4008 4018 0
-4009 4018 0
-286 -4009 4019 0
-4010 4019 0
-286 -4010 4020 0
-4011 4020 0
-286 -4011 4021 0
-4012 4021 0
-286 -4012 4022 0
-4013 4022 0
-286 -4013 0
-287 4023 0
-4014 4023 0
-287 -4014 4024 0
-4015 4024 0
-287 -4015 4025 0
-4016 4025 0
-287 -4016 4026 0
-4017 4026 0
-287 -4017 4027 0
-4018 4027 0
-287 -4018 4028 0
-4019 4028 0
-287 -4019 4029 0
-4020 4029 0
-287 -4020 4030 0
-4021 4030 0
-287 -4021 4031 0
-4022 4031 0
-287 -4022 0
-288 -4031 0
-1 0
-2 0
-3 0
-4 0
-5 0
-6 0
-7 0
-8 0
-9 0
-10 0
-11 0
-12 0
-13 0
-14 0
-15 0
-16 0
-17 0
-18 0
-19 0
-20 0
-21 0
-22 0
-23 0
-24 0
-25 0
-26 0
-27 0
-28 0
-29 0
-30 0
-31 0
-32 0
-33 0
-34 0
-35 0
-36 0
-37 0
-38 0
-39 0
-40 0
-41 0
-42 0
-43 0
-44 0
-45 0
-46 0
-47 0
-48 0
-49 0
-50 0
-51 0
-52 0
-53 0
-54 0
-55 0
-56 0
-57 0
-58 0
-59 0
-60 0
-61 0
-62 0
-63 0
-64 0
-65 0
-66 0
-67 0
-68 0
-69 0
-70 0
-71 0
-72 0
-73 0
-74 0
-75 0
-76 0
-77 0
-78 0
-79 0
-80 0
-81 0
-82 0
-83 0
-84 0
-85 0
-86 0
-87 0
-88 0
-89 0
-90 0
-91 0
-92 0
-93 0
-94 0
-95 0
-96 0
-97 0
-98 0
-99 0
-100 0
-101 0
-102 0
-103 0
-104 0
-105 0
-106 0
-107 0
-108 0
-109 0
-110 0
-111 0
-112 0
-113 0
-114 0
-115 0
-116 0
-117 0
-118 0
-119 0
-120 0
-121 0
-122 0
-123 0
-124 0
-125 0
-126 0
-127 0
-128 0
-129 0
-130 0
-131 0
-132 0
-133 0
-134 0
-135 0
-136 0
-137 0
-138 0
-139 0
-140 0
-141 0
-142 0
-143 0
-144 0
145 0
