p cnf 6614 15386
-289 10 121 0
-289 -10 -121 0
289 -10 121 0
289 10 -121 0
-290 289 133 0
-290 -289 -133 0
290 -289 133 0
290 289 -133 0
-291 290 150 0
-291 -290 -150 0
291 -290 150 0
291 290 -150 0
-292 291 155 0
-292 -291 -155 0
292 -291 155 0
292 291 -155 0
-293 292 253 0
-293 -292 -253 0
293 -292 253 0
293 292 -253 0
-293 0
-294 11 122 0
-294 -11 -122 0
294 -11 122 0
294 11 -122 0
-295 294 134 0
-295 -294 -134 0
295 -294 134 0
295 294 -134 0
-296 295 151 0
-296 -295 -151 0
296 -295 151 0
296 295 -151 0
-297 296 156 0
-297 -296 -156 0
297 -296 156 0
297 296 -156 0
-298 297 254 0
-298 -297 -254 0
298 -297 254 0
298 297 -254 0
-298 0
-299 12 123 0
-299 -12 -123 0
299 -12 123 0
299 12 -123 0
-300 299 135 0
-300 -299 -135 0
300 -299 135 0
300 299 -135 0
-301 300 145 0
-301 -300 -145 0
301 -300 145 0
301 300 -145 0
-302 301 152 0
-302 -301 -152 0
302 -301 152 0
302 301 -152 0
-303 302 255 0
-303 -302 -255 0
303 -302 255 0
303 302 -255 0
-303 0
-304 1 124 0
-304 -1 -124 0
304 -1 124 0
304 1 -124 0
-305 304 136 0
-305 -304 -136 0
305 -304 136 0
305 304 -136 0
-306 305 146 0
-306 -305 -146 0
306 -305 146 0
306 305 -146 0
-307 306 153 0
-307 -306 -153 0
307 -306 153 0
307 306 -153 0
-308 307 256 0
-308 -307 -256 0
308 -307 256 0
308 307 -256 0
-308 0
-309 2 125 0
-309 -2 -125 0
309 -2 125 0
309 2 -125 0
-310 309 137 0
-310 -309 -137 0
310 -309 137 0
310 309 -137 0
-311 310 147 0
-311 -310 -147 0
311 -310 147 0
311 310 -147 0
-312 311 154 0
-312 -311 -154 0
312 -311 154 0
312 311 -154 0
-313 312 257 0
-313 -312 -257 0
313 -312 257 0
313 312 -257 0
-313 0
-314 3 126 0
-314 -3 -126 0
314 -3 126 0
314 3 -126 0
-315 314 138 0
-315 -314 -138 0
315 -314 138 0
315 314 -138 0
-316 315 148 0
-316 -315 -148 0
316 -315 148 0
316 315 -148 0
-317 316 155 0
-317 -316 -155 0
317 -316 155 0
317 316 -155 0
-318 317 258 0
-318 -317 -258 0
318 -317 258 0
318 317 -258 0
-318 0
-319 4 127 0
-319 -4 -127 0
319 -4 127 0
319 4 -127 0
-320 319 139 0
-320 -319 -139 0
320 -319 139 0
320 319 -139 0
-321 320 149 0
-321 -320 -149 0
321 -320 149 0
321 320 -149 0
-322 321 156 0
-322 -321 -156 0
322 -321 156 0
322 321 -156 0
-323 322 259 0
-323 -322 -259 0
323 -322 259 0
323 322 -259 0
-323 0
-324 5 128 0
-324 -5 -128 0
324 -5 128 0
324 5 -128 0
-325 324 140 0
-325 -324 -140 0
325 -324 140 0
325 324 -140 0
-326 325 145 0
-326 -325 -145 0
326 -325 145 0
326 325 -145 0
-327 326 150 0
-327 -326 -150 0
327 -326 150 0
327 326 -150 0
-328 327 260 0
-328 -327 -260 0
328 -327 260 0
328 327 -260 0
-328 0
-329 6 129 0
-329 -6 -129 0
329 -6 129 0
329 6 -129 0
-330 329 141 0
-330 -329 -141 0
330 -329 141 0
330 329 -141 0
-331 330 146 0
-331 -330 -146 0
331 -330 146 0
331 330 -146 0
-332 331 151 0
-332 -331 -151 0
332 -331 151 0
332 331 -151 0
-333 332 261 0
-333 -332 -261 0
333 -332 261 0
333 332 -261 0
-333 0
-334 7 130 0
-334 -7 -130 0
334 -7 130 0
334 7 -130 0
-335 334 142 0
-335 -334 -142 0
335 -334 142 0
335 334 -142 0
-336 335 147 0
-336 -335 -147 0
336 -335 147 0
336 335 -147 0
-337 336 152 0
-337 -336 -152 0
337 -336 152 0
337 336 -152 0
-338 337 262 0
-338 -337 -262 0
338 -337 262 0
338 337 -262 0
-338 0
-339 8 131 0
-339 -8 -131 0
339 -8 131 0
339 8 -131 0
-340 339 143 0
-340 -339 -143 0
340 -339 143 0
340 339 -143 0
-341 340 148 0
-341 -340 -148 0
341 -340 148 0
341 340 -148 0
-342 341 153 0
-342 -341 -153 0
342 -341 153 0
342 341 -153 0
-343 342 263 0
-343 -342 -263 0
343 -342 263 0
343 342 -263 0
-343 0
-344 9 132 0
-344 -9 -132 0
344 -9 132 0
344 9 -132 0
-345 344 144 0
-345 -344 -144 0
345 -344 144 0
345 344 -144 0
-346 345 149 0
-346 -345 -149 0
346 -345 149 0
346 345 -149 0
-347 346 154 0
-347 -346 -154 0
347 -346 154 0
347 346 -154 0
-348 347 264 0
-348 -347 -264 0
348 -347 264 0
348 347 -264 0
-348 0
-349 1 22 0
-349 -1 -22 0
349 -1 22 0
349 1 -22 0
-350 349 133 0
-350 -349 -133 0
350 -349 133 0
350 349 -133 0
-351 350 162 0
-351 -350 -162 0
351 -350 162 0
351 350 -162 0
-352 351 167 0
-352 -351 -167 0
352 -351 167 0
352 351 -167 0
-353 352 265 0
-353 -352 -265 0
353 -352 265 0
353 352 -265 0
-353 0
-354 2 23 0
-354 -2 -23 0
354 -2 23 0
354 2 -23 0
-355 354 134 0
-355 -354 -134 0
355 -354 134 0
355 354 -134 0
-356 355 163 0
-356 -355 -163 0
356 -355 163 0
356 355 -163 0
-357 356 168 0
-357 -356 -168 0
357 -356 168 0
357 356 -168 0
-358 357 266 0
-358 -357 -266 0
358 -357 266 0
358 357 -266 0
-358 0
-359 3 24 0
-359 -3 -24 0
359 -3 24 0
359 3 -24 0
-360 359 135 0
-360 -359 -135 0
360 -359 135 0
360 359 -135 0
-361 360 157 0
-361 -360 -157 0
361 -360 157 0
361 360 -157 0
-362 361 164 0
-362 -361 -164 0
362 -361 164 0
362 361 -164 0
-363 362 267 0
-363 -362 -267 0
363 -362 267 0
363 362 -267 0
-363 0
-364 4 13 0
-364 -4 -13 0
364 -4 13 0
364 4 -13 0
-365 364 136 0
-365 -364 -136 0
365 -364 136 0
365 364 -136 0
-366 365 158 0
-366 -365 -158 0
366 -365 158 0
366 365 -158 0
-367 366 165 0
-367 -366 -165 0
367 -366 165 0
367 366 -165 0
-368 367 268 0
-368 -367 -268 0
368 -367 268 0
368 367 -268 0
-368 0
-369 5 14 0
-369 -5 -14 0
369 -5 14 0
369 5 -14 0
-370 369 137 0
-370 -369 -137 0
370 -369 137 0
370 369 -137 0
-371 370 159 0
-371 -370 -159 0
371 -370 159 0
371 370 -159 0
-372 371 166 0
-372 -371 -166 0
372 -371 166 0
372 371 -166 0
-373 372 269 0
-373 -372 -269 0
373 -372 269 0
373 372 -269 0
-373 0
-374 6 15 0
-374 -6 -15 0
374 -6 15 0
374 6 -15 0
-375 374 138 0
-375 -374 -138 0
375 -374 138 0
375 374 -138 0
-376 375 160 0
-376 -375 -160 0
376 -375 160 0
376 375 -160 0
-377 376 167 0
-377 -376 -167 0
377 -376 167 0
377 376 -167 0
-378 377 270 0
-378 -377 -270 0
378 -377 270 0
378 377 -270 0
-378 0
-379 7 16 0
-379 -7 -16 0
379 -7 16 0
379 7 -16 0
-380 379 139 0
-380 -379 -139 0
380 -379 139 0
380 379 -139 0
-381 380 161 0
-381 -380 -161 0
381 -380 161 0
381 380 -161 0
-382 381 168 0
-382 -381 -168 0
382 -381 168 0
382 381 -168 0
-383 382 271 0
-383 -382 -271 0
383 -382 271 0
383 382 -271 0
-383 0
-384 8 17 0
-384 -8 -17 0
384 -8 17 0
384 8 -17 0
-385 384 140 0
-385 -384 -140 0
385 -384 140 0
385 384 -140 0
-386 385 157 0
-386 -385 -157 0
386 -385 157 0
386 385 -157 0
-387 386 162 0
-387 -386 -162 0
387 -386 162 0
387 386 -162 0
-388 387 272 0
-388 -387 -272 0
388 -387 272 0
388 387 -272 0
-388 0
-389 9 18 0
-389 -9 -18 0
389 -9 18 0
389 9 -18 0
-390 389 141 0
-390 -389 -141 0
390 -389 141 0
390 389 -141 0
-391 390 158 0
-391 -390 -158 0
391 -390 158 0
391 390 -158 0
-392 391 163 0
-392 -391 -163 0
392 -391 163 0
392 391 -163 0
-393 392 273 0
-393 -392 -273 0
393 -392 273 0
393 392 -273 0
-393 0
-394 10 19 0
-394 -10 -19 0
394 -10 19 0
394 10 -19 0
-395 394 142 0
-395 -394 -142 0
395 -394 142 0
395 394 -142 0
-396 395 159 0
-396 -395 -159 0
396 -395 159 0
396 395 -159 0
-397 396 164 0
-397 -396 -164 0
397 -396 164 0
397 396 -164 0
-398 397 274 0
-398 -397 -274 0
398 -397 274 0
398 397 -274 0
-398 0
-399 11 20 0
-399 -11 -20 0
399 -11 20 0
399 11 -20 0
-400 399 143 0
-400 -399 -143 0
400 -399 143 0
400 399 -143 0
-401 400 160 0
-401 -400 -160 0
401 -400 160 0
401 400 -160 0
-402 401 165 0
-402 -401 -165 0
402 -401 165 0
402 401 -165 0
-403 402 275 0
-403 -402 -275 0
403 -402 275 0
403 402 -275 0
-403 0
-404 12 21 0
-404 -12 -21 0
404 -12 21 0
404 12 -21 0
-405 404 144 0
-405 -404 -144 0
405 -404 144 0
405 404 -144 0
-406 405 161 0
-406 -405 -161 0
406 -405 161 0
406 405 -161 0
-407 406 166 0
-407 -406 -166 0
407 -406 166 0
407 406 -166 0
-408 407 276 0
-408 -407 -276 0
408 -407 276 0
408 407 -276 0
-408 0
-409 1 13 0
-409 -1 -13 0
409 -1 13 0
409 1 -13 0
-410 409 34 0
-410 -409 -34 0
410 -409 34 0
410 409 -34 0
-411 410 174 0
-411 -410 -174 0
411 -410 174 0
411 410 -174 0
-412 411 179 0
-412 -411 -179 0
412 -411 179 0
412 411 -179 0
-413 412 277 0
-413 -412 -277 0
413 -412 277 0
413 412 -277 0
-413 0
-414 2 14 0
-414 -2 -14 0
414 -2 14 0
414 2 -14 0
-415 414 35 0
-415 -414 -35 0
415 -414 35 0
415 414 -35 0
-416 415 175 0
-416 -415 -175 0
416 -415 175 0
416 415 -175 0
-417 416 180 0
-417 -416 -180 0
417 -416 180 0
417 416 -180 0
-418 417 278 0
-418 -417 -278 0
418 -417 278 0
418 417 -278 0
-418 0
-419 3 15 0
-419 -3 -15 0
419 -3 15 0
419 3 -15 0
-420 419 36 0
-420 -419 -36 0
420 -419 36 0
420 419 -36 0
-421 420 169 0
-421 -420 -169 0
421 -420 169 0
421 420 -169 0
-422 421 176 0
-422 -421 -176 0
422 -421 176 0
422 421 -176 0
-423 422 279 0
-423 -422 -279 0
423 -422 279 0
423 422 -279 0
-423 0
-424 4 16 0
-424 -4 -16 0
424 -4 16 0
424 4 -16 0
-425 424 25 0
-425 -424 -25 0
425 -424 25 0
425 424 -25 0
-426 425 170 0
-426 -425 -170 0
426 -425 170 0
426 425 -170 0
-427 426 177 0
-427 -426 -177 0
427 -426 177 0
427 426 -177 0
-428 427 280 0
-428 -427 -280 0
428 -427 280 0
428 427 -280 0
-428 0
-429 5 17 0
-429 -5 -17 0
429 -5 17 0
429 5 -17 0
-430 429 26 0
-430 -429 -26 0
430 -429 26 0
430 429 -26 0
-431 430 171 0
-431 -430 -171 0
431 -430 171 0
431 430 -171 0
-432 431 178 0
-432 -431 -178 0
432 -431 178 0
432 431 -178 0
-433 432 281 0
-433 -432 -281 0
433 -432 281 0
433 432 -281 0
-433 0
-434 6 18 0
-434 -6 -18 0
434 -6 18 0
434 6 -18 0
-435 434 27 0
-435 -434 -27 0
435 -434 27 0
435 434 -27 0
-436 435 172 0
-436 -435 -172 0
436 -435 172 0
436 435 -172 0
-437 436 179 0
-437 -436 -179 0
437 -436 179 0
437 436 -179 0
-438 437 282 0
-438 -437 -282 0
438 -437 282 0
438 437 -282 0
-438 0
-439 7 19 0
-439 -7 -19 0
439 -7 19 0
439 7 -19 0
-440 439 28 0
-440 -439 -28 0
440 -439 28 0
440 439 -28 0
-441 440 173 0
-441 -440 -173 0
441 -440 173 0
441 440 -173 0
-442 441 180 0
-442 -441 -180 0
442 -441 180 0
442 441 -180 0
-443 442 283 0
-443 -442 -283 0
443 -442 283 0
443 442 -283 0
-443 0
-444 8 20 0
-444 -8 -20 0
444 -8 20 0
444 8 -20 0
-445 444 29 0
-445 -444 -29 0
445 -444 29 0
445 444 -29 0
-446 445 169 0
-446 -445 -169 0
446 -445 169 0
446 445 -169 0
-447 446 174 0
-447 -446 -174 0
447 -446 174 0
447 446 -174 0
-448 447 284 0
-448 -447 -284 0
448 -447 284 0
448 447 -284 0
-448 0
-449 9 21 0
-449 -9 -21 0
449 -9 21 0
449 9 -21 0
-450 449 30 0
-450 -449 -30 0
450 -449 30 0
450 449 -30 0
-451 450 170 0
-451 -450 -170 0
451 -450 170 0
451 450 -170 0
-452 451 175 0
-452 -451 -175 0
452 -451 175 0
452 451 -175 0
-453 452 285 0
-453 -452 -285 0
453 -452 285 0
453 452 -285 0
-453 0
-454 10 22 0
-454 -10 -22 0
454 -10 22 0
454 10 -22 0
-455 454 31 0
-455 -454 -31 0
455 -454 31 0
455 454 -31 0
-456 455 171 0
-456 -455 -171 0
456 -455 171 0
456 455 -171 0
-457 456 176 0
-457 -456 -176 0
457 -456 176 0
457 456 -176 0
-458 457 286 0
-458 -457 -286 0
458 -457 286 0
458 457 -286 0
-458 0
-459 11 23 0
-459 -11 -23 0
459 -11 23 0
459 11 -23 0
-460 459 32 0
-460 -459 -32 0
460 -459 32 0
460 459 -32 0
-461 460 172 0
-461 -460 -172 0
461 -460 172 0
461 460 -172 0
-462 461 177 0
-462 -461 -177 0
462 -461 177 0
462 461 -177 0
-463 462 287 0
-463 -462 -287 0
463 -462 287 0
463 462 -287 0
-463 0
-464 12 24 0
-464 -12 -24 0
464 -12 24 0
464 12 -24 0
-465 464 33 0
-465 -464 -33 0
465 -464 33 0
465 464 -33 0
-466 465 173 0
-466 -465 -173 0
466 -465 173 0
466 465 -173 0
-467 466 178 0
-467 -466 -178 0
467 -466 178 0
467 466 -178 0
-468 467 288 0
-468 -467 -288 0
468 -467 288 0
468 467 -288 0
-468 0
-469 13 25 0
-469 -13 -25 0
469 -13 25 0
469 13 -25 0
-470 469 46 0
-470 -469 -46 0
470 -469 46 0
470 469 -46 0
-471 470 145 0
-471 -470 -145 0
471 -470 145 0
471 470 -145 0
-472 471 186 0
-472 -471 -186 0
472 -471 186 0
472 471 -186 0
-473 472 191 0
-473 -472 -191 0
473 -472 191 0
473 472 -191 0
-473 0
-474 14 26 0
-474 -14 -26 0
474 -14 26 0
474 14 -26 0
-475 474 47 0
-475 -474 -47 0
475 -474 47 0
475 474 -47 0
-476 475 146 0
-476 -475 -146 0
476 -475 146 0
476 475 -146 0
-477 476 187 0
-477 -476 -187 0
477 -476 187 0
477 476 -187 0
-478 477 192 0
-478 -477 -192 0
478 -477 192 0
478 477 -192 0
-478 0
-479 15 27 0
-479 -15 -27 0
479 -15 27 0
479 15 -27 0
-480 479 48 0
-480 -479 -48 0
480 -479 48 0
480 479 -48 0
-481 480 147 0
-481 -480 -147 0
481 -480 147 0
481 480 -147 0
-482 481 181 0
-482 -481 -181 0
482 -481 181 0
482 481 -181 0
-483 482 188 0
-483 -482 -188 0
483 -482 188 0
483 482 -188 0
-483 0
-484 16 28 0
-484 -16 -28 0
484 -16 28 0
484 16 -28 0
-485 484 37 0
-485 -484 -37 0
485 -484 37 0
485 484 -37 0
-486 485 148 0
-486 -485 -148 0
486 -485 148 0
486 485 -148 0
-487 486 182 0
-487 -486 -182 0
487 -486 182 0
487 486 -182 0
-488 487 189 0
-488 -487 -189 0
488 -487 189 0
488 487 -189 0
-488 0
-489 17 29 0
-489 -17 -29 0
489 -17 29 0
489 17 -29 0
-490 489 38 0
-490 -489 -38 0
490 -489 38 0
490 489 -38 0
-491 490 149 0
-491 -490 -149 0
491 -490 149 0
491 490 -149 0
-492 491 183 0
-492 -491 -183 0
492 -491 183 0
492 491 -183 0
-493 492 190 0
-493 -492 -190 0
493 -492 190 0
493 492 -190 0
-493 0
-494 18 30 0
-494 -18 -30 0
494 -18 30 0
494 18 -30 0
-495 494 39 0
-495 -494 -39 0
495 -494 39 0
495 494 -39 0
-496 495 150 0
-496 -495 -150 0
496 -495 150 0
496 495 -150 0
-497 496 184 0
-497 -496 -184 0
497 -496 184 0
497 496 -184 0
-498 497 191 0
-498 -497 -191 0
498 -497 191 0
498 497 -191 0
-498 0
-499 19 31 0
-499 -19 -31 0
499 -19 31 0
499 19 -31 0
-500 499 40 0
-500 -499 -40 0
500 -499 40 0
500 499 -40 0
-501 500 151 0
-501 -500 -151 0
501 -500 151 0
501 500 -151 0
-502 501 185 0
-502 -501 -185 0
502 -501 185 0
502 501 -185 0
-503 502 192 0
-503 -502 -192 0
503 -502 192 0
503 502 -192 0
-503 0
-504 20 32 0
-504 -20 -32 0
504 -20 32 0
504 20 -32 0
-505 504 41 0
-505 -504 -41 0
505 -504 41 0
505 504 -41 0
-506 505 152 0
-506 -505 -152 0
506 -505 152 0
506 505 -152 0
-507 506 181 0
-507 -506 -181 0
507 -506 181 0
507 506 -181 0
-508 507 186 0
-508 -507 -186 0
508 -507 186 0
508 507 -186 0
-508 0
-509 21 33 0
-509 -21 -33 0
509 -21 33 0
509 21 -33 0
-510 509 42 0
-510 -509 -42 0
510 -509 42 0
510 509 -42 0
-511 510 153 0
-511 -510 -153 0
511 -510 153 0
511 510 -153 0
-512 511 182 0
-512 -511 -182 0
512 -511 182 0
512 511 -182 0
-513 512 187 0
-513 -512 -187 0
513 -512 187 0
513 512 -187 0
-513 0
-514 22 34 0
-514 -22 -34 0
514 -22 34 0
514 22 -34 0
-515 514 43 0
-515 -514 -43 0
515 -514 43 0
515 514 -43 0
-516 515 154 0
-516 -515 -154 0
516 -515 154 0
516 515 -154 0
-517 516 183 0
-517 -516 -183 0
517 -516 183 0
517 516 -183 0
-518 517 188 0
-518 -517 -188 0
518 -517 188 0
518 517 -188 0
-518 0
-519 23 35 0
-519 -23 -35 0
519 -23 35 0
519 23 -35 0
-520 519 44 0
-520 -519 -44 0
520 -519 44 0
520 519 -44 0
-521 520 155 0
-521 -520 -155 0
521 -520 155 0
521 520 -155 0
-522 521 184 0
-522 -521 -184 0
522 -521 184 0
522 521 -184 0
-523 522 189 0
-523 -522 -189 0
523 -522 189 0
523 522 -189 0
-523 0
-524 24 36 0
-524 -24 -36 0
524 -24 36 0
524 24 -36 0
-525 524 45 0
-525 -524 -45 0
525 -524 45 0
525 524 -45 0
-526 525 156 0
-526 -525 -156 0
526 -525 156 0
526 525 -156 0
-527 526 185 0
-527 -526 -185 0
527 -526 185 0
527 526 -185 0
-528 527 190 0
-528 -527 -190 0
528 -527 190 0
528 527 -190 0
-528 0
-529 25 37 0
-529 -25 -37 0
529 -25 37 0
529 25 -37 0
-530 529 58 0
-530 -529 -58 0
530 -529 58 0
530 529 -58 0
-531 530 157 0
-531 -530 -157 0
531 -530 157 0
531 530 -157 0
-532 531 198 0
-532 -531 -198 0
532 -531 198 0
532 531 -198 0
-533 532 203 0
-533 -532 -203 0
533 -532 203 0
533 532 -203 0
-533 0
-534 26 38 0
-534 -26 -38 0
534 -26 38 0
534 26 -38 0
-535 534 59 0
-535 -534 -59 0
535 -534 59 0
535 534 -59 0
-536 535 158 0
-536 -535 -158 0
536 -535 158 0
536 535 -158 0
-537 536 199 0
-537 -536 -199 0
537 -536 199 0
537 536 -199 0
-538 537 204 0
-538 -537 -204 0
538 -537 204 0
538 537 -204 0
-538 0
-539 27 39 0
-539 -27 -39 0
539 -27 39 0
539 27 -39 0
-540 539 60 0
-540 -539 -60 0
540 -539 60 0
540 539 -60 0
-541 540 159 0
-541 -540 -159 0
541 -540 159 0
541 540 -159 0
-542 541 193 0
-542 -541 -193 0
542 -541 193 0
542 541 -193 0
-543 542 200 0
-543 -542 -200 0
543 -542 200 0
543 542 -200 0
-543 0
-544 28 40 0
-544 -28 -40 0
544 -28 40 0
544 28 -40 0
-545 544 49 0
-545 -544 -49 0
545 -544 49 0
545 544 -49 0
-546 545 160 0
-546 -545 -160 0
546 -545 160 0
546 545 -160 0
-547 546 194 0
-547 -546 -194 0
547 -546 194 0
547 546 -194 0
-548 547 201 0
-548 -547 -201 0
548 -547 201 0
548 547 -201 0
-548 0
-549 29 41 0
-549 -29 -41 0
549 -29 41 0
549 29 -41 0
-550 549 50 0
-550 -549 -50 0
550 -549 50 0
550 549 -50 0
-551 550 161 0
-551 -550 -161 0
551 -550 161 0
551 550 -161 0
-552 551 195 0
-552 -551 -195 0
552 -551 195 0
552 551 -195 0
-553 552 202 0
-553 -552 -202 0
553 -552 202 0
553 552 -202 0
-553 0
-554 30 42 0
-554 -30 -42 0
554 -30 42 0
554 30 -42 0
-555 554 51 0
-555 -554 -51 0
555 -554 51 0
555 554 -51 0
-556 555 162 0
-556 -555 -162 0
556 -555 162 0
556 555 -162 0
-557 556 196 0
-557 -556 -196 0
557 -556 196 0
557 556 -196 0
-558 557 203 0
-558 -557 -203 0
558 -557 203 0
558 557 -203 0
-558 0
-559 31 43 0
-559 -31 -43 0
559 -31 43 0
559 31 -43 0
-560 559 52 0
-560 -559 -52 0
560 -559 52 0
560 559 -52 0
-561 560 163 0
-561 -560 -163 0
561 -560 163 0
561 560 -163 0
-562 561 197 0
-562 -561 -197 0
562 -561 197 0
562 561 -197 0
-563 562 204 0
-563 -562 -204 0
563 -562 204 0
563 562 -204 0
-563 0
-564 32 44 0
-564 -32 -44 0
564 -32 44 0
564 32 -44 0
-565 564 53 0
-565 -564 -53 0
565 -564 53 0
565 564 -53 0
-566 565 164 0
-566 -565 -164 0
566 -565 164 0
566 565 -164 0
-567 566 193 0
-567 -566 -193 0
567 -566 193 0
567 566 -193 0
-568 567 198 0
-568 -567 -198 0
568 -567 198 0
568 567 -198 0
-568 0
-569 33 45 0
-569 -33 -45 0
569 -33 45 0
569 33 -45 0
-570 569 54 0
-570 -569 -54 0
570 -569 54 0
570 569 -54 0
-571 570 165 0
-571 -570 -165 0
571 -570 165 0
571 570 -165 0
-572 571 194 0
-572 -571 -194 0
572 -571 194 0
572 571 -194 0
-573 572 199 0
-573 -572 -199 0
573 -572 199 0
573 572 -199 0
-573 0
-574 34 46 0
-574 -34 -46 0
574 -34 46 0
574 34 -46 0
-575 574 55 0
-575 -574 -55 0
575 -574 55 0
575 574 -55 0
-576 575 166 0
-576 -575 -166 0
576 -575 166 0
576 575 -166 0
-577 576 195 0
-577 -576 -195 0
577 -576 195 0
577 576 -195 0
-578 577 200 0
-578 -577 -200 0
578 -577 200 0
578 577 -200 0
-578 0
-579 35 47 0
-579 -35 -47 0
579 -35 47 0
579 35 -47 0
-580 579 56 0
-580 -579 -56 0
580 -579 56 0
580 579 -56 0
-581 580 167 0
-581 -580 -167 0
581 -580 167 0
581 580 -167 0
-582 581 196 0
-582 -581 -196 0
582 -581 196 0
582 581 -196 0
-583 582 201 0
-583 -582 -201 0
583 -582 201 0
583 582 -201 0
-583 0
-584 36 48 0
-584 -36 -48 0
584 -36 48 0
584 36 -48 0
-585 584 57 0
-585 -584 -57 0
585 -584 57 0
585 584 -57 0
-586 585 168 0
-586 -585 -168 0
586 -585 168 0
586 585 -168 0
-587 586 197 0
-587 -586 -197 0
587 -586 197 0
587 586 -197 0
-588 587 202 0
-588 -587 -202 0
588 -587 202 0
588 587 -202 0
-588 0
-589 37 49 0
-589 -37 -49 0
589 -37 49 0
589 37 -49 0
-590 589 70 0
-590 -589 -70 0
590 -589 70 0
590 589 -70 0
-591 590 169 0
-591 -590 -169 0
591 -590 169 0
591 590 -169 0
-592 591 210 0
-592 -591 -210 0
592 -591 210 0
592 591 -210 0
-593 592 215 0
-593 -592 -215 0
593 -592 215 0
593 592 -215 0
-593 0
-594 38 50 0
-594 -38 -50 0
594 -38 50 0
594 38 -50 0
-595 594 71 0
-595 -594 -71 0
595 -594 71 0
595 594 -71 0
-596 595 170 0
-596 -595 -170 0
596 -595 170 0
596 595 -170 0
-597 596 211 0
-597 -596 -211 0
597 -596 211 0
597 596 -211 0
-598 597 216 0
-598 -597 -216 0
598 -597 216 0
598 597 -216 0
-598 0
-599 39 51 0
-599 -39 -51 0
599 -39 51 0
599 39 -51 0
-600 599 72 0
-600 -599 -72 0
600 -599 72 0
600 599 -72 0
-601 600 171 0
-601 -600 -171 0
601 -600 171 0
601 600 -171 0
-602 601 205 0
-602 -601 -205 0
602 -601 205 0
602 601 -205 0
-603 602 212 0
-603 -602 -212 0
603 -602 212 0
603 602 -212 0
-603 0
-604 40 52 0
-604 -40 -52 0
604 -40 52 0
604 40 -52 0
-605 604 61 0
-605 -604 -61 0
605 -604 61 0
605 604 -61 0
-606 605 172 0
-606 -605 -172 0
606 -605 172 0
606 605 -172 0
-607 606 206 0
-607 -606 -206 0
607 -606 206 0
607 606 -206 0
-608 607 213 0
-608 -607 -213 0
608 -607 213 0
608 607 -213 0
-608 0
-609 41 53 0
-609 -41 -53 0
609 -41 53 0
609 41 -53 0
-610 609 62 0
-610 -609 -62 0
610 -609 62 0
610 609 -62 0
-611 610 173 0
-611 -610 -173 0
611 -610 173 0
611 610 -173 0
-612 611 207 0
-612 -611 -207 0
612 -611 207 0
612 611 -207 0
-613 612 214 0
-613 -612 -214 0
613 -612 214 0
613 612 -214 0
-613 0
-614 42 54 0
-614 -42 -54 0
614 -42 54 0
614 42 -54 0
-615 614 63 0
-615 -614 -63 0
615 -614 63 0
615 614 -63 0
-616 615 174 0
-616 -615 -174 0
616 -615 174 0
616 615 -174 0
-617 616 208 0
-617 -616 -208 0
617 -616 208 0
617 616 -208 0
-618 617 215 0
-618 -617 -215 0
618 -617 215 0
618 617 -215 0
-618 0
-619 43 55 0
-619 -43 -55 0
619 -43 55 0
619 43 -55 0
-620 619 64 0
-620 -619 -64 0
620 -619 64 0
620 619 -64 0
-621 620 175 0
-621 -620 -175 0
621 -620 175 0
621 620 -175 0
-622 621 209 0
-622 -621 -209 0
622 -621 209 0
622 621 -209 0
-623 622 216 0
-623 -622 -216 0
623 -622 216 0
623 622 -216 0
-623 0
-624 44 56 0
-624 -44 -56 0
624 -44 56 0
624 44 -56 0
-625 624 65 0
-625 -624 -65 0
625 -624 65 0
625 624 -65 0
-626 625 176 0
-626 -625 -176 0
626 -625 176 0
626 625 -176 0
-627 626 205 0
-627 -626 -205 0
627 -626 205 0
627 626 -205 0
-628 627 210 0
-628 -627 -210 0
628 -627 210 0
628 627 -210 0
-628 0
-629 45 57 0
-629 -45 -57 0
629 -45 57 0
629 45 -57 0
-630 629 66 0
-630 -629 -66 0
630 -629 66 0
630 629 -66 0
-631 630 177 0
-631 -630 -177 0
631 -630 177 0
631 630 -177 0
-632 631 206 0
-632 -631 -206 0
632 -631 206 0
632 631 -206 0
-633 632 211 0
-633 -632 -211 0
633 -632 211 0
633 632 -211 0
-633 0
-634 46 58 0
-634 -46 -58 0
634 -46 58 0
634 46 -58 0
-635 634 67 0
-635 -634 -67 0
635 -634 67 0
635 634 -67 0
-636 635 178 0
-636 -635 -178 0
636 -635 178 0
636 635 -178 0
-637 636 207 0
-637 -636 -207 0
637 -636 207 0
637 636 -207 0
-638 637 212 0
-638 -637 -212 0
638 -637 212 0
638 637 -212 0
-638 0
-639 47 59 0
-639 -47 -59 0
639 -47 59 0
639 47 -59 0
-640 639 68 0
-640 -639 -68 0
640 -639 68 0
640 639 -68 0
-641 640 179 0
-641 -640 -179 0
641 -640 179 0
641 640 -179 0
-642 641 208 0
-642 -641 -208 0
642 -641 208 0
642 641 -208 0
-643 642 213 0
-643 -642 -213 0
643 -642 213 0
643 642 -213 0
-643 0
-644 48 60 0
-644 -48 -60 0
644 -48 60 0
644 48 -60 0
-645 644 69 0
-645 -644 -69 0
645 -644 69 0
645 644 -69 0
-646 645 180 0
-646 -645 -180 0
646 -645 180 0
646 645 -180 0
-647 646 209 0
-647 -646 -209 0
647 -646 209 0
647 646 -209 0
-648 647 214 0
-648 -647 -214 0
648 -647 214 0
648 647 -214 0
-648 0
-649 49 61 0
-649 -49 -61 0
649 -49 61 0
649 49 -61 0
-650 649 82 0
-650 -649 -82 0
650 -649 82 0
650 649 -82 0
-651 650 181 0
-651 -650 -181 0
651 -650 181 0
651 650 -181 0
-652 651 222 0
-652 -651 -222 0
652 -651 222 0
652 651 -222 0
-653 652 227 0
-653 -652 -227 0
653 -652 227 0
653 652 -227 0
-653 0
-654 50 62 0
-654 -50 -62 0
654 -50 62 0
654 50 -62 0
-655 654 83 0
-655 -654 -83 0
655 -654 83 0
655 654 -83 0
-656 655 182 0
-656 -655 -182 0
656 -655 182 0
656 655 -182 0
-657 656 223 0
-657 -656 -223 0
657 -656 223 0
657 656 -223 0
-658 657 228 0
-658 -657 -228 0
658 -657 228 0
658 657 -228 0
-658 0
-659 51 63 0
-659 -51 -63 0
659 -51 63 0
659 51 -63 0
-660 659 84 0
-660 -659 -84 0
660 -659 84 0
660 659 -84 0
-661 660 183 0
-661 -660 -183 0
661 -660 183 0
661 660 -183 0
-662 661 217 0
-662 -661 -217 0
662 -661 217 0
662 661 -217 0
-663 662 224 0
-663 -662 -224 0
663 -662 224 0
663 662 -224 0
-663 0
-664 52 64 0
-664 -52 -64 0
664 -52 64 0
664 52 -64 0
-665 664 73 0
-665 -664 -73 0
665 -664 73 0
665 664 -73 0
-666 665 184 0
-666 -665 -184 0
666 -665 184 0
666 665 -184 0
-667 666 218 0
-667 -666 -218 0
667 -666 218 0
667 666 -218 0
-668 667 225 0
-668 -667 -225 0
668 -667 225 0
668 667 -225 0
-668 0
-669 53 65 0
-669 -53 -65 0
669 -53 65 0
669 53 -65 0
-670 669 74 0
-670 -669 -74 0
670 -669 74 0
670 669 -74 0
-671 670 185 0
-671 -670 -185 0
671 -670 185 0
671 670 -185 0
-672 671 219 0
-672 -671 -219 0
672 -671 219 0
672 671 -219 0
-673 672 226 0
-673 -672 -226 0
673 -672 226 0
673 672 -226 0
-673 0
-674 54 66 0
-674 -54 -66 0
674 -54 66 0
674 54 -66 0
-675 674 75 0
-675 -674 -75 0
675 -674 75 0
675 674 -75 0
-676 675 186 0
-676 -675 -186 0
676 -675 186 0
676 675 -186 0
-677 676 220 0
-677 -676 -220 0
677 -676 220 0
677 676 -220 0
-678 677 227 0
-678 -677 -227 0
678 -677 227 0
678 677 -227 0
-678 0
-679 55 67 0
-679 -55 -67 0
679 -55 67 0
679 55 -67 0
-680 679 76 0
-680 -679 -76 0
680 -679 76 0
680 679 -76 0
-681 680 187 0
-681 -680 -187 0
681 -680 187 0
681 680 -187 0
-682 681 221 0
-682 -681 -221 0
682 -681 221 0
682 681 -221 0
-683 682 228 0
-683 -682 -228 0
683 -682 228 0
683 682 -228 0
-683 0
-684 56 68 0
-684 -56 -68 0
684 -56 68 0
684 56 -68 0
-685 684 77 0
-685 -684 -77 0
685 -684 77 0
685 684 -77 0
-686 685 188 0
-686 -685 -188 0
686 -685 188 0
686 685 -188 0
-687 686 217 0
-687 -686 -217 0
687 -686 217 0
687 686 -217 0
-688 687 222 0
-688 -687 -222 0
688 -687 222 0
688 687 -222 0
-688 0
-689 57 69 0
-689 -57 -69 0
689 -57 69 0
689 57 -69 0
-690 689 78 0
-690 -689 -78 0
690 -689 78 0
690 689 -78 0
-691 690 189 0
-691 -690 -189 0
691 -690 189 0
691 690 -189 0
-692 691 218 0
-692 -691 -218 0
692 -691 218 0
692 691 -218 0
-693 692 223 0
-693 -692 -223 0
693 -692 223 0
693 692 -223 0
-693 0
-694 58 70 0
-694 -58 -70 0
694 -58 70 0
694 58 -70 0
-695 694 79 0
-695 -694 -79 0
695 -694 79 0
695 694 -79 0
-696 695 190 0
-696 -695 -190 0
696 -695 190 0
696 695 -190 0
-697 696 219 0
-697 -696 -219 0
697 -696 219 0
697 696 -219 0
-698 697 224 0
-698 -697 -224 0
698 -697 224 0
698 697 -224 0
-698 0
-699 59 71 0
-699 -59 -71 0
699 -59 71 0
699 59 -71 0
-700 699 80 0
-700 -699 -80 0
700 -699 80 0
700 699 -80 0
-701 700 191 0
-701 -700 -191 0
701 -700 191 0
701 700 -191 0
-702 701 220 0
-702 -701 -220 0
702 -701 220 0
702 701 -220 0
-703 702 225 0
-703 -702 -225 0
703 -702 225 0
703 702 -225 0
-703 0
-704 60 72 0
-704 -60 -72 0
704 -60 72 0
704 60 -72 0
-705 704 81 0
-705 -704 -81 0
705 -704 81 0
705 704 -81 0
-706 705 192 0
-706 -705 -192 0
706 -705 192 0
706 705 -192 0
-707 706 221 0
-707 -706 -221 0
707 -706 221 0
707 706 -221 0
-708 707 226 0
-708 -707 -226 0
708 -707 226 0
708 707 -226 0
-708 0
-709 61 73 0
-709 -61 -73 0
709 -61 73 0
709 61 -73 0
-710 709 94 0
-710 -709 -94 0
710 -709 94 0
710 709 -94 0
-711 710 193 0
-711 -710 -193 0
711 -710 193 0
711 710 -193 0
-712 711 234 0
-712 -711 -234 0
712 -711 234 0
712 711 -234 0
-713 712 239 0
-713 -712 -239 0
713 -712 239 0
713 712 -239 0
-713 0
-714 62 74 0
-714 -62 -74 0
714 -62 74 0
714 62 -74 0
-715 714 95 0
-715 -714 -95 0
715 -714 95 0
715 714 -95 0
-716 715 194 0
-716 -715 -194 0
716 -715 194 0
716 715 -194 0
-717 716 235 0
-717 -716 -235 0
717 -716 235 0
717 716 -235 0
-718 717 240 0
-718 -717 -240 0
718 -717 240 0
718 717 -240 0
-718 0
-719 63 75 0
-719 -63 -75 0
719 -63 75 0
719 63 -75 0
-720 719 96 0
-720 -719 -96 0
720 -719 96 0
720 719 -96 0
-721 720 195 0
-721 -720 -195 0
721 -720 195 0
721 720 -195 0
-722 721 229 0
-722 -721 -229 0
722 -721 229 0
722 721 -229 0
-723 722 236 0
-723 -722 -236 0
723 -722 236 0
723 722 -236 0
-723 0
-724 64 76 0
-724 -64 -76 0
724 -64 76 0
724 64 -76 0
-725 724 85 0
-725 -724 -85 0
725 -724 85 0
725 724 -85 0
-726 725 196 0
-726 -725 -196 0
726 -725 196 0
726 725 -196 0
-727 726 230 0
-727 -726 -230 0
727 -726 230 0
727 726 -230 0
-728 727 237 0
-728 -727 -237 0
728 -727 237 0
728 727 -237 0
-728 0
-729 65 77 0
-729 -65 -77 0
729 -65 77 0
729 65 -77 0
-730 729 86 0
-730 -729 -86 0
730 -729 86 0
730 729 -86 0
-731 730 197 0
-731 -730 -197 0
731 -730 197 0
731 730 -197 0
-732 731 231 0
-732 -731 -231 0
732 -731 231 0
732 731 -231 0
-733 732 238 0
-733 -732 -238 0
733 -732 238 0
733 732 -238 0
-733 0
-734 66 78 0
-734 -66 -78 0
734 -66 78 0
734 66 -78 0
-735 734 87 0
-735 -734 -87 0
735 -734 87 0
735 734 -87 0
-736 735 198 0
-736 -735 -198 0
736 -735 198 0
736 735 -198 0
-737 736 232 0
-737 -736 -232 0
737 -736 232 0
737 736 -232 0
-738 737 239 0
-738 -737 -239 0
738 -737 239 0
738 737 -239 0
-738 0
-739 67 79 0
-739 -67 -79 0
739 -67 79 0
739 67 -79 0
-740 739 88 0
-740 -739 -88 0
740 -739 88 0
740 739 -88 0
-741 740 199 0
-741 -740 -199 0
741 -740 199 0
741 740 -199 0
-742 741 233 0
-742 -741 -233 0
742 -741 233 0
742 741 -233 0
-743 742 240 0
-743 -742 -240 0
743 -742 240 0
743 742 -240 0
-743 0
-744 68 80 0
-744 -68 -80 0
744 -68 80 0
744 68 -80 0
-745 744 89 0
-745 -744 -89 0
745 -744 89 0
745 744 -89 0
-746 745 200 0
-746 -745 -200 0
746 -745 200 0
746 745 -200 0
-747 746 229 0
-747 -746 -229 0
747 -746 229 0
747 746 -229 0
-748 747 234 0
-748 -747 -234 0
748 -747 234 0
748 747 -234 0
-748 0
-749 69 81 0
-749 -69 -81 0
749 -69 81 0
749 69 -81 0
-750 749 90 0
-750 -749 -90 0
750 -749 90 0
750 749 -90 0
-751 750 201 0
-751 -750 -201 0
751 -750 201 0
751 750 -201 0
-752 751 230 0
-752 -751 -230 0
752 -751 230 0
752 751 -230 0
-753 752 235 0
-753 -752 -235 0
753 -752 235 0
753 752 -235 0
-753 0
-754 70 82 0
-754 -70 -82 0
754 -70 82 0
754 70 -82 0
-755 754 91 0
-755 -754 -91 0
755 -754 91 0
755 754 -91 0
-756 755 202 0
-756 -755 -202 0
756 -755 202 0
756 755 -202 0
-757 756 231 0
-757 -756 -231 0
757 -756 231 0
757 756 -231 0
-758 757 236 0
-758 -757 -236 0
758 -757 236 0
758 757 -236 0
-758 0
-759 71 83 0
-759 -71 -83 0
759 -71 83 0
759 71 -83 0
-760 759 92 0
-760 -759 -92 0
760 -759 92 0
760 759 -92 0
-761 760 203 0
-761 -760 -203 0
761 -760 203 0
761 760 -203 0
-762 761 232 0
-762 -761 -232 0
762 -761 232 0
762 761 -232 0
-763 762 237 0
-763 -762 -237 0
763 -762 237 0
763 762 -237 0
-763 0
-764 72 84 0
-764 -72 -84 0
764 -72 84 0
764 72 -84 0
-765 764 93 0
-765 -764 -93 0
765 -764 93 0
765 764 -93 0
-766 765 204 0
-766 -765 -204 0
766 -765 204 0
766 765 -204 0
-767 766 233 0
-767 -766 -233 0
767 -766 233 0
767 766 -233 0
-768 767 238 0
-768 -767 -238 0
768 -767 238 0
768 767 -238 0
-768 0
-769 73 85 0
-769 -73 -85 0
769 -73 85 0
769 73 -85 0
-770 769 106 0
-770 -769 -106 0
770 -769 106 0
770 769 -106 0
-771 770 205 0
-771 -770 -205 0
771 -770 205 0
771 770 -205 0
-772 771 246 0
-772 -771 -246 0
772 -771 246 0
772 771 -246 0
-773 772 251 0
-773 -772 -251 0
773 -772 251 0
773 772 -251 0
-773 0
-774 74 86 0
-774 -74 -86 0
774 -74 86 0
774 74 -86 0
-775 774 107 0
-775 -774 -107 0
775 -774 107 0
775 774 -107 0
-776 775 206 0
-776 -775 -206 0
776 -775 206 0
776 775 -206 0
-777 776 247 0
-777 -776 -247 0
777 -776 247 0
777 776 -247 0
-778 777 252 0
-778 -777 -252 0
778 -777 252 0
778 777 -252 0
-778 0
-779 75 87 0
-779 -75 -87 0
779 -75 87 0
779 75 -87 0
-780 779 108 0
-780 -779 -108 0
780 -779 108 0
780 779 -108 0
-781 780 207 0
-781 -780 -207 0
781 -780 207 0
781 780 -207 0
-782 781 241 0
-782 -781 -241 0
782 -781 241 0
782 781 -241 0
-783 782 248 0
-783 -782 -248 0
783 -782 248 0
783 782 -248 0
-783 0
-784 76 88 0
-784 -76 -88 0
784 -76 88 0
784 76 -88 0
-785 784 97 0
-785 -784 -97 0
785 -784 97 0
785 784 -97 0
-786 785 208 0
-786 -785 -208 0
786 -785 208 0
786 785 -208 0
-787 786 242 0
-787 -786 -242 0
787 -786 242 0
787 786 -242 0
-788 787 249 0
-788 -787 -249 0
788 -787 249 0
788 787 -249 0
-788 0
-789 77 89 0
-789 -77 -89 0
789 -77 89 0
789 77 -89 0
-790 789 98 0
-790 -789 -98 0
790 -789 98 0
790 789 -98 0
-791 790 209 0
-791 -790 -209 0
791 -790 209 0
791 790 -209 0
-792 791 243 0
-792 -791 -243 0
792 -791 243 0
792 791 -243 0
-793 792 250 0
-793 -792 -250 0
793 -792 250 0
793 792 -250 0
-793 0
-794 78 90 0
-794 -78 -90 0
794 -78 90 0
794 78 -90 0
-795 794 99 0
-795 -794 -99 0
795 -794 99 0
795 794 -99 0
-796 795 210 0
-796 -795 -210 0
796 -795 210 0
796 795 -210 0
-797 796 244 0
-797 -796 -244 0
797 -796 244 0
797 796 -244 0
-798 797 251 0
-798 -797 -251 0
798 -797 251 0
798 797 -251 0
-798 0
-799 79 91 0
-799 -79 -91 0
799 -79 91 0
799 79 -91 0
-800 799 100 0
-800 -799 -100 0
800 -799 100 0
800 799 -100 0
-801 800 211 0
-801 -800 -211 0
801 -800 211 0
801 800 -211 0
-802 801 245 0
-802 -801 -245 0
802 -801 245 0
802 801 -245 0
-803 802 252 0
-803 -802 -252 0
803 -802 252 0
803 802 -252 0
-803 0
-804 80 92 0
-804 -80 -92 0
804 -80 92 0
804 80 -92 0
-805 804 101 0
-805 -804 -101 0
805 -804 101 0
805 804 -101 0
-806 805 212 0
-806 -805 -212 0
806 -805 212 0
806 805 -212 0
-807 806 241 0
-807 -806 -241 0
807 -806 241 0
807 806 -241 0
-808 807 246 0
-808 -807 -246 0
808 -807 246 0
808 807 -246 0
-808 0
-809 81 93 0
-809 -81 -93 0
809 -81 93 0
809 81 -93 0
-810 809 102 0
-810 -809 -102 0
810 -809 102 0
810 809 -102 0
-811 810 213 0
-811 -810 -213 0
811 -810 213 0
811 810 -213 0
-812 811 242 0
-812 -811 -242 0
812 -811 242 0
812 811 -242 0
-813 812 247 0
-813 -812 -247 0
813 -812 247 0
813 812 -247 0
-813 0
-814 82 94 0
-814 -82 -94 0
814 -82 94 0
814 82 -94 0
-815 814 103 0
-815 -814 -103 0
815 -814 103 0
815 814 -103 0
-816 815 214 0
-816 -815 -214 0
816 -815 214 0
816 815 -214 0
-817 816 243 0
-817 -816 -243 0
817 -816 243 0
817 816 -243 0
-818 817 248 0
-818 -817 -248 0
818 -817 248 0
818 817 -248 0
-818 0
-819 83 95 0
-819 -83 -95 0
819 -83 95 0
819 83 -95 0
-820 819 104 0
-820 -819 -104 0
820 -819 104 0
820 819 -104 0
-821 820 215 0
-821 -820 -215 0
821 -820 215 0
821 820 -215 0
-822 821 244 0
-822 -821 -244 0
822 -821 244 0
822 821 -244 0
-823 822 249 0
-823 -822 -249 0
823 -822 249 0
823 822 -249 0
-823 0
-824 84 96 0
-824 -84 -96 0
824 -84 96 0
824 84 -96 0
-825 824 105 0
-825 -824 -105 0
825 -824 105 0
825 824 -105 0
-826 825 216 0
-826 -825 -216 0
826 -825 216 0
826 825 -216 0
-827 826 245 0
-827 -826 -245 0
827 -826 245 0
827 826 -245 0
-828 827 250 0
-828 -827 -250 0
828 -827 250 0
828 827 -250 0
-828 0
-829 85 97 0
-829 -85 -97 0
829 -85 97 0
829 85 -97 0
-830 829 118 0
-830 -829 -118 0
830 -829 118 0
830 829 -118 0
-831 830 217 0
-831 -830 -217 0
831 -830 217 0
831 830 -217 0
-832 831 258 0
-832 -831 -258 0
832 -831 258 0
832 831 -258 0
-833 832 263 0
-833 -832 -263 0
833 -832 263 0
833 832 -263 0
-833 0
-834 86 98 0
-834 -86 -98 0
834 -86 98 0
834 86 -98 0
-835 834 119 0
-835 -834 -119 0
835 -834 119 0
835 834 -119 0
-836 835 218 0
-836 -835 -218 0
836 -835 218 0
836 835 -218 0
-837 836 259 0
-837 -836 -259 0
837 -836 259 0
837 836 -259 0
-838 837 264 0
-838 -837 -264 0
838 -837 264 0
838 837 -264 0
-838 0
-839 87 99 0
-839 -87 -99 0
839 -87 99 0
839 87 -99 0
-840 839 120 0
-840 -839 -120 0
840 -839 120 0
840 839 -120 0
-841 840 219 0
-841 -840 -219 0
841 -840 219 0
841 840 -219 0
-842 841 253 0
-842 -841 -253 0
842 -841 253 0
842 841 -253 0
-843 842 260 0
-843 -842 -260 0
843 -842 260 0
843 842 -260 0
-843 0
-844 88 100 0
-844 -88 -100 0
844 -88 100 0
844 88 -100 0
-845 844 109 0
-845 -844 -109 0
845 -844 109 0
845 844 -109 0
-846 845 220 0
-846 -845 -220 0
846 -845 220 0
846 845 -220 0
-847 846 254 0
-847 -846 -254 0
847 -846 254 0
847 846 -254 0
-848 847 261 0
-848 -847 -261 0
848 -847 261 0
848 847 -261 0
-848 0
-849 89 101 0
-849 -89 -101 0
849 -89 101 0
849 89 -101 0
-850 849 110 0
-850 -849 -110 0
850 -849 110 0
850 849 -110 0
-851 850 221 0
-851 -850 -221 0
851 -850 221 0
851 850 -221 0
-852 851 255 0
-852 -851 -255 0
852 -851 255 0
852 851 -255 0
-853 852 262 0
-853 -852 -262 0
853 -852 262 0
853 852 -262 0
-853 0
-854 90 102 0
-854 -90 -102 0
854 -90 102 0
854 90 -102 0
-855 854 111 0
-855 -854 -111 0
855 -854 111 0
855 854 -111 0
-856 855 222 0
-856 -855 -222 0
856 -855 222 0
856 855 -222 0
-857 856 256 0
-857 -856 -256 0
857 -856 256 0
857 856 -256 0
-858 857 263 0
-858 -857 -263 0
858 -857 263 0
858 857 -263 0
-858 0
-859 91 103 0
-859 -91 -103 0
859 -91 103 0
859 91 -103 0
-860 859 112 0
-860 -859 -112 0
860 -859 112 0
860 859 -112 0
-861 860 223 0
-861 -860 -223 0
861 -860 223 0
861 860 -223 0
-862 861 257 0
-862 -861 -257 0
862 -861 257 0
862 861 -257 0
-863 862 264 0
-863 -862 -264 0
863 -862 264 0
863 862 -264 0
-863 0
-864 92 104 0
-864 -92 -104 0
864 -92 104 0
864 92 -104 0
-865 864 113 0
-865 -864 -113 0
865 -864 113 0
865 864 -113 0
-866 865 224 0
-866 -865 -224 0
866 -865 224 0
866 865 -224 0
-867 866 253 0
-867 -866 -253 0
867 -866 253 0
867 866 -253 0
-868 867 258 0
-868 -867 -258 0
868 -867 258 0
868 867 -258 0
-868 0
-869 93 105 0
-869 -93 -105 0
869 -93 105 0
869 93 -105 0
-870 869 114 0
-870 -869 -114 0
870 -869 114 0
870 869 -114 0
-871 870 225 0
-871 -870 -225 0
871 -870 225 0
871 870 -225 0
-872 871 254 0
-872 -871 -254 0
872 -871 254 0
872 871 -254 0
-873 872 259 0
-873 -872 -259 0
873 -872 259 0
873 872 -259 0
-873 0
-874 94 106 0
-874 -94 -106 0
874 -94 106 0
874 94 -106 0
-875 874 115 0
-875 -874 -115 0
875 -874 115 0
875 874 -115 0
-876 875 226 0
-876 -875 -226 0
876 -875 226 0
876 875 -226 0
-877 876 255 0
-877 -876 -255 0
877 -876 255 0
877 876 -255 0
-878 877 260 0
-878 -877 -260 0
878 -877 260 0
878 877 -260 0
-878 0
-879 95 107 0
-879 -95 -107 0
879 -95 107 0
879 95 -107 0
-880 879 116 0
-880 -879 -116 0
880 -879 116 0
880 879 -116 0
-881 880 227 0
-881 -880 -227 0
881 -880 227 0
881 880 -227 0
-882 881 256 0
-882 -881 -256 0
882 -881 256 0
882 881 -256 0
-883 882 261 0
-883 -882 -261 0
883 -882 261 0
883 882 -261 0
-883 0
-884 96 108 0
-884 -96 -108 0
884 -96 108 0
884 96 -108 0
-885 884 117 0
-885 -884 -117 0
885 -884 117 0
885 884 -117 0
-886 885 228 0
-886 -885 -228 0
886 -885 228 0
886 885 -228 0
-887 886 257 0
-887 -886 -257 0
887 -886 257 0
887 886 -257 0
-888 887 262 0
-888 -887 -262 0
888 -887 262 0
888 887 -262 0
-888 0
-889 97 109 0
-889 -97 -109 0
889 -97 109 0
889 97 -109 0
-890 889 130 0
-890 -889 -130 0
890 -889 130 0
890 889 -130 0
-891 890 229 0
-891 -890 -229 0
891 -890 229 0
891 890 -229 0
-892 891 270 0
-892 -891 -270 0
892 -891 270 0
892 891 -270 0
-893 892 275 0
-893 -892 -275 0
893 -892 275 0
893 892 -275 0
-893 0
-894 98 110 0
-894 -98 -110 0
894 -98 110 0
894 98 -110 0
-895 894 131 0
-895 -894 -131 0
895 -894 131 0
895 894 -131 0
-896 895 230 0
-896 -895 -230 0
896 -895 230 0
896 895 -230 0
-897 896 271 0
-897 -896 -271 0
897 -896 271 0
897 896 -271 0
-898 897 276 0
-898 -897 -276 0
898 -897 276 0
898 897 -276 0
-898 0
-899 99 111 0
-899 -99 -111 0
899 -99 111 0
899 99 -111 0
-900 899 132 0
-900 -899 -132 0
900 -899 132 0
900 899 -132 0
-901 900 231 0
-901 -900 -231 0
901 -900 231 0
901 900 -231 0
-902 901 265 0
-902 -901 -265 0
902 -901 265 0
902 901 -265 0
-903 902 272 0
-903 -902 -272 0
903 -902 272 0
903 902 -272 0
-903 0
-904 100 112 0
-904 -100 -112 0
904 -100 112 0
904 100 -112 0
-905 904 121 0
-905 -904 -121 0
905 -904 121 0
905 904 -121 0
-906 905 232 0
-906 -905 -232 0
906 -905 232 0
906 905 -232 0
-907 906 266 0
-907 -906 -266 0
907 -906 266 0
907 906 -266 0
-908 907 273 0
-908 -907 -273 0
908 -907 273 0
908 907 -273 0
-908 0
-909 101 113 0
-909 -101 -113 0
909 -101 113 0
909 101 -113 0
-910 909 122 0
-910 -909 -122 0
910 -909 122 0
910 909 -122 0
-911 910 233 0
-911 -910 -233 0
911 -910 233 0
911 910 -233 0
-912 911 267 0
-912 -911 -267 0
912 -911 267 0
912 911 -267 0
-913 912 274 0
-913 -912 -274 0
913 -912 274 0
913 912 -274 0
-913 0
-914 102 114 0
-914 -102 -114 0
914 -102 114 0
914 102 -114 0
-915 914 123 0
-915 -914 -123 0
915 -914 123 0
915 914 -123 0
-916 915 234 0
-916 -915 -234 0
916 -915 234 0
916 915 -234 0
-917 916 268 0
-917 -916 -268 0
917 -916 268 0
917 916 -268 0
-918 917 275 0
-918 -917 -275 0
918 -917 275 0
918 917 -275 0
-918 0
-919 103 115 0
-919 -103 -115 0
919 -103 115 0
919 103 -115 0
-920 919 124 0
-920 -919 -124 0
920 -919 124 0
920 919 -124 0
-921 920 235 0
-921 -920 -235 0
921 -920 235 0
921 920 -235 0
-922 921 269 0
-922 -921 -269 0
922 -921 269 0
922 921 -269 0
-923 922 276 0
-923 -922 -276 0
923 -922 276 0
923 922 -276 0
-923 0
-924 104 116 0
-924 -104 -116 0
924 -104 116 0
924 104 -116 0
-925 924 125 0
-925 -924 -125 0
925 -924 125 0
925 924 -125 0
-926 925 236 0
-926 -925 -236 0
926 -925 236 0
926 925 -236 0
-927 926 265 0
-927 -926 -265 0
927 -926 265 0
927 926 -265 0
-928 927 270 0
-928 -927 -270 0
928 -927 270 0
928 927 -270 0
-928 0
-929 105 117 0
-929 -105 -117 0
929 -105 117 0
929 105 -117 0
-930 929 126 0
-930 -929 -126 0
930 -929 126 0
930 929 -126 0
-931 930 237 0
-931 -930 -237 0
931 -930 237 0
931 930 -237 0
-932 931 266 0
-932 -931 -266 0
932 -931 266 0
932 931 -266 0
-933 932 271 0
-933 -932 -271 0
933 -932 271 0
933 932 -271 0
-933 0
-934 106 118 0
-934 -106 -118 0
934 -106 118 0
934 106 -118 0
-935 934 127 0
-935 -934 -127 0
935 -934 127 0
935 934 -127 0
-936 935 238 0
-936 -935 -238 0
936 -935 238 0
936 935 -238 0
-937 936 267 0
-937 -936 -267 0
937 -936 267 0
937 936 -267 0
-938 937 272 0
-938 -937 -272 0
938 -937 272 0
938 937 -272 0
-938 0
-939 107 119 0
-939 -107 -119 0
939 -107 119 0
939 107 -119 0
-940 939 128 0
-940 -939 -128 0
940 -939 128 0
940 939 -128 0
-941 940 239 0
-941 -940 -239 0
941 -940 239 0
941 940 -239 0
-942 941 268 0
-942 -941 -268 0
942 -941 268 0
942 941 -268 0
-943 942 273 0
-943 -942 -273 0
943 -942 273 0
943 942 -273 0
-943 0
-944 108 120 0
-944 -108 -120 0
944 -108 120 0
944 108 -120 0
-945 944 129 0
-945 -944 -129 0
945 -944 129 0
945 944 -129 0
-946 945 240 0
-946 -945 -240 0
946 -945 240 0
946 945 -240 0
-947 946 269 0
-947 -946 -269 0
947 -946 269 0
947 946 -269 0
-948 947 274 0
-948 -947 -274 0
948 -947 274 0
948 947 -274 0
-948 0
-949 109 121 0
-949 -109 -121 0
949 -109 121 0
949 109 -121 0
-950 949 142 0
-950 -949 -142 0
950 -949 142 0
950 949 -142 0
-951 950 241 0
-951 -950 -241 0
951 -950 241 0
951 950 -241 0
-952 951 282 0
-952 -951 -282 0
952 -951 282 0
952 951 -282 0
-953 952 287 0
-953 -952 -287 0
953 -952 287 0
953 952 -287 0
-953 0
-954 110 122 0
-954 -110 -122 0
954 -110 122 0
954 110 -122 0
-955 954 143 0
-955 -954 -143 0
955 -954 143 0
955 954 -143 0
-956 955 242 0
-956 -955 -242 0
956 -955 242 0
956 955 -242 0
-957 956 283 0
-957 -956 -283 0
957 -956 283 0
957 956 -283 0
-958 957 288 0
-958 -957 -288 0
958 -957 288 0
958 957 -288 0
-958 0
-959 111 123 0
-959 -111 -123 0
959 -111 123 0
959 111 -123 0
-960 959 144 0
-960 -959 -144 0
960 -959 144 0
960 959 -144 0
-961 960 243 0
-961 -960 -243 0
961 -960 243 0
961 960 -243 0
-962 961 277 0
-962 -961 -277 0
962 -961 277 0
962 961 -277 0
-963 962 284 0
-963 -962 -284 0
963 -962 284 0
963 962 -284 0
-963 0
-964 112 124 0
-964 -112 -124 0
964 -112 124 0
964 112 -124 0
-965 964 133 0
-965 -964 -133 0
965 -964 133 0
965 964 -133 0
-966 965 244 0
-966 -965 -244 0
966 -965 244 0
966 965 -244 0
-967 966 278 0
-967 -966 -278 0
967 -966 278 0
967 966 -278 0
-968 967 285 0
-968 -967 -285 0
968 -967 285 0
968 967 -285 0
-968 0
-969 113 125 0
-969 -113 -125 0
969 -113 125 0
969 113 -125 0
-970 969 134 0
-970 -969 -134 0
970 -969 134 0
970 969 -134 0
-971 970 245 0
-971 -970 -245 0
971 -970 245 0
971 970 -245 0
-972 971 279 0
-972 -971 -279 0
972 -971 279 0
972 971 -279 0
-973 972 286 0
-973 -972 -286 0
973 -972 286 0
973 972 -286 0
-973 0
-974 114 126 0
-974 -114 -126 0
974 -114 126 0
974 114 -126 0
-975 974 135 0
-975 -974 -135 0
975 -974 135 0
975 974 -135 0
-976 975 246 0
-976 -975 -246 0
976 -975 246 0
976 975 -246 0
-977 976 280 0
-977 -976 -280 0
977 -976 280 0
977 976 -280 0
-978 977 287 0
-978 -977 -287 0
978 -977 287 0
978 977 -287 0
-978 0
-979 115 127 0
-979 -115 -127 0
979 -115 127 0
979 115 -127 0
-980 979 136 0
-980 -979 -136 0
980 -979 136 0
980 979 -136 0
-981 980 247 0
-981 -980 -247 0
981 -980 247 0
981 980 -247 0
-982 981 281 0
-982 -981 -281 0
982 -981 281 0
982 981 -281 0
-983 982 288 0
-983 -982 -288 0
983 -982 288 0
983 982 -288 0
-983 0
-984 116 128 0
-984 -116 -128 0
984 -116 128 0
984 116 -128 0
-985 984 137 0
-985 -984 -137 0
985 -984 137 0
985 984 -137 0
-986 985 248 0
-986 -985 -248 0
986 -985 248 0
986 985 -248 0
-987 986 277 0
-987 -986 -277 0
987 -986 277 0
987 986 -277 0
-988 987 282 0
-988 -987 -282 0
988 -987 282 0
988 987 -282 0
-988 0
-989 117 129 0
-989 -117 -129 0
989 -117 129 0
989 117 -129 0
-990 989 138 0
-990 -989 -138 0
990 -989 138 0
990 989 -138 0
-991 990 249 0
-991 -990 -249 0
991 -990 249 0
991 990 -249 0
-992 991 278 0
-992 -991 -278 0
992 -991 278 0
992 991 -278 0
-993 992 283 0
-993 -992 -283 0
993 -992 283 0
993 992 -283 0
-993 0
-994 118 130 0
-994 -118 -130 0
994 -118 130 0
994 118 -130 0
-995 994 139 0
-995 -994 -139 0
995 -994 139 0
995 994 -139 0
-996 995 250 0
-996 -995 -250 0
996 -995 250 0
996 995 -250 0
-997 996 279 0
-997 -996 -279 0
997 -996 279 0
997 996 -279 0
-998 997 284 0
-998 -997 -284 0
998 -997 284 0
998 997 -284 0
-998 0
-999 119 131 0
-999 -119 -131 0
999 -119 131 0
999 119 -131 0
-1000 999 140 0
-1000 -999 -140 0
1000 -999 140 0
1000 999 -140 0
-1001 1000 251 0
-1001 -1000 -251 0
1001 -1000 251 0
1001 1000 -251 0
-1002 1001 280 0
-1002 -1001 -280 0
1002 -1001 280 0
1002 1001 -280 0
-1003 1002 285 0
-1003 -1002 -285 0
1003 -1002 285 0
1003 1002 -285 0
-1003 0
-1004 120 132 0
-1004 -120 -132 0
1004 -120 132 0
1004 120 -132 0
-1005 1004 141 0
-1005 -1004 -141 0
1005 -1004 141 0
1005 1004 -141 0
-1006 1005 252 0
-1006 -1005 -252 0
1006 -1005 252 0
1006 1005 -252 0
-1007 1006 281 0
-1007 -1006 -281 0
1007 -1006 281 0
1007 1006 -281 0
-1008 1007 286 0
-1008 -1007 -286 0
1008 -1007 286 0
1008 1007 -286 0
-1008 0
-1009 3 6 0
-1009 -3 -6 0
1009 -3 6 0
1009 3 -6 0
-1010 1009 10 0
-1010 -1009 -10 0
1010 -1009 10 0
1010 1009 -10 0
-1011 1010 11 0
-1011 -1010 -11 0
1011 -1010 11 0
1011 1010 -11 0
-1012 1011 37 0
-1012 -1011 -37 0
1012 -1011 37 0
1012 1011 -37 0
-1013 1012 39 0
-1013 -1012 -39 0
1013 -1012 39 0
1013 1012 -39 0
-1014 1013 45 0
-1014 -1013 -45 0
1014 -1013 45 0
1014 1013 -45 0
-1015 1014 47 0
-1015 -1014 -47 0
1015 -1014 47 0
1015 1014 -47 0
-1016 1015 73 0
-1016 -1015 -73 0
1016 -1015 73 0
1016 1015 -73 0
-1017 1016 74 0
-1017 -1016 -74 0
1017 -1016 74 0
1017 1016 -74 0
-1018 1017 76 0
-1018 -1017 -76 0
1018 -1017 76 0
1018 1017 -76 0
-1019 1018 78 0
-1019 -1018 -78 0
1019 -1018 78 0
1019 1018 -78 0
-1020 1019 79 0
-1020 -1019 -79 0
1020 -1019 79 0
1020 1019 -79 0
-1021 1020 80 0
-1021 -1020 -80 0
1021 -1020 80 0
1021 1020 -80 0
-1022 1021 81 0
-1022 -1021 -81 0
1022 -1021 81 0
1022 1021 -81 0
-1023 1022 83 0
-1023 -1022 -83 0
1023 -1022 83 0
1023 1022 -83 0
-1024 1023 109 0
-1024 -1023 -109 0
1024 -1023 109 0
1024 1023 -109 0
-1025 1024 113 0
-1025 -1024 -113 0
1025 -1024 113 0
1025 1024 -113 0
-1026 4 7 0
-1026 -4 -7 0
1026 -4 7 0
1026 4 -7 0
-1027 1026 11 0
-1027 -1026 -11 0
1027 -1026 11 0
1027 1026 -11 0
-1028 1027 12 0
-1028 -1027 -12 0
1028 -1027 12 0
1028 1027 -12 0
-1029 1028 38 0
-1029 -1028 -38 0
1029 -1028 38 0
1029 1028 -38 0
-1030 1029 40 0
-1030 -1029 -40 0
1030 -1029 40 0
1030 1029 -40 0
-1031 1030 46 0
-1031 -1030 -46 0
1031 -1030 46 0
1031 1030 -46 0
-1032 1031 48 0
-1032 -1031 -48 0
1032 -1031 48 0
1032 1031 -48 0
-1033 1032 74 0
-1033 -1032 -74 0
1033 -1032 74 0
1033 1032 -74 0
-1034 1033 75 0
-1034 -1033 -75 0
1034 -1033 75 0
1034 1033 -75 0
-1035 1034 77 0
-1035 -1034 -77 0
1035 -1034 77 0
1035 1034 -77 0
-1036 1035 79 0
-1036 -1035 -79 0
1036 -1035 79 0
1036 1035 -79 0
-1037 1036 80 0
-1037 -1036 -80 0
1037 -1036 80 0
1037 1036 -80 0
-1038 1037 81 0
-1038 -1037 -81 0
1038 -1037 81 0
1038 1037 -81 0
-1039 1038 82 0
-1039 -1038 -82 0
1039 -1038 82 0
1039 1038 -82 0
-1040 1039 84 0
-1040 -1039 -84 0
1040 -1039 84 0
1040 1039 -84 0
-1041 1040 110 0
-1041 -1040 -110 0
1041 -1040 110 0
1041 1040 -110 0
-1042 1041 114 0
-1042 -1041 -114 0
1042 -1041 114 0
1042 1041 -114 0
-1043 1 5 0
-1043 -1 -5 0
1043 -1 5 0
1043 1 -5 0
-1044 1043 8 0
-1044 -1043 -8 0
1044 -1043 8 0
1044 1043 -8 0
-1045 1044 12 0
-1045 -1044 -12 0
1045 -1044 12 0
1045 1044 -12 0
-1046 1045 37 0
-1046 -1045 -37 0
1046 -1045 37 0
1046 1045 -37 0
-1047 1046 39 0
-1047 -1046 -39 0
1047 -1046 39 0
1047 1046 -39 0
-1048 1047 41 0
-1048 -1047 -41 0
1048 -1047 41 0
1048 1047 -41 0
-1049 1048 47 0
-1049 -1048 -47 0
1049 -1048 47 0
1049 1048 -47 0
-1050 1049 73 0
-1050 -1049 -73 0
1050 -1049 73 0
1050 1049 -73 0
-1051 1050 75 0
-1051 -1050 -75 0
1051 -1050 75 0
1051 1050 -75 0
-1052 1051 76 0
-1052 -1051 -76 0
1052 -1051 76 0
1052 1051 -76 0
-1053 1052 78 0
-1053 -1052 -78 0
1053 -1052 78 0
1053 1052 -78 0
-1054 1053 80 0
-1054 -1053 -80 0
1054 -1053 80 0
1054 1053 -80 0
-1055 1054 81 0
-1055 -1054 -81 0
1055 -1054 81 0
1055 1054 -81 0
-1056 1055 82 0
-1056 -1055 -82 0
1056 -1055 82 0
1056 1055 -82 0
-1057 1056 83 0
-1057 -1056 -83 0
1057 -1056 83 0
1057 1056 -83 0
-1058 1057 111 0
-1058 -1057 -111 0
1058 -1057 111 0
1058 1057 -111 0
-1059 1058 115 0
-1059 -1058 -115 0
1059 -1058 115 0
1059 1058 -115 0
-1060 1 2 0
-1060 -1 -2 0
1060 -1 2 0
1060 1 -2 0
-1061 1060 6 0
-1061 -1060 -6 0
1061 -1060 6 0
1061 1060 -6 0
-1062 1061 9 0
-1062 -1061 -9 0
1062 -1061 9 0
1062 1061 -9 0
-1063 1062 38 0
-1063 -1062 -38 0
1063 -1062 38 0
1063 1062 -38 0
-1064 1063 40 0
-1064 -1063 -40 0
1064 -1063 40 0
1064 1063 -40 0
-1065 1064 42 0
-1065 -1064 -42 0
1065 -1064 42 0
1065 1064 -42 0
-1066 1065 48 0
-1066 -1065 -48 0
1066 -1065 48 0
1066 1065 -48 0
-1067 1066 74 0
-1067 -1066 -74 0
1067 -1066 74 0
1067 1066 -74 0
-1068 1067 76 0
-1068 -1067 -76 0
1068 -1067 76 0
1068 1067 -76 0
-1069 1068 77 0
-1069 -1068 -77 0
1069 -1068 77 0
1069 1068 -77 0
-1070 1069 79 0
-1070 -1069 -79 0
1070 -1069 79 0
1070 1069 -79 0
-1071 1070 81 0
-1071 -1070 -81 0
1071 -1070 81 0
1071 1070 -81 0
-1072 1071 82 0
-1072 -1071 -82 0
1072 -1071 82 0
1072 1071 -82 0
-1073 1072 83 0
-1073 -1072 -83 0
1073 -1072 83 0
1073 1072 -83 0
-1074 1073 84 0
-1074 -1073 -84 0
1074 -1073 84 0
1074 1073 -84 0
-1075 1074 112 0
-1075 -1074 -112 0
1075 -1074 112 0
1075 1074 -112 0
-1076 1075 116 0
-1076 -1075 -116 0
1076 -1075 116 0
1076 1075 -116 0
-1077 15 18 0
-1077 -15 -18 0
1077 -15 18 0
1077 15 -18 0
-1078 1077 22 0
-1078 -1077 -22 0
1078 -1077 22 0
1078 1077 -22 0
-1079 1078 23 0
-1079 -1078 -23 0
1079 -1078 23 0
1079 1078 -23 0
-1080 1079 49 0
-1080 -1079 -49 0
1080 -1079 49 0
1080 1079 -49 0
-1081 1080 51 0
-1081 -1080 -51 0
1081 -1080 51 0
1081 1080 -51 0
-1082 1081 57 0
-1082 -1081 -57 0
1082 -1081 57 0
1082 1081 -57 0
-1083 1082 59 0
-1083 -1082 -59 0
1083 -1082 59 0
1083 1082 -59 0
-1084 1083 85 0
-1084 -1083 -85 0
1084 -1083 85 0
1084 1083 -85 0
-1085 1084 86 0
-1085 -1084 -86 0
1085 -1084 86 0
1085 1084 -86 0
-1086 1085 88 0
-1086 -1085 -88 0
1086 -1085 88 0
1086 1085 -88 0
-1087 1086 90 0
-1087 -1086 -90 0
1087 -1086 90 0
1087 1086 -90 0
-1088 1087 91 0
-1088 -1087 -91 0
1088 -1087 91 0
1088 1087 -91 0
-1089 1088 92 0
-1089 -1088 -92 0
1089 -1088 92 0
1089 1088 -92 0
-1090 1089 93 0
-1090 -1089 -93 0
1090 -1089 93 0
1090 1089 -93 0
-1091 1090 95 0
-1091 -1090 -95 0
1091 -1090 95 0
1091 1090 -95 0
-1092 1091 121 0
-1092 -1091 -121 0
1092 -1091 121 0
1092 1091 -121 0
-1093 1092 125 0
-1093 -1092 -125 0
1093 -1092 125 0
1093 1092 -125 0
-1094 16 19 0
-1094 -16 -19 0
1094 -16 19 0
1094 16 -19 0
-1095 1094 23 0
-1095 -1094 -23 0
1095 -1094 23 0
1095 1094 -23 0
-1096 1095 24 0
-1096 -1095 -24 0
1096 -1095 24 0
1096 1095 -24 0
-1097 1096 50 0
-1097 -1096 -50 0
1097 -1096 50 0
1097 1096 -50 0
-1098 1097 52 0
-1098 -1097 -52 0
1098 -1097 52 0
1098 1097 -52 0
-1099 1098 58 0
-1099 -1098 -58 0
1099 -1098 58 0
1099 1098 -58 0
-1100 1099 60 0
-1100 -1099 -60 0
1100 -1099 60 0
1100 1099 -60 0
-1101 1100 86 0
-1101 -1100 -86 0
1101 -1100 86 0
1101 1100 -86 0
-1102 1101 87 0
-1102 -1101 -87 0
1102 -1101 87 0
1102 1101 -87 0
-1103 1102 89 0
-1103 -1102 -89 0
1103 -1102 89 0
1103 1102 -89 0
-1104 1103 91 0
-1104 -1103 -91 0
1104 -1103 91 0
1104 1103 -91 0
-1105 1104 92 0
-1105 -1104 -92 0
1105 -1104 92 0
1105 1104 -92 0
-1106 1105 93 0
-1106 -1105 -93 0
1106 -1105 93 0
1106 1105 -93 0
-1107 1106 94 0
-1107 -1106 -94 0
1107 -1106 94 0
1107 1106 -94 0
-1108 1107 96 0
-1108 -1107 -96 0
1108 -1107 96 0
1108 1107 -96 0
-1109 1108 122 0
-1109 -1108 -122 0
1109 -1108 122 0
1109 1108 -122 0
-1110 1109 126 0
-1110 -1109 -126 0
1110 -1109 126 0
1110 1109 -126 0
-1111 1 2 0
-1111 -1 -2 0
1111 -1 2 0
1111 1 -2 0
-1112 1111 6 0
-1112 -1111 -6 0
1112 -1111 6 0
1112 1111 -6 0
-1113 1112 7 0
-1113 -1112 -7 0
1113 -1112 7 0
1113 1112 -7 0
-1114 1113 8 0
-1114 -1113 -8 0
1114 -1113 8 0
1114 1113 -8 0
-1115 1114 9 0
-1115 -1114 -9 0
1115 -1114 9 0
1115 1114 -9 0
-1116 1115 11 0
-1116 -1115 -11 0
1116 -1115 11 0
1116 1115 -11 0
-1117 1116 12 0
-1117 -1116 -12 0
1117 -1116 12 0
1117 1116 -12 0
-1118 1117 13 0
-1118 -1117 -13 0
1118 -1117 13 0
1118 1117 -13 0
-1119 1118 16 0
-1119 -1118 -16 0
1119 -1118 16 0
1119 1118 -16 0
-1120 1119 18 0
-1120 -1119 -18 0
1120 -1119 18 0
1120 1119 -18 0
-1121 1120 21 0
-1121 -1120 -21 0
1121 -1120 21 0
1121 1120 -21 0
-1122 1121 24 0
-1122 -1121 -24 0
1122 -1121 24 0
1122 1121 -24 0
-1123 1122 37 0
-1123 -1122 -37 0
1123 -1122 37 0
1123 1122 -37 0
-1124 1123 39 0
-1124 -1123 -39 0
1124 -1123 39 0
1124 1123 -39 0
-1125 1124 42 0
-1125 -1124 -42 0
1125 -1124 42 0
1125 1124 -42 0
-1126 1125 43 0
-1126 -1125 -43 0
1126 -1125 43 0
1126 1125 -43 0
-1127 1126 45 0
-1127 -1126 -45 0
1127 -1126 45 0
1127 1126 -45 0
-1128 1127 47 0
-1128 -1127 -47 0
1128 -1127 47 0
1128 1127 -47 0
-1129 1128 49 0
-1129 -1128 -49 0
1129 -1128 49 0
1129 1128 -49 0
-1130 1129 51 0
-1130 -1129 -51 0
1130 -1129 51 0
1130 1129 -51 0
-1131 1130 53 0
-1131 -1130 -53 0
1131 -1130 53 0
1131 1130 -53 0
-1132 1131 54 0
-1132 -1131 -54 0
1132 -1131 54 0
1132 1131 -54 0
-1133 1132 55 0
-1133 -1132 -55 0
1133 -1132 55 0
1133 1132 -55 0
-1134 1133 57 0
-1134 -1133 -57 0
1134 -1133 57 0
1134 1133 -57 0
-1135 1134 59 0
-1135 -1134 -59 0
1135 -1134 59 0
1135 1134 -59 0
-1136 1135 73 0
-1136 -1135 -73 0
1136 -1135 73 0
1136 1135 -73 0
-1137 1136 74 0
-1137 -1136 -74 0
1137 -1136 74 0
1137 1136 -74 0
-1138 1137 77 0
-1138 -1137 -77 0
1138 -1137 77 0
1138 1137 -77 0
-1139 1138 78 0
-1139 -1138 -78 0
1139 -1138 78 0
1139 1138 -78 0
-1140 1139 79 0
-1140 -1139 -79 0
1140 -1139 79 0
1140 1139 -79 0
-1141 1140 80 0
-1141 -1140 -80 0
1141 -1140 80 0
1141 1140 -80 0
-1142 1141 81 0
-1142 -1141 -81 0
1142 -1141 81 0
1142 1141 -81 0
-1143 1142 84 0
-1143 -1142 -84 0
1143 -1142 84 0
1143 1142 -84 0
-1144 1143 85 0
-1144 -1143 -85 0
1144 -1143 85 0
1144 1143 -85 0
-1145 1144 86 0
-1145 -1144 -86 0
1145 -1144 86 0
1145 1144 -86 0
-1146 1145 87 0
-1146 -1145 -87 0
1146 -1145 87 0
1146 1145 -87 0
-1147 1146 89 0
-1147 -1146 -89 0
1147 -1146 89 0
1147 1146 -89 0
-1148 1147 90 0
-1148 -1147 -90 0
1148 -1147 90 0
1148 1147 -90 0
-1149 1148 91 0
-1149 -1148 -91 0
1149 -1148 91 0
1149 1148 -91 0
-1150 1149 92 0
-1150 -1149 -92 0
1150 -1149 92 0
1150 1149 -92 0
-1151 1150 93 0
-1151 -1150 -93 0
1151 -1150 93 0
1151 1150 -93 0
-1152 1151 94 0
-1152 -1151 -94 0
1152 -1151 94 0
1152 1151 -94 0
-1153 1152 96 0
-1153 -1152 -96 0
1153 -1152 96 0
1153 1152 -96 0
-1154 1153 109 0
-1154 -1153 -109 0
1154 -1153 109 0
1154 1153 -109 0
-1155 1154 110 0
-1155 -1154 -110 0
1155 -1154 110 0
1155 1154 -110 0
-1156 1155 111 0
-1156 -1155 -111 0
1156 -1155 111 0
1156 1155 -111 0
-1157 1156 112 0
-1157 -1156 -112 0
1157 -1156 112 0
1157 1156 -112 0
-1158 1157 122 0
-1158 -1157 -122 0
1158 -1157 122 0
1158 1157 -122 0
-1159 1158 124 0
-1159 -1158 -124 0
1159 -1158 124 0
1159 1158 -124 0
-1160 1159 145 0
-1160 -1159 -145 0
1160 -1159 145 0
1160 1159 -145 0
-1161 1160 146 0
-1161 -1160 -146 0
1161 -1160 146 0
1161 1160 -146 0
-1162 1161 148 0
-1162 -1161 -148 0
1162 -1161 148 0
1162 1161 -148 0
-1163 1162 150 0
-1163 -1162 -150 0
1163 -1162 150 0
1163 1162 -150 0
-1164 1163 151 0
-1164 -1163 -151 0
1164 -1163 151 0
1164 1163 -151 0
-1165 1164 157 0
-1165 -1164 -157 0
1165 -1164 157 0
1165 1164 -157 0
-1166 1165 158 0
-1166 -1165 -158 0
1166 -1165 158 0
1166 1165 -158 0
-1167 1166 160 0
-1167 -1166 -160 0
1167 -1166 160 0
1167 1166 -160 0
-1168 1167 162 0
-1168 -1167 -162 0
1168 -1167 162 0
1168 1167 -162 0
-1169 1168 163 0
-1169 -1168 -163 0
1169 -1168 163 0
1169 1168 -163 0
-1170 14 15 0
-1170 -14 -15 0
1170 -14 15 0
1170 14 -15 0
-1171 1170 16 0
-1171 -1170 -16 0
1171 -1170 16 0
1171 1170 -16 0
-1172 1171 17 0
-1172 -1171 -17 0
1172 -1171 17 0
1172 1171 -17 0
-1173 1172 19 0
-1173 -1172 -19 0
1173 -1172 19 0
1173 1172 -19 0
-1174 1173 21 0
-1174 -1173 -21 0
1174 -1173 21 0
1174 1173 -21 0
-1175 1174 23 0
-1175 -1174 -23 0
1175 -1174 23 0
1175 1174 -23 0
-1176 1175 24 0
-1176 -1175 -24 0
1176 -1175 24 0
1176 1175 -24 0
-1177 1176 38 0
-1177 -1176 -38 0
1177 -1176 38 0
1177 1176 -38 0
-1178 1177 40 0
-1178 -1177 -40 0
1178 -1177 40 0
1178 1177 -40 0
-1179 1178 42 0
-1179 -1178 -42 0
1179 -1178 42 0
1179 1178 -42 0
-1180 1179 44 0
-1180 -1179 -44 0
1180 -1179 44 0
1180 1179 -44 0
-1181 1180 46 0
-1181 -1180 -46 0
1181 -1180 46 0
1181 1180 -46 0
-1182 1181 48 0
-1182 -1181 -48 0
1182 -1181 48 0
1182 1181 -48 0
-1183 1182 50 0
-1183 -1182 -50 0
1183 -1182 50 0
1183 1182 -50 0
-1184 1183 52 0
-1184 -1183 -52 0
1184 -1183 52 0
1184 1183 -52 0
-1185 1184 53 0
-1185 -1184 -53 0
1185 -1184 53 0
1185 1184 -53 0
-1186 1185 56 0
-1186 -1185 -56 0
1186 -1185 56 0
1186 1185 -56 0
-1187 1186 58 0
-1187 -1186 -58 0
1187 -1186 58 0
1187 1186 -58 0
-1188 1187 60 0
-1188 -1187 -60 0
1188 -1187 60 0
1188 1187 -60 0
-1189 1188 73 0
-1189 -1188 -73 0
1189 -1188 73 0
1189 1188 -73 0
-1190 1189 74 0
-1190 -1189 -74 0
1190 -1189 74 0
1190 1189 -74 0
-1191 1190 75 0
-1191 -1190 -75 0
1191 -1190 75 0
1191 1190 -75 0
-1192 1191 76 0
-1192 -1191 -76 0
1192 -1191 76 0
1192 1191 -76 0
-1193 1192 77 0
-1193 -1192 -77 0
1193 -1192 77 0
1193 1192 -77 0
-1194 1193 78 0
-1194 -1193 -78 0
1194 -1193 78 0
1194 1193 -78 0
-1195 1194 79 0
-1195 -1194 -79 0
1195 -1194 79 0
1195 1194 -79 0
-1196 1195 80 0
-1196 -1195 -80 0
1196 -1195 80 0
1196 1195 -80 0
-1197 1196 81 0
-1197 -1196 -81 0
1197 -1196 81 0
1197 1196 -81 0
-1198 1197 82 0
-1198 -1197 -82 0
1198 -1197 82 0
1198 1197 -82 0
-1199 1198 83 0
-1199 -1198 -83 0
1199 -1198 83 0
1199 1198 -83 0
-1200 1199 84 0
-1200 -1199 -84 0
1200 -1199 84 0
1200 1199 -84 0
-1201 1200 85 0
-1201 -1200 -85 0
1201 -1200 85 0
1201 1200 -85 0
-1202 1201 86 0
-1202 -1201 -86 0
1202 -1201 86 0
1202 1201 -86 0
-1203 1202 89 0
-1203 -1202 -89 0
1203 -1202 89 0
1203 1202 -89 0
-1204 1203 90 0
-1204 -1203 -90 0
1204 -1203 90 0
1204 1203 -90 0
-1205 1204 91 0
-1205 -1204 -91 0
1205 -1204 91 0
1205 1204 -91 0
-1206 1205 92 0
-1206 -1205 -92 0
1206 -1205 92 0
1206 1205 -92 0
-1207 1206 93 0
-1207 -1206 -93 0
1207 -1206 93 0
1207 1206 -93 0
-1208 1207 96 0
-1208 -1207 -96 0
1208 -1207 96 0
1208 1207 -96 0
-1209 1208 121 0
-1209 -1208 -121 0
1209 -1208 121 0
1209 1208 -121 0
-1210 1209 122 0
-1210 -1209 -122 0
1210 -1209 122 0
1210 1209 -122 0
-1211 1210 123 0
-1211 -1210 -123 0
1211 -1210 123 0
1211 1210 -123 0
-1212 1211 124 0
-1212 -1211 -124 0
1212 -1211 124 0
1212 1211 -124 0
-1213 1212 145 0
-1213 -1212 -145 0
1213 -1212 145 0
1213 1212 -145 0
-1214 1213 147 0
-1214 -1213 -147 0
1214 -1213 147 0
1214 1213 -147 0
-1215 1214 148 0
-1215 -1214 -148 0
1215 -1214 148 0
1215 1214 -148 0
-1216 1215 149 0
-1216 -1215 -149 0
1216 -1215 149 0
1216 1215 -149 0
-1217 1216 150 0
-1217 -1216 -150 0
1217 -1216 150 0
1217 1216 -150 0
-1218 1217 152 0
-1218 -1217 -152 0
1218 -1217 152 0
1218 1217 -152 0
-1219 1218 157 0
-1219 -1218 -157 0
1219 -1218 157 0
1219 1218 -157 0
-1220 1219 159 0
-1220 -1219 -159 0
1220 -1219 159 0
1220 1219 -159 0
-1221 1220 160 0
-1221 -1220 -160 0
1221 -1220 160 0
1221 1220 -160 0
-1222 1221 161 0
-1222 -1221 -161 0
1222 -1221 161 0
1222 1221 -161 0
-1223 1222 162 0
-1223 -1222 -162 0
1223 -1222 162 0
1223 1222 -162 0
-1224 1223 164 0
-1224 -1223 -164 0
1224 -1223 164 0
1224 1223 -164 0
-1225 2 7 0
-1225 -2 -7 0
1225 -2 7 0
1225 2 -7 0
-1226 1225 9 0
-1226 -1225 -9 0
1226 -1225 9 0
1226 1225 -9 0
-1227 1226 12 0
-1227 -1226 -12 0
1227 -1226 12 0
1227 1226 -12 0
-1228 1227 13 0
-1228 -1227 -13 0
1228 -1227 13 0
1228 1227 -13 0
-1229 1228 14 0
-1229 -1228 -14 0
1229 -1228 14 0
1229 1228 -14 0
-1230 1229 21 0
-1230 -1229 -21 0
1230 -1229 21 0
1230 1229 -21 0
-1231 1230 24 0
-1231 -1230 -24 0
1231 -1230 24 0
1231 1230 -24 0
-1232 1231 27 0
-1232 -1231 -27 0
1232 -1231 27 0
1232 1231 -27 0
-1233 1232 28 0
-1233 -1232 -28 0
1233 -1232 28 0
1233 1232 -28 0
-1234 1233 29 0
-1234 -1233 -29 0
1234 -1233 29 0
1234 1233 -29 0
-1235 1234 30 0
-1235 -1234 -30 0
1235 -1234 30 0
1235 1234 -30 0
-1236 1235 33 0
-1236 -1235 -33 0
1236 -1235 33 0
1236 1235 -33 0
-1237 1236 36 0
-1237 -1236 -36 0
1237 -1236 36 0
1237 1236 -36 0
-1238 1237 42 0
-1238 -1237 -42 0
1238 -1237 42 0
1238 1237 -42 0
-1239 1238 54 0
-1239 -1238 -54 0
1239 -1238 54 0
1239 1238 -54 0
-1240 1239 61 0
-1240 -1239 -61 0
1240 -1239 61 0
1240 1239 -61 0
-1241 1240 62 0
-1241 -1240 -62 0
1241 -1240 62 0
1241 1240 -62 0
-1242 1241 63 0
-1242 -1241 -63 0
1242 -1241 63 0
1242 1241 -63 0
-1243 1242 64 0
-1243 -1242 -64 0
1243 -1242 64 0
1243 1242 -64 0
-1244 1243 65 0
-1244 -1243 -65 0
1244 -1243 65 0
1244 1243 -65 0
-1245 1244 67 0
-1245 -1244 -67 0
1245 -1244 67 0
1245 1244 -67 0
-1246 1245 68 0
-1246 -1245 -68 0
1246 -1245 68 0
1246 1245 -68 0
-1247 1246 69 0
-1247 -1246 -69 0
1247 -1246 69 0
1247 1246 -69 0
-1248 1247 70 0
-1248 -1247 -70 0
1248 -1247 70 0
1248 1247 -70 0
-1249 1248 71 0
-1249 -1248 -71 0
1249 -1248 71 0
1249 1248 -71 0
-1250 1249 72 0
-1250 -1249 -72 0
1250 -1249 72 0
1250 1249 -72 0
-1251 1250 76 0
-1251 -1250 -76 0
1251 -1250 76 0
1251 1250 -76 0
-1252 1251 83 0
-1252 -1251 -83 0
1252 -1251 83 0
1252 1251 -83 0
-1253 1252 88 0
-1253 -1252 -88 0
1253 -1252 88 0
1253 1252 -88 0
-1254 1253 95 0
-1254 -1253 -95 0
1254 -1253 95 0
1254 1253 -95 0
-1255 1254 100 0
-1255 -1254 -100 0
1255 -1254 100 0
1255 1254 -100 0
-1256 1255 107 0
-1256 -1255 -107 0
1256 -1255 107 0
1256 1255 -107 0
-1257 1256 110 0
-1257 -1256 -110 0
1257 -1256 110 0
1257 1256 -110 0
-1258 1257 112 0
-1258 -1257 -112 0
1258 -1257 112 0
1258 1257 -112 0
-1259 1258 122 0
-1259 -1258 -122 0
1259 -1258 122 0
1259 1258 -122 0
-1260 1259 124 0
-1260 -1259 -124 0
1260 -1259 124 0
1260 1259 -124 0
-1261 1260 134 0
-1261 -1260 -134 0
1261 -1260 134 0
1261 1260 -134 0
-1262 1261 136 0
-1262 -1261 -136 0
1262 -1261 136 0
1262 1261 -136 0
-1263 1262 145 0
-1263 -1262 -145 0
1263 -1262 145 0
1263 1262 -145 0
-1264 1263 151 0
-1264 -1263 -151 0
1264 -1263 151 0
1264 1263 -151 0
-1265 1264 157 0
-1265 -1264 -157 0
1265 -1264 157 0
1265 1264 -157 0
-1266 1265 158 0
-1266 -1265 -158 0
1266 -1265 158 0
1266 1265 -158 0
-1267 1266 159 0
-1267 -1266 -159 0
1267 -1266 159 0
1267 1266 -159 0
-1268 1267 160 0
-1268 -1267 -160 0
1268 -1267 160 0
1268 1267 -160 0
-1269 1268 161 0
-1269 -1268 -161 0
1269 -1268 161 0
1269 1268 -161 0
-1270 1269 162 0
-1270 -1269 -162 0
1270 -1269 162 0
1270 1269 -162 0
-1271 1270 169 0
-1271 -1270 -169 0
1271 -1270 169 0
1271 1270 -169 0
-1272 1271 171 0
-1272 -1271 -171 0
1272 -1271 171 0
1272 1271 -171 0
-1273 1272 173 0
-1273 -1272 -173 0
1273 -1272 173 0
1273 1272 -173 0
-1274 2 7 0
-1274 -2 -7 0
1274 -2 7 0
1274 2 -7 0
-1275 1274 9 0
-1275 -1274 -9 0
1275 -1274 9 0
1275 1274 -9 0
-1276 1275 12 0
-1276 -1275 -12 0
1276 -1275 12 0
1276 1275 -12 0
-1277 1276 14 0
-1277 -1276 -14 0
1277 -1276 14 0
1277 1276 -14 0
-1278 1277 16 0
-1278 -1277 -16 0
1278 -1277 16 0
1278 1277 -16 0
-1279 1278 21 0
-1279 -1278 -21 0
1279 -1278 21 0
1279 1278 -21 0
-1280 1279 23 0
-1280 -1279 -23 0
1280 -1279 23 0
1280 1279 -23 0
-1281 1280 24 0
-1281 -1280 -24 0
1281 -1280 24 0
1281 1280 -24 0
-1282 1281 25 0
-1282 -1281 -25 0
1282 -1281 25 0
1282 1281 -25 0
-1283 1282 27 0
-1283 -1282 -27 0
1283 -1282 27 0
1283 1282 -27 0
-1284 1283 28 0
-1284 -1283 -28 0
1284 -1283 28 0
1284 1283 -28 0
-1285 1284 29 0
-1285 -1284 -29 0
1285 -1284 29 0
1285 1284 -29 0
-1286 1285 31 0
-1286 -1285 -31 0
1286 -1285 31 0
1286 1285 -31 0
-1287 1286 35 0
-1287 -1286 -35 0
1287 -1286 35 0
1287 1286 -35 0
-1288 1287 42 0
-1288 -1287 -42 0
1288 -1287 42 0
1288 1287 -42 0
-1289 1288 53 0
-1289 -1288 -53 0
1289 -1288 53 0
1289 1288 -53 0
-1290 1289 54 0
-1290 -1289 -54 0
1290 -1289 54 0
1290 1289 -54 0
-1291 1290 62 0
-1291 -1290 -62 0
1291 -1290 62 0
1291 1290 -62 0
-1292 1291 64 0
-1292 -1291 -64 0
1292 -1291 64 0
1292 1291 -64 0
-1293 1292 65 0
-1293 -1292 -65 0
1293 -1292 65 0
1293 1292 -65 0
-1294 1293 66 0
-1294 -1293 -66 0
1294 -1293 66 0
1294 1293 -66 0
-1295 1294 68 0
-1295 -1294 -68 0
1295 -1294 68 0
1295 1294 -68 0
-1296 1295 70 0
-1296 -1295 -70 0
1296 -1295 70 0
1296 1295 -70 0
-1297 1296 72 0
-1297 -1296 -72 0
1297 -1296 72 0
1297 1296 -72 0
-1298 1297 76 0
-1298 -1297 -76 0
1298 -1297 76 0
1298 1297 -76 0
-1299 1298 83 0
-1299 -1298 -83 0
1299 -1298 83 0
1299 1298 -83 0
-1300 1299 87 0
-1300 -1299 -87 0
1300 -1299 87 0
1300 1299 -87 0
-1301 1300 88 0
-1301 -1300 -88 0
1301 -1300 88 0
1301 1300 -88 0
-1302 1301 94 0
-1302 -1301 -94 0
1302 -1301 94 0
1302 1301 -94 0
-1303 1302 95 0
-1303 -1302 -95 0
1303 -1302 95 0
1303 1302 -95 0
-1304 1303 97 0
-1304 -1303 -97 0
1304 -1303 97 0
1304 1303 -97 0
-1305 1304 98 0
-1305 -1304 -98 0
1305 -1304 98 0
1305 1304 -98 0
-1306 1305 100 0
-1306 -1305 -100 0
1306 -1305 100 0
1306 1305 -100 0
-1307 1306 101 0
-1307 -1306 -101 0
1307 -1306 101 0
1307 1306 -101 0
-1308 1307 102 0
-1308 -1307 -102 0
1308 -1307 102 0
1308 1307 -102 0
-1309 1308 103 0
-1309 -1308 -103 0
1309 -1308 103 0
1309 1308 -103 0
-1310 1309 104 0
-1310 -1309 -104 0
1310 -1309 104 0
1310 1309 -104 0
-1311 1310 105 0
-1311 -1310 -105 0
1311 -1310 105 0
1311 1310 -105 0
-1312 1311 107 0
-1312 -1311 -107 0
1312 -1311 107 0
1312 1311 -107 0
-1313 1312 108 0
-1313 -1312 -108 0
1313 -1312 108 0
1313 1312 -108 0
-1314 1313 110 0
-1314 -1313 -110 0
1314 -1313 110 0
1314 1313 -110 0
-1315 1314 112 0
-1315 -1314 -112 0
1315 -1314 112 0
1315 1314 -112 0
-1316 1315 121 0
-1316 -1315 -121 0
1316 -1315 121 0
1316 1315 -121 0
-1317 1316 122 0
-1317 -1316 -122 0
1317 -1316 122 0
1317 1316 -122 0
-1318 1317 123 0
-1318 -1317 -123 0
1318 -1317 123 0
1318 1317 -123 0
-1319 1318 124 0
-1319 -1318 -124 0
1319 -1318 124 0
1319 1318 -124 0
-1320 1319 133 0
-1320 -1319 -133 0
1320 -1319 133 0
1320 1319 -133 0
-1321 1320 135 0
-1321 -1320 -135 0
1321 -1320 135 0
1321 1320 -135 0
-1322 1321 145 0
-1322 -1321 -145 0
1322 -1321 145 0
1322 1321 -145 0
-1323 1322 148 0
-1323 -1322 -148 0
1323 -1322 148 0
1323 1322 -148 0
-1324 1323 150 0
-1324 -1323 -150 0
1324 -1323 150 0
1324 1323 -150 0
-1325 1324 151 0
-1325 -1324 -151 0
1325 -1324 151 0
1325 1324 -151 0
-1326 1325 152 0
-1326 -1325 -152 0
1326 -1325 152 0
1326 1325 -152 0
-1327 1326 157 0
-1327 -1326 -157 0
1327 -1326 157 0
1327 1326 -157 0
-1328 1327 159 0
-1328 -1327 -159 0
1328 -1327 159 0
1328 1327 -159 0
-1329 1328 161 0
-1329 -1328 -161 0
1329 -1328 161 0
1329 1328 -161 0
-1330 1329 170 0
-1330 -1329 -170 0
1330 -1329 170 0
1330 1329 -170 0
-1331 1330 172 0
-1331 -1330 -172 0
1331 -1330 172 0
1331 1330 -172 0
-1332 1331 174 0
-1332 -1331 -174 0
1332 -1331 174 0
1332 1331 -174 0
-1333 1 6 0
-1333 -1 -6 0
1333 -1 6 0
1333 1 -6 0
-1334 1333 8 0
-1334 -1333 -8 0
1334 -1333 8 0
1334 1333 -8 0
-1335 1334 11 0
-1335 -1334 -11 0
1335 -1334 11 0
1335 1334 -11 0
-1336 1335 19 0
-1336 -1335 -19 0
1336 -1335 19 0
1336 1335 -19 0
-1337 1336 20 0
-1337 -1336 -20 0
1337 -1336 20 0
1337 1336 -20 0
-1338 1337 21 0
-1338 -1337 -21 0
1338 -1337 21 0
1338 1337 -21 0
-1339 1338 24 0
-1339 -1338 -24 0
1339 -1338 24 0
1339 1338 -24 0
-1340 1339 27 0
-1340 -1339 -27 0
1340 -1339 27 0
1340 1339 -27 0
-1341 1340 29 0
-1341 -1340 -29 0
1341 -1340 29 0
1341 1340 -29 0
-1342 1341 30 0
-1342 -1341 -30 0
1342 -1341 30 0
1342 1341 -30 0
-1343 1342 31 0
-1343 -1342 -31 0
1343 -1342 31 0
1343 1342 -31 0
-1344 1343 33 0
-1344 -1343 -33 0
1344 -1343 33 0
1344 1343 -33 0
-1345 1344 35 0
-1345 -1344 -35 0
1345 -1344 35 0
1345 1344 -35 0
-1346 1345 36 0
-1346 -1345 -36 0
1346 -1345 36 0
1346 1345 -36 0
-1347 1346 37 0
-1347 -1346 -37 0
1347 -1346 37 0
1347 1346 -37 0
-1348 1347 39 0
-1348 -1347 -39 0
1348 -1347 39 0
1348 1347 -39 0
-1349 1348 43 0
-1349 -1348 -43 0
1349 -1348 43 0
1349 1348 -43 0
-1350 1349 45 0
-1350 -1349 -45 0
1350 -1349 45 0
1350 1349 -45 0
-1351 1350 47 0
-1351 -1350 -47 0
1351 -1350 47 0
1351 1350 -47 0
-1352 1351 54 0
-1352 -1351 -54 0
1352 -1351 54 0
1352 1351 -54 0
-1353 1352 61 0
-1353 -1352 -61 0
1353 -1352 61 0
1353 1352 -61 0
-1354 1353 62 0
-1354 -1353 -62 0
1354 -1353 62 0
1354 1353 -62 0
-1355 1354 63 0
-1355 -1354 -63 0
1355 -1354 63 0
1355 1354 -63 0
-1356 1355 64 0
-1356 -1355 -64 0
1356 -1355 64 0
1356 1355 -64 0
-1357 1356 67 0
-1357 -1356 -67 0
1357 -1356 67 0
1357 1356 -67 0
-1358 1357 68 0
-1358 -1357 -68 0
1358 -1357 68 0
1358 1357 -68 0
-1359 1358 69 0
-1359 -1358 -69 0
1359 -1358 69 0
1359 1358 -69 0
-1360 1359 70 0
-1360 -1359 -70 0
1360 -1359 70 0
1360 1359 -70 0
-1361 1360 71 0
-1361 -1360 -71 0
1361 -1360 71 0
1361 1360 -71 0
-1362 1361 72 0
-1362 -1361 -72 0
1362 -1361 72 0
1362 1361 -72 0
-1363 1362 73 0
-1363 -1362 -73 0
1363 -1362 73 0
1363 1362 -73 0
-1364 1363 74 0
-1364 -1363 -74 0
1364 -1363 74 0
1364 1363 -74 0
-1365 1364 76 0
-1365 -1364 -76 0
1365 -1364 76 0
1365 1364 -76 0
-1366 1365 77 0
-1366 -1365 -77 0
1366 -1365 77 0
1366 1365 -77 0
-1367 1366 78 0
-1367 -1366 -78 0
1367 -1366 78 0
1367 1366 -78 0
-1368 1367 79 0
-1368 -1367 -79 0
1368 -1367 79 0
1368 1367 -79 0
-1369 1368 80 0
-1369 -1368 -80 0
1369 -1368 80 0
1369 1368 -80 0
-1370 1369 81 0
-1370 -1369 -81 0
1370 -1369 81 0
1370 1369 -81 0
-1371 1370 83 0
-1371 -1370 -83 0
1371 -1370 83 0
1371 1370 -83 0
-1372 1371 84 0
-1372 -1371 -84 0
1372 -1371 84 0
1372 1371 -84 0
-1373 1372 88 0
-1373 -1372 -88 0
1373 -1372 88 0
1373 1372 -88 0
-1374 1373 95 0
-1374 -1373 -95 0
1374 -1373 95 0
1374 1373 -95 0
-1375 1374 99 0
-1375 -1374 -99 0
1375 -1374 99 0
1375 1374 -99 0
-1376 1375 100 0
-1376 -1375 -100 0
1376 -1375 100 0
1376 1375 -100 0
-1377 1376 106 0
-1377 -1376 -106 0
1377 -1376 106 0
1377 1376 -106 0
-1378 1377 107 0
-1378 -1377 -107 0
1378 -1377 107 0
1378 1377 -107 0
-1379 1378 109 0
-1379 -1378 -109 0
1379 -1378 109 0
1379 1378 -109 0
-1380 1379 111 0
-1380 -1379 -111 0
1380 -1379 111 0
1380 1379 -111 0
-1381 1380 122 0
-1381 -1380 -122 0
1381 -1380 122 0
1381 1380 -122 0
-1382 1381 124 0
-1382 -1381 -124 0
1382 -1381 124 0
1382 1381 -124 0
-1383 1382 133 0
-1383 -1382 -133 0
1383 -1382 133 0
1383 1382 -133 0
-1384 1383 134 0
-1384 -1383 -134 0
1384 -1383 134 0
1384 1383 -134 0
-1385 1384 135 0
-1385 -1384 -135 0
1385 -1384 135 0
1385 1384 -135 0
-1386 1385 136 0
-1386 -1385 -136 0
1386 -1385 136 0
1386 1385 -136 0
-1387 1386 146 0
-1387 -1386 -146 0
1387 -1386 146 0
1387 1386 -146 0
-1388 1387 152 0
-1388 -1387 -152 0
1388 -1387 152 0
1388 1387 -152 0
-1389 1388 157 0
-1389 -1388 -157 0
1389 -1388 157 0
1389 1388 -157 0
-1390 1389 159 0
-1390 -1389 -159 0
1390 -1389 159 0
1390 1389 -159 0
-1391 1390 161 0
-1391 -1390 -161 0
1391 -1390 161 0
1391 1390 -161 0
-1392 1391 169 0
-1392 -1391 -169 0
1392 -1391 169 0
1392 1391 -169 0
-1393 1392 175 0
-1393 -1392 -175 0
1393 -1392 175 0
1393 1392 -175 0
-1394 13 14 0
-1394 -13 -14 0
1394 -13 14 0
1394 13 -14 0
-1395 1394 15 0
-1395 -1394 -15 0
1395 -1394 15 0
1395 1394 -15 0
-1396 1395 17 0
-1396 -1395 -17 0
1396 -1395 17 0
1396 1395 -17 0
-1397 1396 19 0
-1397 -1396 -19 0
1397 -1396 19 0
1397 1396 -19 0
-1398 1397 21 0
-1398 -1397 -21 0
1398 -1397 21 0
1398 1397 -21 0
-1399 1398 24 0
-1399 -1398 -24 0
1399 -1398 24 0
1399 1398 -24 0
-1400 1399 25 0
-1400 -1399 -25 0
1400 -1399 25 0
1400 1399 -25 0
-1401 1400 26 0
-1401 -1400 -26 0
1401 -1400 26 0
1401 1400 -26 0
-1402 1401 27 0
-1402 -1401 -27 0
1402 -1401 27 0
1402 1401 -27 0
-1403 1402 28 0
-1403 -1402 -28 0
1403 -1402 28 0
1403 1402 -28 0
-1404 1403 29 0
-1404 -1403 -29 0
1404 -1403 29 0
1404 1403 -29 0
-1405 1404 30 0
-1405 -1404 -30 0
1405 -1404 30 0
1405 1404 -30 0
-1406 1405 38 0
-1406 -1405 -38 0
1406 -1405 38 0
1406 1405 -38 0
-1407 1406 40 0
-1407 -1406 -40 0
1407 -1406 40 0
1407 1406 -40 0
-1408 1407 42 0
-1408 -1407 -42 0
1408 -1407 42 0
1408 1407 -42 0
-1409 1408 44 0
-1409 -1408 -44 0
1409 -1408 44 0
1409 1408 -44 0
-1410 1409 46 0
-1410 -1409 -46 0
1410 -1409 46 0
1410 1409 -46 0
-1411 1410 48 0
-1411 -1410 -48 0
1411 -1410 48 0
1411 1410 -48 0
-1412 1411 54 0
-1412 -1411 -54 0
1412 -1411 54 0
1412 1411 -54 0
-1413 1412 61 0
-1413 -1412 -61 0
1413 -1412 61 0
1413 1412 -61 0
-1414 1413 62 0
-1414 -1413 -62 0
1414 -1413 62 0
1414 1413 -62 0
-1415 1414 63 0
-1415 -1414 -63 0
1415 -1414 63 0
1415 1414 -63 0
-1416 1415 64 0
-1416 -1415 -64 0
1416 -1415 64 0
1416 1415 -64 0
-1417 1416 65 0
-1417 -1416 -65 0
1417 -1416 65 0
1417 1416 -65 0
-1418 1417 66 0
-1418 -1417 -66 0
1418 -1417 66 0
1418 1417 -66 0
-1419 1418 67 0
-1419 -1418 -67 0
1419 -1418 67 0
1419 1418 -67 0
-1420 1419 68 0
-1420 -1419 -68 0
1420 -1419 68 0
1420 1419 -68 0
-1421 1420 69 0
-1421 -1420 -69 0
1421 -1420 69 0
1421 1420 -69 0
-1422 1421 70 0
-1422 -1421 -70 0
1422 -1421 70 0
1422 1421 -70 0
-1423 1422 71 0
-1423 -1422 -71 0
1423 -1422 71 0
1423 1422 -71 0
-1424 1423 72 0
-1424 -1423 -72 0
1424 -1423 72 0
1424 1423 -72 0
-1425 1424 73 0
-1425 -1424 -73 0
1425 -1424 73 0
1425 1424 -73 0
-1426 1425 74 0
-1426 -1425 -74 0
1426 -1425 74 0
1426 1425 -74 0
-1427 1426 75 0
-1427 -1426 -75 0
1427 -1426 75 0
1427 1426 -75 0
-1428 1427 76 0
-1428 -1427 -76 0
1428 -1427 76 0
1428 1427 -76 0
-1429 1428 77 0
-1429 -1428 -77 0
1429 -1428 77 0
1429 1428 -77 0
-1430 1429 78 0
-1430 -1429 -78 0
1430 -1429 78 0
1430 1429 -78 0
-1431 1430 79 0
-1431 -1430 -79 0
1431 -1430 79 0
1431 1430 -79 0
-1432 1431 80 0
-1432 -1431 -80 0
1432 -1431 80 0
1432 1431 -80 0
-1433 1432 81 0
-1433 -1432 -81 0
1433 -1432 81 0
1433 1432 -81 0
-1434 1433 82 0
-1434 -1433 -82 0
1434 -1433 82 0
1434 1433 -82 0
-1435 1434 83 0
-1435 -1434 -83 0
1435 -1434 83 0
1435 1434 -83 0
-1436 1435 84 0
-1436 -1435 -84 0
1436 -1435 84 0
1436 1435 -84 0
-1437 1436 88 0
-1437 -1436 -88 0
1437 -1436 88 0
1437 1436 -88 0
-1438 1437 95 0
-1438 -1437 -95 0
1438 -1437 95 0
1438 1437 -95 0
-1439 1438 122 0
-1439 -1438 -122 0
1439 -1438 122 0
1439 1438 -122 0
-1440 1439 124 0
-1440 -1439 -124 0
1440 -1439 124 0
1440 1439 -124 0
-1441 1440 145 0
-1441 -1440 -145 0
1441 -1440 145 0
1441 1440 -145 0
-1442 1441 147 0
-1442 -1441 -147 0
1442 -1441 147 0
1442 1441 -147 0
-1443 1442 149 0
-1443 -1442 -149 0
1443 -1442 149 0
1443 1442 -149 0
-1444 1443 158 0
-1444 -1443 -158 0
1444 -1443 158 0
1444 1443 -158 0
-1445 1444 160 0
-1445 -1444 -160 0
1445 -1444 160 0
1445 1444 -160 0
-1446 1445 162 0
-1446 -1445 -162 0
1446 -1445 162 0
1446 1445 -162 0
-1447 1446 170 0
-1447 -1446 -170 0
1447 -1446 170 0
1447 1446 -170 0
-1448 1447 176 0
-1448 -1447 -176 0
1448 -1447 176 0
1448 1447 -176 0
1025 1042 1059 1076 1093 1110 1169 1224 1273 1332 1393 1448 0
-1 1449 0
-1450 0
-1451 0
-1452 0
-1453 0
-1454 0
-1455 0
-1456 0
-1457 0
-1458 0
-1459 0
-1460 0
-1461 0
-1462 0
-1463 0
-1464 0
-1465 0
-1466 0
-2 1467 0
-1449 1467 0
-2 -1449 1468 0
-1450 1468 0
-2 -1450 1469 0
-1451 1469 0
-2 -1451 1470 0
-1452 1470 0
-2 -1452 1471 0
-1453 1471 0
-2 -1453 1472 0
-1454 1472 0
-2 -1454 1473 0
-1455 1473 0
-2 -1455 1474 0
-1456 1474 0
-2 -1456 1475 0
-1457 1475 0
-2 -1457 1476 0
-1458 1476 0
-2 -1458 1477 0
-1459 1477 0
-2 -1459 1478 0
-1460 1478 0
-2 -1460 1479 0
-1461 1479 0
-2 -1461 1480 0
-1462 1480 0
-2 -1462 1481 0
-1463 1481 0
-2 -1463 1482 0
-1464 1482 0
-2 -1464 1483 0
-1465 1483 0
-2 -1465 1484 0
-1466 1484 0
-2 -1466 0
-3 1485 0
-1467 1485 0
-3 -1467 1486 0
-1468 1486 0
-3 -1468 1487 0
-1469 1487 0
-3 -1469 1488 0
-1470 1488 0
-3 -1470 1489 0
-1471 1489 0
-3 -1471 1490 0
-1472 1490 0
-3 -1472 1491 0
-1473 1491 0
-3 -1473 1492 0
-1474 1492 0
-3 -1474 1493 0
-1475 1493 0
-3 -1475 1494 0
-1476 1494 0
-3 -1476 1495 0
-1477 1495 0
-3 -1477 1496 0
-1478 1496 0
-3 -1478 1497 0
-1479 1497 0
-3 -1479 1498 0
-1480 1498 0
-3 -1480 1499 0
-1481 1499 0
-3 -1481 1500 0
-1482 1500 0
-3 -1482 1501 0
-1483 1501 0
-3 -1483 1502 0
-1484 1502 0
-3 -1484 0
-4 1503 0
-1485 1503 0
-4 -1485 1504 0
-1486 1504 0
-4 -1486 1505 0
-1487 1505 0
-4 -1487 1506 0
-1488 1506 0
-4 -1488 1507 0
-1489 1507 0
-4 -1489 1508 0
-1490 1508 0
-4 -1490 1509 0
-1491 1509 0
-4 -1491 1510 0
-1492 1510 0
-4 -1492 1511 0
-1493 1511 0
-4 -1493 1512 0
-1494 1512 0
-4 -1494 1513 0
-1495 1513 0
-4 -1495 1514 0
-1496 1514 0
-4 -1496 1515 0
-1497 1515 0
-4 -1497 1516 0
-1498 1516 0
-4 -1498 1517 0
-1499 1517 0
-4 -1499 1518 0
-1500 1518 0
-4 -1500 1519 0
-1501 1519 0
-4 -1501 1520 0
-1502 1520 0
-4 -1502 0
-5 1521 0
-1503 1521 0
-5 -1503 1522 0
-1504 1522 0
-5 -1504 1523 0
-1505 1523 0
-5 -1505 1524 0
-1506 1524 0
-5 -1506 1525 0
-1507 1525 0
-5 -1507 1526 0
-1508 1526 0
-5 -1508 1527 0
-1509 1527 0
-5 -1509 1528 0
-1510 1528 0
-5 -1510 1529 0
-1511 1529 0
-5 -1511 1530 0
-1512 1530 0
-5 -1512 1531 0
-1513 1531 0
-5 -1513 1532 0
-1514 1532 0
-5 -1514 1533 0
-1515 1533 0
-5 -1515 1534 0
-1516 1534 0
-5 -1516 1535 0
-1517 1535 0
-5 -1517 1536 0
-1518 1536 0
-5 -1518 1537 0
-1519 1537 0
-5 -1519 1538 0
-1520 1538 0
-5 -1520 0
-6 1539 0
-1521 1539 0
-6 -1521 1540 0
-1522 1540 0
-6 -1522 1541 0
-1523 1541 0
-6 -1523 1542 0
-1524 1542 0
-6 -1524 1543 0
-1525 1543 0
-6 -1525 1544 0
-1526 1544 0
-6 -1526 1545 0
-1527 1545 0
-6 -1527 1546 0
-1528 1546 0
-6 -1528 1547 0
-1529 1547 0
-6 -1529 1548 0
-1530 1548 0
-6 -1530 1549 0
-1531 1549 0
-6 -1531 1550 0
-1532 1550 0
-6 -1532 1551 0
-1533 1551 0
-6 -1533 1552 0
-1534 1552 0
-6 -1534 1553 0
-1535 1553 0
-6 -1535 1554 0
-1536 1554 0
-6 -1536 1555 0
-1537 1555 0
-6 -1537 1556 0
-1538 1556 0
-6 -1538 0
-7 1557 0
-1539 1557 0
-7 -1539 1558 0
-1540 1558 0
-7 -1540 1559 0
-1541 1559 0
-7 -1541 1560 0
-1542 1560 0
-7 -1542 1561 0
-1543 1561 0
-7 -1543 1562 0
-1544 1562 0
-7 -1544 1563 0
-1545 1563 0
-7 -1545 1564 0
-1546 1564 0
-7 -1546 1565 0
-1547 1565 0
-7 -1547 1566 0
-1548 1566 0
-7 -1548 1567 0
-1549 1567 0
-7 -1549 1568 0
-1550 1568 0
-7 -1550 1569 0
-1551 1569 0
-7 -1551 1570 0
-1552 1570 0
-7 -1552 1571 0
-1553 1571 0
-7 -1553 1572 0
-1554 1572 0
-7 -1554 1573 0
-1555 1573 0
-7 -1555 1574 0
-1556 1574 0
-7 -1556 0
-8 1575 0
-1557 1575 0
-8 -1557 1576 0
-1558 1576 0
-8 -1558 1577 0
-1559 1577 0
-8 -1559 1578 0
-1560 1578 0
-8 -1560 1579 0
-1561 1579 0
-8 -1561 1580 0
-1562 1580 0
-8 -1562 1581 0
-1563 1581 0
-8 -1563 1582 0
-1564 1582 0
-8 -1564 1583 0
-1565 1583 0
-8 -1565 1584 0
-1566 1584 0
-8 -1566 1585 0
-1567 1585 0
-8 -1567 1586 0
-1568 1586 0
-8 -1568 1587 0
-1569 1587 0
-8 -1569 1588 0
-1570 1588 0
-8 -1570 1589 0
-1571 1589 0
-8 -1571 1590 0
-1572 1590 0
-8 -1572 1591 0
-1573 1591 0
-8 -1573 1592 0
-1574 1592 0
-8 -1574 0
-9 1593 0
-1575 1593 0
-9 -1575 1594 0
-1576 1594 0
-9 -1576 1595 0
-1577 1595 0
-9 -1577 1596 0
-1578 1596 0
-9 -1578 1597 0
-1579 1597 0
-9 -1579 1598 0
-1580 1598 0
-9 -1580 1599 0
-1581 1599 0
-9 -1581 1600 0
-1582 1600 0
-9 -1582 1601 0
-1583 1601 0
-9 -1583 1602 0
-1584 1602 0
-9 -1584 1603 0
-1585 1603 0
-9 -1585 1604 0
-1586 1604 0
-9 -1586 1605 0
-1587 1605 0
-9 -1587 1606 0
-1588 1606 0
-9 -1588 1607 0
-1589 1607 0
-9 -1589 1608 0
-1590 1608 0
-9 -1590 1609 0
-1591 1609 0
-9 -1591 1610 0
-1592 1610 0
-9 -1592 0
-10 1611 0
-1593 1611 0
-10 -1593 1612 0
-1594 1612 0
-10 -1594 1613 0
-1595 1613 0
-10 -1595 1614 0
-1596 1614 0
-10 -1596 1615 0
-1597 1615 0
-10 -1597 1616 0
-1598 1616 0
-10 -1598 1617 0
-1599 1617 0
-10 -1599 1618 0
-1600 1618 0
-10 -1600 1619 0
-1601 1619 0
-10 -1601 1620 0
-1602 1620 0
-10 -1602 1621 0
-1603 1621 0
-10 -1603 1622 0
-1604 1622 0
-10 -1604 1623 0
-1605 1623 0
-10 -1605 1624 0
-1606 1624 0
-10 -1606 1625 0
-1607 1625 0
-10 -1607 1626 0
-1608 1626 0
-10 -1608 1627 0
-1609 1627 0
-10 -1609 1628 0
-1610 1628 0
-10 -1610 0
-11 1629 0
-1611 1629 0
-11 -1611 1630 0
-1612 1630 0
-11 -1612 1631 0
-1613 1631 0
-11 -1613 1632 0
-1614 1632 0
-11 -1614 1633 0
-1615 1633 0
-11 -1615 1634 0
-1616 1634 0
-11 -1616 1635 0
-1617 1635 0
-11 -1617 1636 0
-1618 1636 0
-11 -1618 1637 0
-1619 1637 0
-11 -1619 1638 0
-1620 1638 0
-11 -1620 1639 0
-1621 1639 0
-11 -1621 1640 0
-1622 1640 0
-11 -1622 1641 0
-1623 1641 0
-11 -1623 1642 0
-1624 1642 0
-11 -1624 1643 0
-1625 1643 0
-11 -1625 1644 0
-1626 1644 0
-11 -1626 1645 0
-1627 1645 0
-11 -1627 1646 0
-1628 1646 0
-11 -1628 0
-12 1647 0
-1629 1647 0
-12 -1629 1648 0
-1630 1648 0
-12 -1630 1649 0
-1631 1649 0
-12 -1631 1650 0
-1632 1650 0
-12 -1632 1651 0
-1633 1651 0
-12 -1633 1652 0
-1634 1652 0
-12 -1634 1653 0
-1635 1653 0
-12 -1635 1654 0
-1636 1654 0
-12 -1636 1655 0
-1637 1655 0
-12 -1637 1656 0
-1638 1656 0
-12 -1638 1657 0
-1639 1657 0
-12 -1639 1658 0
-1640 1658 0
-12 -1640 1659 0
-1641 1659 0
-12 -1641 1660 0
-1642 1660 0
-12 -1642 1661 0
-1643 1661 0
-12 -1643 1662 0
-1644 1662 0
-12 -1644 1663 0
-1645 1663 0
-12 -1645 1664 0
-1646 1664 0
-12 -1646 0
-13 1665 0
-1647 1665 0
-13 -1647 1666 0
-1648 1666 0
-13 -1648 1667 0
-1649 1667 0
-13 -1649 1668 0
-1650 1668 0
-13 -1650 1669 0
-1651 1669 0
-13 -1651 1670 0
-1652 1670 0
-13 -1652 1671 0
-1653 1671 0
-13 -1653 1672 0
-1654 1672 0
-13 -1654 1673 0
-1655 1673 0
-13 -1655 1674 0
-1656 1674 0
-13 -1656 1675 0
-1657 1675 0
-13 -1657 1676 0
-1658 1676 0
-13 -1658 1677 0
-1659 1677 0
-13 -1659 1678 0
-1660 1678 0
-13 -1660 1679 0
-1661 1679 0
-13 -1661 1680 0
-1662 1680 0
-13 -1662 1681 0
-1663 1681 0
-13 -1663 1682 0
-1664 1682 0
-13 -1664 0
-14 1683 0
-1665 1683 0
-14 -1665 1684 0
-1666 1684 0
-14 -1666 1685 0
-1667 1685 0
-14 -1667 1686 0
-1668 1686 0
-14 -1668 1687 0
-1669 1687 0
-14 -1669 1688 0
-1670 1688 0
-14 -1670 1689 0
-1671 1689 0
-14 -1671 1690 0
-1672 1690 0
-14 -1672 1691 0
-1673 1691 0
-14 -1673 1692 0
-1674 1692 0
-14 -1674 1693 0
-1675 1693 0
-14 -1675 1694 0
-1676 1694 0
-14 -1676 1695 0
-1677 1695 0
-14 -1677 1696 0
-1678 1696 0
-14 -1678 1697 0
-1679 1697 0
-14 -1679 1698 0
-1680 1698 0
-14 -1680 1699 0
-1681 1699 0
-14 -1681 1700 0
-1682 1700 0
-14 -1682 0
-15 1701 0
-1683 1701 0
-15 -1683 1702 0
-1684 1702 0
-15 -1684 1703 0
-1685 1703 0
-15 -1685 1704 0
-1686 1704 0
-15 -1686 1705 0
-1687 1705 0
-15 -1687 1706 0
-1688 1706 0
-15 -1688 1707 0
-1689 1707 0
-15 -1689 1708 0
-1690 1708 0
-15 -1690 1709 0
-1691 1709 0
-15 -1691 1710 0
-1692 1710 0
-15 -1692 1711 0
-1693 1711 0
-15 -1693 1712 0
-1694 1712 0
-15 -1694 1713 0
-1695 1713 0
-15 -1695 1714 0
-1696 1714 0
-15 -1696 1715 0
-1697 1715 0
-15 -1697 1716 0
-1698 1716 0
-15 -1698 1717 0
-1699 1717 0
-15 -1699 1718 0
-1700 1718 0
-15 -1700 0
-16 1719 0
-1701 1719 0
-16 -1701 1720 0
-1702 1720 0
-16 -1702 1721 0
-1703 1721 0
-16 -1703 1722 0
-1704 1722 0
-16 -1704 1723 0
-1705 1723 0
-16 -1705 1724 0
-1706 1724 0
-16 -1706 1725 0
-1707 1725 0
-16 -1707 1726 0
-1708 1726 0
-16 -1708 1727 0
-1709 1727 0
-16 -1709 1728 0
-1710 1728 0
-16 -1710 1729 0
-1711 1729 0
-16 -1711 1730 0
-1712 1730 0
-16 -1712 1731 0
-1713 1731 0
-16 -1713 1732 0
-1714 1732 0
-16 -1714 1733 0
-1715 1733 0
-16 -1715 1734 0
-1716 1734 0
-16 -1716 1735 0
-1717 1735 0
-16 -1717 1736 0
-1718 1736 0
-16 -1718 0
-17 1737 0
-1719 1737 0
-17 -1719 1738 0
-1720 1738 0
-17 -1720 1739 0
-1721 1739 0
-17 -1721 1740 0
-1722 1740 0
-17 -1722 1741 0
-1723 1741 0
-17 -1723 1742 0
-1724 1742 0
-17 -1724 1743 0
-1725 1743 0
-17 -1725 1744 0
-1726 1744 0
-17 -1726 1745 0
-1727 1745 0
-17 -1727 1746 0
-1728 1746 0
-17 -1728 1747 0
-1729 1747 0
-17 -1729 1748 0
-1730 1748 0
-17 -1730 1749 0
-1731 1749 0
-17 -1731 1750 0
-1732 1750 0
-17 -1732 1751 0
-1733 1751 0
-17 -1733 1752 0
-1734 1752 0
-17 -1734 1753 0
-1735 1753 0
-17 -1735 1754 0
-1736 1754 0
-17 -1736 0
-18 1755 0
-1737 1755 0
-18 -1737 1756 0
-1738 1756 0
-18 -1738 1757 0
-1739 1757 0
-18 -1739 1758 0
-1740 1758 0
-18 -1740 1759 0
-1741 1759 0
-18 -1741 1760 0
-1742 1760 0
-18 -1742 1761 0
-1743 1761 0
-18 -1743 1762 0
-1744 1762 0
-18 -1744 1763 0
-1745 1763 0
-18 -1745 1764 0
-1746 1764 0
-18 -1746 1765 0
-1747 1765 0
-18 -1747 1766 0
-1748 1766 0
-18 -1748 1767 0
-1749 1767 0
-18 -1749 1768 0
-1750 1768 0
-18 -1750 1769 0
-1751 1769 0
-18 -1751 1770 0
-1752 1770 0
-18 -1752 1771 0
-1753 1771 0
-18 -1753 1772 0
-1754 1772 0
-18 -1754 0
-19 1773 0
-1755 1773 0
-19 -1755 1774 0
-1756 1774 0
-19 -1756 1775 0
-1757 1775 0
-19 -1757 1776 0
-1758 1776 0
-19 -1758 1777 0
-1759 1777 0
-19 -1759 1778 0
-1760 1778 0
-19 -1760 1779 0
-1761 1779 0
-19 -1761 1780 0
-1762 1780 0
-19 -1762 1781 0
-1763 1781 0
-19 -1763 1782 0
-1764 1782 0
-19 -1764 1783 0
-1765 1783 0
-19 -1765 1784 0
-1766 1784 0
-19 -1766 1785 0
-1767 1785 0
-19 -1767 1786 0
-1768 1786 0
-19 -1768 1787 0
-1769 1787 0
-19 -1769 1788 0
-1770 1788 0
-19 -1770 1789 0
-1771 1789 0
-19 -1771 1790 0
-1772 1790 0
-19 -1772 0
-20 1791 0
-1773 1791 0
-20 -1773 1792 0
-1774 1792 0
-20 -1774 1793 0
-1775 1793 0
-20 -1775 1794 0
-1776 1794 0
-20 -1776 1795 0
-1777 1795 0
-20 -1777 1796 0
-1778 1796 0
-20 -1778 1797 0
-1779 1797 0
-20 -1779 1798 0
-1780 1798 0
-20 -1780 1799 0
-1781 1799 0
-20 -1781 1800 0
-1782 1800 0
-20 -1782 1801 0
-1783 1801 0
-20 -1783 1802 0
-1784 1802 0
-20 -1784 1803 0
-1785 1803 0
-20 -1785 1804 0
-1786 1804 0
-20 -1786 1805 0
-1787 1805 0
-20 -1787 1806 0
-1788 1806 0
-20 -1788 1807 0
-1789 1807 0
-20 -1789 1808 0
-1790 1808 0
-20 -1790 0
-21 1809 0
-1791 1809 0
-21 -1791 1810 0
-1792 1810 0
-21 -1792 1811 0
-1793 1811 0
-21 -1793 1812 0
-1794 1812 0
-21 -1794 1813 0
-1795 1813 0
-21 -1795 1814 0
-1796 1814 0
-21 -1796 1815 0
-1797 1815 0
-21 -1797 1816 0
-1798 1816 0
-21 -1798 1817 0
-1799 1817 0
-21 -1799 1818 0
-1800 1818 0
-21 -1800 1819 0
-1801 1819 0
-21 -1801 1820 0
-1802 1820 0
-21 -1802 1821 0
-1803 1821 0
-21 -1803 1822 0
-1804 1822 0
-21 -1804 1823 0
-1805 1823 0
-21 -1805 1824 0
-1806 1824 0
-21 -1806 1825 0
-1807 1825 0
-21 -1807 1826 0
-1808 1826 0
-21 -1808 0
-22 1827 0
-1809 1827 0
-22 -1809 1828 0
-1810 1828 0
-22 -1810 1829 0
-1811 1829 0
-22 -1811 1830 0
-1812 1830 0
-22 -1812 1831 0
-1813 1831 0
-22 -1813 1832 0
-1814 1832 0
-22 -1814 1833 0
-1815 1833 0
-22 -1815 1834 0
-1816 1834 0
-22 -1816 1835 0
-1817 1835 0
-22 -1817 1836 0
-1818 1836 0
-22 -1818 1837 0
-1819 1837 0
-22 -1819 1838 0
-1820 1838 0
-22 -1820 1839 0
-1821 1839 0
-22 -1821 1840 0
-1822 1840 0
-22 -1822 1841 0
-1823 1841 0
-22 -1823 1842 0
-1824 1842 0
-22 -1824 1843 0
-1825 1843 0
-22 -1825 1844 0
-1826 1844 0
-22 -1826 0
-23 1845 0
-1827 1845 0
-23 -1827 1846 0
-1828 1846 0
-23 -1828 1847 0
-1829 1847 0
-23 -1829 1848 0
-1830 1848 0
-23 -1830 1849 0
-1831 1849 0
-23 -1831 1850 0
-1832 1850 0
-23 -1832 1851 0
-1833 1851 0
-23 -1833 1852 0
-1834 1852 0
-23 -1834 1853 0
-1835 1853 0
-23 -1835 1854 0
-1836 1854 0
-23 -1836 1855 0
-1837 1855 0
-23 -1837 1856 0
-1838 1856 0
-23 -1838 1857 0
-1839 1857 0
-23 -1839 1858 0
-1840 1858 0
-23 -1840 1859 0
-1841 1859 0
-23 -1841 1860 0
-1842 1860 0
-23 -1842 1861 0
-1843 1861 0
-23 -1843 1862 0
-1844 1862 0
-23 -1844 0
-24 1863 0
-1845 1863 0
-24 -1845 1864 0
-1846 1864 0
-24 -1846 1865 0
-1847 1865 0
-24 -1847 1866 0
-1848 1866 0
-24 -1848 1867 0
-1849 1867 0
-24 -1849 1868 0
-1850 1868 0
-24 -1850 1869 0
-1851 1869 0
-24 -1851 1870 0
-1852 1870 0
-24 -1852 1871 0
-1853 1871 0
-24 -1853 1872 0
-1854 1872 0
-24 -1854 1873 0
-1855 1873 0
-24 -1855 1874 0
-1856 1874 0
-24 -1856 1875 0
-1857 1875 0
-24 -1857 1876 0
-1858 1876 0
-24 -1858 1877 0
-1859 1877 0
-24 -1859 1878 0
-1860 1878 0
-24 -1860 1879 0
-1861 1879 0
-24 -1861 1880 0
-1862 1880 0
-24 -1862 0
-25 1881 0
-1863 1881 0
-25 -1863 1882 0
-1864 1882 0
-25 -1864 1883 0
-1865 1883 0
-25 -1865 1884 0
-1866 1884 0
-25 -1866 1885 0
-1867 1885 0
-25 -1867 1886 0
-1868 1886 0
-25 -1868 1887 0
-1869 1887 0
-25 -1869 1888 0
-1870 1888 0
-25 -1870 1889 0
-1871 1889 0
-25 -1871 1890 0
-1872 1890 0
-25 -1872 1891 0
-1873 1891 0
-25 -1873 1892 0
-1874 1892 0
-25 -1874 1893 0
-1875 1893 0
-25 -1875 1894 0
-1876 1894 0
-25 -1876 1895 0
-1877 1895 0
-25 -1877 1896 0
-1878 1896 0
-25 -1878 1897 0
-1879 1897 0
-25 -1879 1898 0
-1880 1898 0
-25 -1880 0
-26 1899 0
-1881 1899 0
-26 -1881 1900 0
-1882 1900 0
-26 -1882 1901 0
-1883 1901 0
-26 -1883 1902 0
-1884 1902 0
-26 -1884 1903 0
-1885 1903 0
-26 -1885 1904 0
-1886 1904 0
-26 -1886 1905 0
-1887 1905 0
-26 -1887 1906 0
-1888 1906 0
-26 -1888 1907 0
-1889 1907 0
-26 -1889 1908 0
-1890 1908 0
-26 -1890 1909 0
-1891 1909 0
-26 -1891 1910 0
-1892 1910 0
-26 -1892 1911 0
-1893 1911 0
-26 -1893 1912 0
-1894 1912 0
-26 -1894 1913 0
-1895 1913 0
-26 -1895 1914 0
-1896 1914 0
-26 -1896 1915 0
-1897 1915 0
-26 -1897 1916 0
-1898 1916 0
-26 -1898 0
-27 1917 0
-1899 1917 0
-27 -1899 1918 0
-1900 1918 0
-27 -1900 1919 0
-1901 1919 0
-27 -1901 1920 0
-1902 1920 0
-27 -1902 1921 0
-1903 1921 0
-27 -1903 1922 0
-1904 1922 0
-27 -1904 1923 0
-1905 1923 0
-27 -1905 1924 0
-1906 1924 0
-27 -1906 1925 0
-1907 1925 0
-27 -1907 1926 0
-1908 1926 0
-27 -1908 1927 0
-1909 1927 0
-27 -1909 1928 0
-1910 1928 0
-27 -1910 1929 0
-1911 1929 0
-27 -1911 1930 0
-1912 1930 0
-27 -1912 1931 0
-1913 1931 0
-27 -1913 1932 0
-1914 1932 0
-27 -1914 1933 0
-1915 1933 0
-27 -1915 1934 0
-1916 1934 0
-27 -1916 0
-28 1935 0
-1917 1935 0
-28 -1917 1936 0
-1918 1936 0
-28 -1918 1937 0
-1919 1937 0
-28 -1919 1938 0
-1920 1938 0
-28 -1920 1939 0
-1921 1939 0
-28 -1921 1940 0
-1922 1940 0
-28 -1922 1941 0
-1923 1941 0
-28 -1923 1942 0
-1924 1942 0
-28 -1924 1943 0
-1925 1943 0
-28 -1925 1944 0
-1926 1944 0
-28 -1926 1945 0
-1927 1945 0
-28 -1927 1946 0
-1928 1946 0
-28 -1928 1947 0
-1929 1947 0
-28 -1929 1948 0
-1930 1948 0
-28 -1930 1949 0
-1931 1949 0
-28 -1931 1950 0
-1932 1950 0
-28 -1932 1951 0
-1933 1951 0
-28 -1933 1952 0
-1934 1952 0
-28 -1934 0
-29 1953 0
-1935 1953 0
-29 -1935 1954 0
-1936 1954 0
-29 -1936 1955 0
-1937 1955 0
-29 -1937 1956 0
-1938 1956 0
-29 -1938 1957 0
-1939 1957 0
-29 -1939 1958 0
-1940 1958 0
-29 -1940 1959 0
-1941 1959 0
-29 -1941 1960 0
-1942 1960 0
-29 -1942 1961 0
-1943 1961 0
-29 -1943 1962 0
-1944 1962 0
-29 -1944 1963 0
-1945 1963 0
-29 -1945 1964 0
-1946 1964 0
-29 -1946 1965 0
-1947 1965 0
-29 -1947 1966 0
-1948 1966 0
-29 -1948 1967 0
-1949 1967 0
-29 -1949 1968 0
-1950 1968 0
-29 -1950 1969 0
-1951 1969 0
-29 -1951 1970 0
-1952 1970 0
-29 -1952 0
-30 1971 0
-1953 1971 0
-30 -1953 1972 0
-1954 1972 0
-30 -1954 1973 0
-1955 1973 0
-30 -1955 1974 0
-1956 1974 0
-30 -1956 1975 0
-1957 1975 0
-30 -1957 1976 0
-1958 1976 0
-30 -1958 1977 0
-1959 1977 0
-30 -1959 1978 0
-1960 1978 0
-30 -1960 1979 0
-1961 1979 0
-30 -1961 1980 0
-1962 1980 0
-30 -1962 1981 0
-1963 1981 0
-30 -1963 1982 0
-1964 1982 0
-30 -1964 1983 0
-1965 1983 0
-30 -1965 1984 0
-1966 1984 0
-30 -1966 1985 0
-1967 1985 0
-30 -1967 1986 0
-1968 1986 0
-30 -1968 1987 0
-1969 1987 0
-30 -1969 1988 0
-1970 1988 0
-30 -1970 0
-31 1989 0
-1971 1989 0
-31 -1971 1990 0
-1972 1990 0
-31 -1972 1991 0
-1973 1991 0
-31 -1973 1992 0
-1974 1992 0
-31 -1974 1993 0
-1975 1993 0
-31 -1975 1994 0
-1976 1994 0
-31 -1976 1995 0
-1977 1995 0
-31 -1977 1996 0
-1978 1996 0
-31 -1978 1997 0
-1979 1997 0
-31 -1979 1998 0
-1980 1998 0
-31 -1980 1999 0
-1981 1999 0
-31 -1981 2000 0
-1982 2000 0
-31 -1982 2001 0
-1983 2001 0
-31 -1983 2002 0
-1984 2002 0
-31 -1984 2003 0
-1985 2003 0
-31 -1985 2004 0
-1986 2004 0
-31 -1986 2005 0
-1987 2005 0
-31 -1987 2006 0
-1988 2006 0
-31 -1988 0
-32 2007 0
-1989 2007 0
-32 -1989 2008 0
-1990 2008 0
-32 -1990 2009 0
-1991 2009 0
-32 -1991 2010 0
-1992 2010 0
-32 -1992 2011 0
-1993 2011 0
-32 -1993 2012 0
-1994 2012 0
-32 -1994 2013 0
-1995 2013 0
-32 -1995 2014 0
-1996 2014 0
-32 -1996 2015 0
-1997 2015 0
-32 -1997 2016 0
-1998 2016 0
-32 -1998 2017 0
-1999 2017 0
-32 -1999 2018 0
-2000 2018 0
-32 -2000 2019 0
-2001 2019 0
-32 -2001 2020 0
-2002 2020 0
-32 -2002 2021 0
-2003 2021 0
-32 -2003 2022 0
-2004 2022 0
-32 -2004 2023 0
-2005 2023 0
-32 -2005 2024 0
-2006 2024 0
-32 -2006 0
-33 2025 0
-2007 2025 0
-33 -2007 2026 0
-2008 2026 0
-33 -2008 2027 0
-2009 2027 0
-33 -2009 2028 0
-2010 2028 0
-33 -2010 2029 0
-2011 2029 0
-33 -2011 2030 0
-2012 2030 0
-33 -2012 2031 0
-2013 2031 0
-33 -2013 2032 0
-2014 2032 0
-33 -2014 2033 0
-2015 2033 0
-33 -2015 2034 0
-2016 2034 0
-33 -2016 2035 0
-2017 2035 0
-33 -2017 2036 0
-2018 2036 0
-33 -2018 2037 0
-2019 2037 0
-33 -2019 2038 0
-2020 2038 0
-33 -2020 2039 0
-2021 2039 0
-33 -2021 2040 0
-2022 2040 0
-33 -2022 2041 0
-2023 2041 0
-33 -2023 2042 0
-2024 2042 0
-33 -2024 0
-34 2043 0
-2025 2043 0
-34 -2025 2044 0
-2026 2044 0
-34 -2026 2045 0
-2027 2045 0
-34 -2027 2046 0
-2028 2046 0
-34 -2028 2047 0
-2029 2047 0
-34 -2029 2048 0
-2030 2048 0
-34 -2030 2049 0
-2031 2049 0
-34 -2031 2050 0
-2032 2050 0
-34 -2032 2051 0
-2033 2051 0
-34 -2033 2052 0
-2034 2052 0
-34 -2034 2053 0
-2035 2053 0
-34 -2035 2054 0
-2036 2054 0
-34 -2036 2055 0
-2037 2055 0
-34 -2037 2056 0
-2038 2056 0
-34 -2038 2057 0
-2039 2057 0
-34 -2039 2058 0
-2040 2058 0
-34 -2040 2059 0
-2041 2059 0
-34 -2041 2060 0
-2042 2060 0
-34 -2042 0
-35 2061 0
-2043 2061 0
-35 -2043 2062 0
-2044 2062 0
-35 -2044 2063 0
-2045 2063 0
-35 -2045 2064 0
-2046 2064 0
-35 -2046 2065 0
-2047 2065 0
-35 -2047 2066 0
-2048 2066 0
-35 -2048 2067 0
-2049 2067 0
-35 -2049 2068 0
-2050 2068 0
-35 -2050 2069 0
-2051 2069 0
-35 -2051 2070 0
-2052 2070 0
-35 -2052 2071 0
-2053 2071 0
-35 -2053 2072 0
-2054 2072 0
-35 -2054 2073 0
-2055 2073 0
-35 -2055 2074 0
-2056 2074 0
-35 -2056 2075 0
-2057 2075 0
-35 -2057 2076 0
-2058 2076 0
-35 -2058 2077 0
-2059 2077 0
-35 -2059 2078 0
-2060 2078 0
-35 -2060 0
-36 2079 0
-2061 2079 0
-36 -2061 2080 0
-2062 2080 0
-36 -2062 2081 0
-2063 2081 0
-36 -2063 2082 0
-2064 2082 0
-36 -2064 2083 0
-2065 2083 0
-36 -2065 2084 0
-2066 2084 0
-36 -2066 2085 0
-2067 2085 0
-36 -2067 2086 0
-2068 2086 0
-36 -2068 2087 0
-2069 2087 0
-36 -2069 2088 0
-2070 2088 0
-36 -2070 2089 0
-2071 2089 0
-36 -2071 2090 0
-2072 2090 0
-36 -2072 2091 0
-2073 2091 0
-36 -2073 2092 0
-2074 2092 0
-36 -2074 2093 0
-2075 2093 0
-36 -2075 2094 0
-2076 2094 0
-36 -2076 2095 0
-2077 2095 0
-36 -2077 2096 0
-2078 2096 0
-36 -2078 0
-37 2097 0
-2079 2097 0
-37 -2079 2098 0
-2080 2098 0
-37 -2080 2099 0
-2081 2099 0
-37 -2081 2100 0
-2082 2100 0
-37 -2082 2101 0
-2083 2101 0
-37 -2083 2102 0
-2084 2102 0
-37 -2084 2103 0
-2085 2103 0
-37 -2085 2104 0
-2086 2104 0
-37 -2086 2105 0
-2087 2105 0
-37 -2087 2106 0
-2088 2106 0
-37 -2088 2107 0
-2089 2107 0
-37 -2089 2108 0
-2090 2108 0
-37 -2090 2109 0
-2091 2109 0
-37 -2091 2110 0
-2092 2110 0
-37 -2092 2111 0
-2093 2111 0
-37 -2093 2112 0
-2094 2112 0
-37 -2094 2113 0
-2095 2113 0
-37 -2095 2114 0
-2096 2114 0
-37 -2096 0
-38 2115 0
-2097 2115 0
-38 -2097 2116 0
-2098 2116 0
-38 -2098 2117 0
-2099 2117 0
-38 -2099 2118 0
-2100 2118 0
-38 -2100 2119 0
-2101 2119 0
-38 -2101 2120 0
-2102 2120 0
-38 -2102 2121 0
-2103 2121 0
-38 -2103 2122 0
-2104 2122 0
-38 -2104 2123 0
-2105 2123 0
-38 -2105 2124 0
-2106 2124 0
-38 -2106 2125 0
-2107 2125 0
-38 -2107 2126 0
-2108 2126 0
-38 -2108 2127 0
-2109 2127 0
-38 -2109 2128 0
-2110 2128 0
-38 -2110 2129 0
-2111 2129 0
-38 -2111 2130 0
-2112 2130 0
-38 -2112 2131 0
-2113 2131 0
-38 -2113 2132 0
-2114 2132 0
-38 -2114 0
-39 2133 0
-2115 2133 0
-39 -2115 2134 0
-2116 2134 0
-39 -2116 2135 0
-2117 2135 0
-39 -2117 2136 0
-2118 2136 0
-39 -2118 2137 0
-2119 2137 0
-39 -2119 2138 0
-2120 2138 0
-39 -2120 2139 0
-2121 2139 0
-39 -2121 2140 0
-2122 2140 0
-39 -2122 2141 0
-2123 2141 0
-39 -2123 2142 0
-2124 2142 0
-39 -2124 2143 0
-2125 2143 0
-39 -2125 2144 0
-2126 2144 0
-39 -2126 2145 0
-2127 2145 0
-39 -2127 2146 0
-2128 2146 0
-39 -2128 2147 0
-2129 2147 0
-39 -2129 2148 0
-2130 2148 0
-39 -2130 2149 0
-2131 2149 0
-39 -2131 2150 0
-2132 2150 0
-39 -2132 0
-40 2151 0
-2133 2151 0
-40 -2133 2152 0
-2134 2152 0
-40 -2134 2153 0
-2135 2153 0
-40 -2135 2154 0
-2136 2154 0
-40 -2136 2155 0
-2137 2155 0
-40 -2137 2156 0
-2138 2156 0
-40 -2138 2157 0
-2139 2157 0
-40 -2139 2158 0
-2140 2158 0
-40 -2140 2159 0
-2141 2159 0
-40 -2141 2160 0
-2142 2160 0
-40 -2142 2161 0
-2143 2161 0
-40 -2143 2162 0
-2144 2162 0
-40 -2144 2163 0
-2145 2163 0
-40 -2145 2164 0
-2146 2164 0
-40 -2146 2165 0
-2147 2165 0
-40 -2147 2166 0
-2148 2166 0
-40 -2148 2167 0
-2149 2167 0
-40 -2149 2168 0
-2150 2168 0
-40 -2150 0
-41 2169 0
-2151 2169 0
-41 -2151 2170 0
-2152 2170 0
-41 -2152 2171 0
-2153 2171 0
-41 -2153 2172 0
-2154 2172 0
-41 -2154 2173 0
-2155 2173 0
-41 -2155 2174 0
-2156 2174 0
-41 -2156 2175 0
-2157 2175 0
-41 -2157 2176 0
-2158 2176 0
-41 -2158 2177 0
-2159 2177 0
-41 -2159 2178 0
-2160 2178 0
-41 -2160 2179 0
-2161 2179 0
-41 -2161 2180 0
-2162 2180 0
-41 -2162 2181 0
-2163 2181 0
-41 -2163 2182 0
-2164 2182 0
-41 -2164 2183 0
-2165 2183 0
-41 -2165 2184 0
-2166 2184 0
-41 -2166 2185 0
-2167 2185 0
-41 -2167 2186 0
-2168 2186 0
-41 -2168 0
-42 2187 0
-2169 2187 0
-42 -2169 2188 0
-2170 2188 0
-42 -2170 2189 0
-2171 2189 0
-42 -2171 2190 0
-2172 2190 0
-42 -2172 2191 0
-2173 2191 0
-42 -2173 2192 0
-2174 2192 0
-42 -2174 2193 0
-2175 2193 0
-42 -2175 2194 0
-2176 2194 0
-42 -2176 2195 0
-2177 2195 0
-42 -2177 2196 0
-2178 2196 0
-42 -2178 2197 0
-2179 2197 0
-42 -2179 2198 0
-2180 2198 0
-42 -2180 2199 0
-2181 2199 0
-42 -2181 2200 0
-2182 2200 0
-42 -2182 2201 0
-2183 2201 0
-42 -2183 2202 0
-2184 2202 0
-42 -2184 2203 0
-2185 2203 0
-42 -2185 2204 0
-2186 2204 0
-42 -2186 0
-43 2205 0
-2187 2205 0
-43 -2187 2206 0
-2188 2206 0
-43 -2188 2207 0
-2189 2207 0
-43 -2189 2208 0
-2190 2208 0
-43 -2190 2209 0
-2191 2209 0
-43 -2191 2210 0
-2192 2210 0
-43 -2192 2211 0
-2193 2211 0
-43 -2193 2212 0
-2194 2212 0
-43 -2194 2213 0
-2195 2213 0
-43 -2195 2214 0
-2196 2214 0
-43 -2196 2215 0
-2197 2215 0
-43 -2197 2216 0
-2198 2216 0
-43 -2198 2217 0
-2199 2217 0
-43 -2199 2218 0
-2200 2218 0
-43 -2200 2219 0
-2201 2219 0
-43 -2201 2220 0
-2202 2220 0
-43 -2202 2221 0
-2203 2221 0
-43 -2203 2222 0
-2204 2222 0
-43 -2204 0
-44 2223 0
-2205 2223 0
-44 -2205 2224 0
-2206 2224 0
-44 -2206 2225 0
-2207 2225 0
-44 -2207 2226 0
-2208 2226 0
-44 -2208 2227 0
-2209 2227 0
-44 -2209 2228 0
-2210 2228 0
-44 -2210 2229 0
-2211 2229 0
-44 -2211 2230 0
-2212 2230 0
-44 -2212 2231 0
-2213 2231 0
-44 -2213 2232 0
-2214 2232 0
-44 -2214 2233 0
-2215 2233 0
-44 -2215 2234 0
-2216 2234 0
-44 -2216 2235 0
-2217 2235 0
-44 -2217 2236 0
-2218 2236 0
-44 -2218 2237 0
-2219 2237 0
-44 -2219 2238 0
-2220 2238 0
-44 -2220 2239 0
-2221 2239 0
-44 -2221 2240 0
-2222 2240 0
-44 -2222 0
-45 2241 0
-2223 2241 0
-45 -2223 2242 0
-2224 2242 0
-45 -2224 2243 0
-2225 2243 0
-45 -2225 2244 0
-2226 2244 0
-45 -2226 2245 0
-2227 2245 0
-45 -2227 2246 0
-2228 2246 0
-45 -2228 2247 0
-2229 2247 0
-45 -2229 2248 0
-2230 2248 0
-45 -2230 2249 0
-2231 2249 0
-45 -2231 2250 0
-2232 2250 0
-45 -2232 2251 0
-2233 2251 0
-45 -2233 2252 0
-2234 2252 0
-45 -2234 2253 0
-2235 2253 0
-45 -2235 2254 0
-2236 2254 0
-45 -2236 2255 0
-2237 2255 0
-45 -2237 2256 0
-2238 2256 0
-45 -2238 2257 0
-2239 2257 0
-45 -2239 2258 0
-2240 2258 0
-45 -2240 0
-46 2259 0
-2241 2259 0
-46 -2241 2260 0
-2242 2260 0
-46 -2242 2261 0
-2243 2261 0
-46 -2243 2262 0
-2244 2262 0
-46 -2244 2263 0
-2245 2263 0
-46 -2245 2264 0
-2246 2264 0
-46 -2246 2265 0
-2247 2265 0
-46 -2247 2266 0
-2248 2266 0
-46 -2248 2267 0
-2249 2267 0
-46 -2249 2268 0
-2250 2268 0
-46 -2250 2269 0
-2251 2269 0
-46 -2251 2270 0
-2252 2270 0
-46 -2252 2271 0
-2253 2271 0
-46 -2253 2272 0
-2254 2272 0
-46 -2254 2273 0
-2255 2273 0
-46 -2255 2274 0
-2256 2274 0
-46 -2256 2275 0
-2257 2275 0
-46 -2257 2276 0
-2258 2276 0
-46 -2258 0
-47 2277 0
-2259 2277 0
-47 -2259 2278 0
-2260 2278 0
-47 -2260 2279 0
-2261 2279 0
-47 -2261 2280 0
-2262 2280 0
-47 -2262 2281 0
-2263 2281 0
-47 -2263 2282 0
-2264 2282 0
-47 -2264 2283 0
-2265 2283 0
-47 -2265 2284 0
-2266 2284 0
-47 -2266 2285 0
-2267 2285 0
-47 -2267 2286 0
-2268 2286 0
-47 -2268 2287 0
-2269 2287 0
-47 -2269 2288 0
-2270 2288 0
-47 -2270 2289 0
-2271 2289 0
-47 -2271 2290 0
-2272 2290 0
-47 -2272 2291 0
-2273 2291 0
-47 -2273 2292 0
-2274 2292 0
-47 -2274 2293 0
-2275 2293 0
-47 -2275 2294 0
-2276 2294 0
-47 -2276 0
-48 2295 0
-2277 2295 0
-48 -2277 2296 0
-2278 2296 0
-48 -2278 2297 0
-2279 2297 0
-48 -2279 2298 0
-2280 2298 0
-48 -2280 2299 0
-2281 2299 0
-48 -2281 2300 0
-2282 2300 0
-48 -2282 2301 0
-2283 2301 0
-48 -2283 2302 0
-2284 2302 0
-48 -2284 2303 0
-2285 2303 0
-48 -2285 2304 0
-2286 2304 0
-48 -2286 2305 0
-2287 2305 0
-48 -2287 2306 0
-2288 2306 0
-48 -2288 2307 0
-2289 2307 0
-48 -2289 2308 0
-2290 2308 0
-48 -2290 2309 0
-2291 2309 0
-48 -2291 2310 0
-2292 2310 0
-48 -2292 2311 0
-2293 2311 0
-48 -2293 2312 0
-2294 2312 0
-48 -2294 0
-49 2313 0
-2295 2313 0
-49 -2295 2314 0
-2296 2314 0
-49 -2296 2315 0
-2297 2315 0
-49 -2297 2316 0
-2298 2316 0
-49 -2298 2317 0
-2299 2317 0
-49 -2299 2318 0
-2300 2318 0
-49 -2300 2319 0
-2301 2319 0
-49 -2301 2320 0
-2302 2320 0
-49 -2302 2321 0
-2303 2321 0
-49 -2303 2322 0
-2304 2322 0
-49 -2304 2323 0
-2305 2323 0
-49 -2305 2324 0
-2306 2324 0
-49 -2306 2325 0
-2307 2325 0
-49 -2307 2326 0
-2308 2326 0
-49 -2308 2327 0
-2309 2327 0
-49 -2309 2328 0
-2310 2328 0
-49 -2310 2329 0
-2311 2329 0
-49 -2311 2330 0
-2312 2330 0
-49 -2312 0
-50 2331 0
-2313 2331 0
-50 -2313 2332 0
-2314 2332 0
-50 -2314 2333 0
-2315 2333 0
-50 -2315 2334 0
-2316 2334 0
-50 -2316 2335 0
-2317 2335 0
-50 -2317 2336 0
-2318 2336 0
-50 -2318 2337 0
-2319 2337 0
-50 -2319 2338 0
-2320 2338 0
-50 -2320 2339 0
-2321 2339 0
-50 -2321 2340 0
-2322 2340 0
-50 -2322 2341 0
-2323 2341 0
-50 -2323 2342 0
-2324 2342 0
-50 -2324 2343 0
-2325 2343 0
-50 -2325 2344 0
-2326 2344 0
-50 -2326 2345 0
-2327 2345 0
-50 -2327 2346 0
-2328 2346 0
-50 -2328 2347 0
-2329 2347 0
-50 -2329 2348 0
-2330 2348 0
-50 -2330 0
-51 2349 0
-2331 2349 0
-51 -2331 2350 0
-2332 2350 0
-51 -2332 2351 0
-2333 2351 0
-51 -2333 2352 0
-2334 2352 0
-51 -2334 2353 0
-2335 2353 0
-51 -2335 2354 0
-2336 2354 0
-51 -2336 2355 0
-2337 2355 0
-51 -2337 2356 0
-2338 2356 0
-51 -2338 2357 0
-2339 2357 0
-51 -2339 2358 0
-2340 2358 0
-51 -2340 2359 0
-2341 2359 0
-51 -2341 2360 0
-2342 2360 0
-51 -2342 2361 0
-2343 2361 0
-51 -2343 2362 0
-2344 2362 0
-51 -2344 2363 0
-2345 2363 0
-51 -2345 2364 0
-2346 2364 0
-51 -2346 2365 0
-2347 2365 0
-51 -2347 2366 0
-2348 2366 0
-51 -2348 0
-52 2367 0
-2349 2367 0
-52 -2349 2368 0
-2350 2368 0
-52 -2350 2369 0
-2351 2369 0
-52 -2351 2370 0
-2352 2370 0
-52 -2352 2371 0
-2353 2371 0
-52 -2353 2372 0
-2354 2372 0
-52 -2354 2373 0
-2355 2373 0
-52 -2355 2374 0
-2356 2374 0
-52 -2356 2375 0
-2357 2375 0
-52 -2357 2376 0
-2358 2376 0
-52 -2358 2377 0
-2359 2377 0
-52 -2359 2378 0
-2360 2378 0
-52 -2360 2379 0
-2361 2379 0
-52 -2361 2380 0
-2362 2380 0
-52 -2362 2381 0
-2363 2381 0
-52 -2363 2382 0
-2364 2382 0
-52 -2364 2383 0
-2365 2383 0
-52 -2365 2384 0
-2366 2384 0
-52 -2366 0
-53 2385 0
-2367 2385 0
-53 -2367 2386 0
-2368 2386 0
-53 -2368 2387 0
-2369 2387 0
-53 -2369 2388 0
-2370 2388 0
-53 -2370 2389 0
-2371 2389 0
-53 -2371 2390 0
-2372 2390 0
-53 -2372 2391 0
-2373 2391 0
-53 -2373 2392 0
-2374 2392 0
-53 -2374 2393 0
-2375 2393 0
-53 -2375 2394 0
-2376 2394 0
-53 -2376 2395 0
-2377 2395 0
-53 -2377 2396 0
-2378 2396 0
-53 -2378 2397 0
-2379 2397 0
-53 -2379 2398 0
-2380 2398 0
-53 -2380 2399 0
-2381 2399 0
-53 -2381 2400 0
-2382 2400 0
-53 -2382 2401 0
-2383 2401 0
-53 -2383 2402 0
-2384 2402 0
-53 -2384 0
-54 2403 0
-2385 2403 0
-54 -2385 2404 0
-2386 2404 0
-54 -2386 2405 0
-2387 2405 0
-54 -2387 2406 0
-2388 2406 0
-54 -2388 2407 0
-2389 2407 0
-54 -2389 2408 0
-2390 2408 0
-54 -2390 2409 0
-2391 2409 0
-54 -2391 2410 0
-2392 2410 0
-54 -2392 2411 0
-2393 2411 0
-54 -2393 2412 0
-2394 2412 0
-54 -2394 2413 0
-2395 2413 0
-54 -2395 2414 0
-2396 2414 0
-54 -2396 2415 0
-2397 2415 0
-54 -2397 2416 0
-2398 2416 0
-54 -2398 2417 0
-2399 2417 0
-54 -2399 2418 0
-2400 2418 0
-54 -2400 2419 0
-2401 2419 0
-54 -2401 2420 0
-2402 2420 0
-54 -2402 0
-55 2421 0
-2403 2421 0
-55 -2403 2422 0
-2404 2422 0
-55 -2404 2423 0
-2405 2423 0
-55 -2405 2424 0
-2406 2424 0
-55 -2406 2425 0
-2407 2425 0
-55 -2407 2426 0
-2408 2426 0
-55 -2408 2427 0
-2409 2427 0
-55 -2409 2428 0
-2410 2428 0
-55 -2410 2429 0
-2411 2429 0
-55 -2411 2430 0
-2412 2430 0
-55 -2412 2431 0
-2413 2431 0
-55 -2413 2432 0
-2414 2432 0
-55 -2414 2433 0
-2415 2433 0
-55 -2415 2434 0
-2416 2434 0
-55 -2416 2435 0
-2417 2435 0
-55 -2417 2436 0
-2418 2436 0
-55 -2418 2437 0
-2419 2437 0
-55 -2419 2438 0
-2420 2438 0
-55 -2420 0
-56 2439 0
-2421 2439 0
-56 -2421 2440 0
-2422 2440 0
-56 -2422 2441 0
-2423 2441 0
-56 -2423 2442 0
-2424 2442 0
-56 -2424 2443 0
-2425 2443 0
-56 -2425 2444 0
-2426 2444 0
-56 -2426 2445 0
-2427 2445 0
-56 -2427 2446 0
-2428 2446 0
-56 -2428 2447 0
-2429 2447 0
-56 -2429 2448 0
-2430 2448 0
-56 -2430 2449 0
-2431 2449 0
-56 -2431 2450 0
-2432 2450 0
-56 -2432 2451 0
-2433 2451 0
-56 -2433 2452 0
-2434 2452 0
-56 -2434 2453 0
-2435 2453 0
-56 -2435 2454 0
-2436 2454 0
-56 -2436 2455 0
-2437 2455 0
-56 -2437 2456 0
-2438 2456 0
-56 -2438 0
-57 2457 0
-2439 2457 0
-57 -2439 2458 0
-2440 2458 0
-57 -2440 2459 0
-2441 2459 0
-57 -2441 2460 0
-2442 2460 0
-57 -2442 2461 0
-2443 2461 0
-57 -2443 2462 0
-2444 2462 0
-57 -2444 2463 0
-2445 2463 0
-57 -2445 2464 0
-2446 2464 0
-57 -2446 2465 0
-2447 2465 0
-57 -2447 2466 0
-2448 2466 0
-57 -2448 2467 0
-2449 2467 0
-57 -2449 2468 0
-2450 2468 0
-57 -2450 2469 0
-2451 2469 0
-57 -2451 2470 0
-2452 2470 0
-57 -2452 2471 0
-2453 2471 0
-57 -2453 2472 0
-2454 2472 0
-57 -2454 2473 0
-2455 2473 0
-57 -2455 2474 0
-2456 2474 0
-57 -2456 0
-58 2475 0
-2457 2475 0
-58 -2457 2476 0
-2458 2476 0
-58 -2458 2477 0
-2459 2477 0
-58 -2459 2478 0
-2460 2478 0
-58 -2460 2479 0
-2461 2479 0
-58 -2461 2480 0
-2462 2480 0
-58 -2462 2481 0
-2463 2481 0
-58 -2463 2482 0
-2464 2482 0
-58 -2464 2483 0
-2465 2483 0
-58 -2465 2484 0
-2466 2484 0
-58 -2466 2485 0
-2467 2485 0
-58 -2467 2486 0
-2468 2486 0
-58 -2468 2487 0
-2469 2487 0
-58 -2469 2488 0
-2470 2488 0
-58 -2470 2489 0
-2471 2489 0
-58 -2471 2490 0
-2472 2490 0
-58 -2472 2491 0
-2473 2491 0
-58 -2473 2492 0
-2474 2492 0
-58 -2474 0
-59 2493 0
-2475 2493 0
-59 -2475 2494 0
-2476 2494 0
-59 -2476 2495 0
-2477 2495 0
-59 -2477 2496 0
-2478 2496 0
-59 -2478 2497 0
-2479 2497 0
-59 -2479 2498 0
-2480 2498 0
-59 -2480 2499 0
-2481 2499 0
-59 -2481 2500 0
-2482 2500 0
-59 -2482 2501 0
-2483 2501 0
-59 -2483 2502 0
-2484 2502 0
-59 -2484 2503 0
-2485 2503 0
-59 -2485 2504 0
-2486 2504 0
-59 -2486 2505 0
-2487 2505 0
-59 -2487 2506 0
-2488 2506 0
-59 -2488 2507 0
-2489 2507 0
-59 -2489 2508 0
-2490 2508 0
-59 -2490 2509 0
-2491 2509 0
-59 -2491 2510 0
-2492 2510 0
-59 -2492 0
-60 2511 0
-2493 2511 0
-60 -2493 2512 0
-2494 2512 0
-60 -2494 2513 0
-2495 2513 0
-60 -2495 2514 0
-2496 2514 0
-60 -2496 2515 0
-2497 2515 0
-60 -2497 2516 0
-2498 2516 0
-60 -2498 2517 0
-2499 2517 0
-60 -2499 2518 0
-2500 2518 0
-60 -2500 2519 0
-2501 2519 0
-60 -2501 2520 0
-2502 2520 0
-60 -2502 2521 0
-2503 2521 0
-60 -2503 2522 0
-2504 2522 0
-60 -2504 2523 0
-2505 2523 0
-60 -2505 2524 0
-2506 2524 0
-60 -2506 2525 0
-2507 2525 0
-60 -2507 2526 0
-2508 2526 0
-60 -2508 2527 0
-2509 2527 0
-60 -2509 2528 0
-2510 2528 0
-60 -2510 0
-61 2529 0
-2511 2529 0
-61 -2511 2530 0
-2512 2530 0
-61 -2512 2531 0
-2513 2531 0
-61 -2513 2532 0
-2514 2532 0
-61 -2514 2533 0
-2515 2533 0
-61 -2515 2534 0
-2516 2534 0
-61 -2516 2535 0
-2517 2535 0
-61 -2517 2536 0
-2518 2536 0
-61 -2518 2537 0
-2519 2537 0
-61 -2519 2538 0
-2520 2538 0
-61 -2520 2539 0
-2521 2539 0
-61 -2521 2540 0
-2522 2540 0
-61 -2522 2541 0
-2523 2541 0
-61 -2523 2542 0
-2524 2542 0
-61 -2524 2543 0
-2525 2543 0
-61 -2525 2544 0
-2526 2544 0
-61 -2526 2545 0
-2527 2545 0
-61 -2527 2546 0
-2528 2546 0
-61 -2528 0
-62 2547 0
-2529 2547 0
-62 -2529 2548 0
-2530 2548 0
-62 -2530 2549 0
-2531 2549 0
-62 -2531 2550 0
-2532 2550 0
-62 -2532 2551 0
-2533 2551 0
-62 -2533 2552 0
-2534 2552 0
-62 -2534 2553 0
-2535 2553 0
-62 -2535 2554 0
-2536 2554 0
-62 -2536 2555 0
-2537 2555 0
-62 -2537 2556 0
-2538 2556 0
-62 -2538 2557 0
-2539 2557 0
-62 -2539 2558 0
-2540 2558 0
-62 -2540 2559 0
-2541 2559 0
-62 -2541 2560 0
-2542 2560 0
-62 -2542 2561 0
-2543 2561 0
-62 -2543 2562 0
-2544 2562 0
-62 -2544 2563 0
-2545 2563 0
-62 -2545 2564 0
-2546 2564 0
-62 -2546 0
-63 2565 0
-2547 2565 0
-63 -2547 2566 0
-2548 2566 0
-63 -2548 2567 0
-2549 2567 0
-63 -2549 2568 0
-2550 2568 0
-63 -2550 2569 0
-2551 2569 0
-63 -2551 2570 0
-2552 2570 0
-63 -2552 2571 0
-2553 2571 0
-63 -2553 2572 0
-2554 2572 0
-63 -2554 2573 0
-2555 2573 0
-63 -2555 2574 0
-2556 2574 0
-63 -2556 2575 0
-2557 2575 0
-63 -2557 2576 0
-2558 2576 0
-63 -2558 2577 0
-2559 2577 0
-63 -2559 2578 0
-2560 2578 0
-63 -2560 2579 0
-2561 2579 0
-63 -2561 2580 0
-2562 2580 0
-63 -2562 2581 0
-2563 2581 0
-63 -2563 2582 0
-2564 2582 0
-63 -2564 0
-64 2583 0
-2565 2583 0
-64 -2565 2584 0
-2566 2584 0
-64 -2566 2585 0
-2567 2585 0
-64 -2567 2586 0
-2568 2586 0
-64 -2568 2587 0
-2569 2587 0
-64 -2569 2588 0
-2570 2588 0
-64 -2570 2589 0
-2571 2589 0
-64 -2571 2590 0
-2572 2590 0
-64 -2572 2591 0
-2573 2591 0
-64 -2573 2592 0
-2574 2592 0
-64 -2574 2593 0
-2575 2593 0
-64 -2575 2594 0
-2576 2594 0
-64 -2576 2595 0
-2577 2595 0
-64 -2577 2596 0
-2578 2596 0
-64 -2578 2597 0
-2579 2597 0
-64 -2579 2598 0
-2580 2598 0
-64 -2580 2599 0
-2581 2599 0
-64 -2581 2600 0
-2582 2600 0
-64 -2582 0
-65 2601 0
-2583 2601 0
-65 -2583 2602 0
-2584 2602 0
-65 -2584 2603 0
-2585 2603 0
-65 -2585 2604 0
-2586 2604 0
-65 -2586 2605 0
-2587 2605 0
-65 -2587 2606 0
-2588 2606 0
-65 -2588 2607 0
-2589 2607 0
-65 -2589 2608 0
-2590 2608 0
-65 -2590 2609 0
-2591 2609 0
-65 -2591 2610 0
-2592 2610 0
-65 -2592 2611 0
-2593 2611 0
-65 -2593 2612 0
-2594 2612 0
-65 -2594 2613 0
-2595 2613 0
-65 -2595 2614 0
-2596 2614 0
-65 -2596 2615 0
-2597 2615 0
-65 -2597 2616 0
-2598 2616 0
-65 -2598 2617 0
-2599 2617 0
-65 -2599 2618 0
-2600 2618 0
-65 -2600 0
-66 2619 0
-2601 2619 0
-66 -2601 2620 0
-2602 2620 0
-66 -2602 2621 0
-2603 2621 0
-66 -2603 2622 0
-2604 2622 0
-66 -2604 2623 0
-2605 2623 0
-66 -2605 2624 0
-2606 2624 0
-66 -2606 2625 0
-2607 2625 0
-66 -2607 2626 0
-2608 2626 0
-66 -2608 2627 0
-2609 2627 0
-66 -2609 2628 0
-2610 2628 0
-66 -2610 2629 0
-2611 2629 0
-66 -2611 2630 0
-2612 2630 0
-66 -2612 2631 0
-2613 2631 0
-66 -2613 2632 0
-2614 2632 0
-66 -2614 2633 0
-2615 2633 0
-66 -2615 2634 0
-2616 2634 0
-66 -2616 2635 0
-2617 2635 0
-66 -2617 2636 0
-2618 2636 0
-66 -2618 0
-67 2637 0
-2619 2637 0
-67 -2619 2638 0
-2620 2638 0
-67 -2620 2639 0
-2621 2639 0
-67 -2621 2640 0
-2622 2640 0
-67 -2622 2641 0
-2623 2641 0
-67 -2623 2642 0
-2624 2642 0
-67 -2624 2643 0
-2625 2643 0
-67 -2625 2644 0
-2626 2644 0
-67 -2626 2645 0
-2627 2645 0
-67 -2627 2646 0
-2628 2646 0
-67 -2628 2647 0
-2629 2647 0
-67 -2629 2648 0
-2630 2648 0
-67 -2630 2649 0
-2631 2649 0
-67 -2631 2650 0
-2632 2650 0
-67 -2632 2651 0
-2633 2651 0
-67 -2633 2652 0
-2634 2652 0
-67 -2634 2653 0
-2635 2653 0
-67 -2635 2654 0
-2636 2654 0
-67 -2636 0
-68 2655 0
-2637 2655 0
-68 -2637 2656 0
-2638 2656 0
-68 -2638 2657 0
-2639 2657 0
-68 -2639 2658 0
-2640 2658 0
-68 -2640 2659 0
-2641 2659 0
-68 -2641 2660 0
-2642 2660 0
-68 -2642 2661 0
-2643 2661 0
-68 -2643 2662 0
-2644 2662 0
-68 -2644 2663 0
-2645 2663 0
-68 -2645 2664 0
-2646 2664 0
-68 -2646 2665 0
-2647 2665 0
-68 -2647 2666 0
-2648 2666 0
-68 -2648 2667 0
-2649 2667 0
-68 -2649 2668 0
-2650 2668 0
-68 -2650 2669 0
-2651 2669 0
-68 -2651 2670 0
-2652 2670 0
-68 -2652 2671 0
-2653 2671 0
-68 -2653 2672 0
-2654 2672 0
-68 -2654 0
-69 2673 0
-2655 2673 0
-69 -2655 2674 0
-2656 2674 0
-69 -2656 2675 0
-2657 2675 0
-69 -2657 2676 0
-2658 2676 0
-69 -2658 2677 0
-2659 2677 0
-69 -2659 2678 0
-2660 2678 0
-69 -2660 2679 0
-2661 2679 0
-69 -2661 2680 0
-2662 2680 0
-69 -2662 2681 0
-2663 2681 0
-69 -2663 2682 0
-2664 2682 0
-69 -2664 2683 0
-2665 2683 0
-69 -2665 2684 0
-2666 2684 0
-69 -2666 2685 0
-2667 2685 0
-69 -2667 2686 0
-2668 2686 0
-69 -2668 2687 0
-2669 2687 0
-69 -2669 2688 0
-2670 2688 0
-69 -2670 2689 0
-2671 2689 0
-69 -2671 2690 0
-2672 2690 0
-69 -2672 0
-70 2691 0
-2673 2691 0
-70 -2673 2692 0
-2674 2692 0
-70 -2674 2693 0
-2675 2693 0
-70 -2675 2694 0
-2676 2694 0
-70 -2676 2695 0
-2677 2695 0
-70 -2677 2696 0
-2678 2696 0
-70 -2678 2697 0
-2679 2697 0
-70 -2679 2698 0
-2680 2698 0
-70 -2680 2699 0
-2681 2699 0
-70 -2681 2700 0
-2682 2700 0
-70 -2682 2701 0
-2683 2701 0
-70 -2683 2702 0
-2684 2702 0
-70 -2684 2703 0
-2685 2703 0
-70 -2685 2704 0
-2686 2704 0
-70 -2686 2705 0
-2687 2705 0
-70 -2687 2706 0
-2688 2706 0
-70 -2688 2707 0
-2689 2707 0
-70 -2689 2708 0
-2690 2708 0
-70 -2690 0
-71 2709 0
-2691 2709 0
-71 -2691 2710 0
-2692 2710 0
-71 -2692 2711 0
-2693 2711 0
-71 -2693 2712 0
-2694 2712 0
-71 -2694 2713 0
-2695 2713 0
-71 -2695 2714 0
-2696 2714 0
-71 -2696 2715 0
-2697 2715 0
-71 -2697 2716 0
-2698 2716 0
-71 -2698 2717 0
-2699 2717 0
-71 -2699 2718 0
-2700 2718 0
-71 -2700 2719 0
-2701 2719 0
-71 -2701 2720 0
-2702 2720 0
-71 -2702 2721 0
-2703 2721 0
-71 -2703 2722 0
-2704 2722 0
-71 -2704 2723 0
-2705 2723 0
-71 -2705 2724 0
-2706 2724 0
-71 -2706 2725 0
-2707 2725 0
-71 -2707 2726 0
-2708 2726 0
-71 -2708 0
-72 2727 0
-2709 2727 0
-72 -2709 2728 0
-2710 2728 0
-72 -2710 2729 0
-2711 2729 0
-72 -2711 2730 0
-2712 2730 0
-72 -2712 2731 0
-2713 2731 0
-72 -2713 2732 0
-2714 2732 0
-72 -2714 2733 0
-2715 2733 0
-72 -2715 2734 0
-2716 2734 0
-72 -2716 2735 0
-2717 2735 0
-72 -2717 2736 0
-2718 2736 0
-72 -2718 2737 0
-2719 2737 0
-72 -2719 2738 0
-2720 2738 0
-72 -2720 2739 0
-2721 2739 0
-72 -2721 2740 0
-2722 2740 0
-72 -2722 2741 0
-2723 2741 0
-72 -2723 2742 0
-2724 2742 0
-72 -2724 2743 0
-2725 2743 0
-72 -2725 2744 0
-2726 2744 0
-72 -2726 0
-73 2745 0
-2727 2745 0
-73 -2727 2746 0
-2728 2746 0
-73 -2728 2747 0
-2729 2747 0
-73 -2729 2748 0
-2730 2748 0
-73 -2730 2749 0
-2731 2749 0
-73 -2731 2750 0
-2732 2750 0
-73 -2732 2751 0
-2733 2751 0
-73 -2733 2752 0
-2734 2752 0
-73 -2734 2753 0
-2735 2753 0
-73 -2735 2754 0
-2736 2754 0
-73 -2736 2755 0
-2737 2755 0
-73 -2737 2756 0
-2738 2756 0
-73 -2738 2757 0
-2739 2757 0
-73 -2739 2758 0
-2740 2758 0
-73 -2740 2759 0
-2741 2759 0
-73 -2741 2760 0
-2742 2760 0
-73 -2742 2761 0
-2743 2761 0
-73 -2743 2762 0
-2744 2762 0
-73 -2744 0
-74 2763 0
-2745 2763 0
-74 -2745 2764 0
-2746 2764 0
-74 -2746 2765 0
-2747 2765 0
-74 -2747 2766 0
-2748 2766 0
-74 -2748 2767 0
-2749 2767 0
-74 -2749 2768 0
-2750 2768 0
-74 -2750 2769 0
-2751 2769 0
-74 -2751 2770 0
-2752 2770 0
-74 -2752 2771 0
-2753 2771 0
-74 -2753 2772 0
-2754 2772 0
-74 -2754 2773 0
-2755 2773 0
-74 -2755 2774 0
-2756 2774 0
-74 -2756 2775 0
-2757 2775 0
-74 -2757 2776 0
-2758 2776 0
-74 -2758 2777 0
-2759 2777 0
-74 -2759 2778 0
-2760 2778 0
-74 -2760 2779 0
-2761 2779 0
-74 -2761 2780 0
-2762 2780 0
-74 -2762 0
-75 2781 0
-2763 2781 0
-75 -2763 2782 0
-2764 2782 0
-75 -2764 2783 0
-2765 2783 0
-75 -2765 2784 0
-2766 2784 0
-75 -2766 2785 0
-2767 2785 0
-75 -2767 2786 0
-2768 2786 0
-75 -2768 2787 0
-2769 2787 0
-75 -2769 2788 0
-2770 2788 0
-75 -2770 2789 0
-2771 2789 0
-75 -2771 2790 0
-2772 2790 0
-75 -2772 2791 0
-2773 2791 0
-75 -2773 2792 0
-2774 2792 0
-75 -2774 2793 0
-2775 2793 0
-75 -2775 2794 0
-2776 2794 0
-75 -2776 2795 0
-2777 2795 0
-75 -2777 2796 0
-2778 2796 0
-75 -2778 2797 0
-2779 2797 0
-75 -2779 2798 0
-2780 2798 0
-75 -2780 0
-76 2799 0
-2781 2799 0
-76 -2781 2800 0
-2782 2800 0
-76 -2782 2801 0
-2783 2801 0
-76 -2783 2802 0
-2784 2802 0
-76 -2784 2803 0
-2785 2803 0
-76 -2785 2804 0
-2786 2804 0
-76 -2786 2805 0
-2787 2805 0
-76 -2787 2806 0
-2788 2806 0
-76 -2788 2807 0
-2789 2807 0
-76 -2789 2808 0
-2790 2808 0
-76 -2790 2809 0
-2791 2809 0
-76 -2791 2810 0
-2792 2810 0
-76 -2792 2811 0
-2793 2811 0
-76 -2793 2812 0
-2794 2812 0
-76 -2794 2813 0
-2795 2813 0
-76 -2795 2814 0
-2796 2814 0
-76 -2796 2815 0
-2797 2815 0
-76 -2797 2816 0
-2798 2816 0
-76 -2798 0
-77 2817 0
-2799 2817 0
-77 -2799 2818 0
-2800 2818 0
-77 -2800 2819 0
-2801 2819 0
-77 -2801 2820 0
-2802 2820 0
-77 -2802 2821 0
-2803 2821 0
-77 -2803 2822 0
-2804 2822 0
-77 -2804 2823 0
-2805 2823 0
-77 -2805 2824 0
-2806 2824 0
-77 -2806 2825 0
-2807 2825 0
-77 -2807 2826 0
-2808 2826 0
-77 -2808 2827 0
-2809 2827 0
-77 -2809 2828 0
-2810 2828 0
-77 -2810 2829 0
-2811 2829 0
-77 -2811 2830 0
-2812 2830 0
-77 -2812 2831 0
-2813 2831 0
-77 -2813 2832 0
-2814 2832 0
-77 -2814 2833 0
-2815 2833 0
-77 -2815 2834 0
-2816 2834 0
-77 -2816 0
-78 2835 0
-2817 2835 0
-78 -2817 2836 0
-2818 2836 0
-78 -2818 2837 0
-2819 2837 0
-78 -2819 2838 0
-2820 2838 0
-78 -2820 2839 0
-2821 2839 0
-78 -2821 2840 0
-2822 2840 0
-78 -2822 2841 0
-2823 2841 0
-78 -2823 2842 0
-2824 2842 0
-78 -2824 2843 0
-2825 2843 0
-78 -2825 2844 0
-2826 2844 0
-78 -2826 2845 0
-2827 2845 0
-78 -2827 2846 0
-2828 2846 0
-78 -2828 2847 0
-2829 2847 0
-78 -2829 2848 0
-2830 2848 0
-78 -2830 2849 0
-2831 2849 0
-78 -2831 2850 0
-2832 2850 0
-78 -2832 2851 0
-2833 2851 0
-78 -2833 2852 0
-2834 2852 0
-78 -2834 0
-79 2853 0
-2835 2853 0
-79 -2835 2854 0
-2836 2854 0
-79 -2836 2855 0
-2837 2855 0
-79 -2837 2856 0
-2838 2856 0
-79 -2838 2857 0
-2839 2857 0
-79 -2839 2858 0
-2840 2858 0
-79 -2840 2859 0
-2841 2859 0
-79 -2841 2860 0
-2842 2860 0
-79 -2842 2861 0
-2843 2861 0
-79 -2843 2862 0
-2844 2862 0
-79 -2844 2863 0
-2845 2863 0
-79 -2845 2864 0
-2846 2864 0
-79 -2846 2865 0
-2847 2865 0
-79 -2847 2866 0
-2848 2866 0
-79 -2848 2867 0
-2849 2867 0
-79 -2849 2868 0
-2850 2868 0
-79 -2850 2869 0
-2851 2869 0
-79 -2851 2870 0
-2852 2870 0
-79 -2852 0
-80 2871 0
-2853 2871 0
-80 -2853 2872 0
-2854 2872 0
-80 -2854 2873 0
-2855 2873 0
-80 -2855 2874 0
-2856 2874 0
-80 -2856 2875 0
-2857 2875 0
-80 -2857 2876 0
-2858 2876 0
-80 -2858 2877 0
-2859 2877 0
-80 -2859 2878 0
-2860 2878 0
-80 -2860 2879 0
-2861 2879 0
-80 -2861 2880 0
-2862 2880 0
-80 -2862 2881 0
-2863 2881 0
-80 -2863 2882 0
-2864 2882 0
-80 -2864 2883 0
-2865 2883 0
-80 -2865 2884 0
-2866 2884 0
-80 -2866 2885 0
-2867 2885 0
-80 -2867 2886 0
-2868 2886 0
-80 -2868 2887 0
-2869 2887 0
-80 -2869 2888 0
-2870 2888 0
-80 -2870 0
-81 2889 0
-2871 2889 0
-81 -2871 2890 0
-2872 2890 0
-81 -2872 2891 0
-2873 2891 0
-81 -2873 2892 0
-2874 2892 0
-81 -2874 2893 0
-2875 2893 0
-81 -2875 2894 0
-2876 2894 0
-81 -2876 2895 0
-2877 2895 0
-81 -2877 2896 0
-2878 2896 0
-81 -2878 2897 0
-2879 2897 0
-81 -2879 2898 0
-2880 2898 0
-81 -2880 2899 0
-2881 2899 0
-81 -2881 2900 0
-2882 2900 0
-81 -2882 2901 0
-2883 2901 0
-81 -2883 2902 0
-2884 2902 0
-81 -2884 2903 0
-2885 2903 0
-81 -2885 2904 0
-2886 2904 0
-81 -2886 2905 0
-2887 2905 0
-81 -2887 2906 0
-2888 2906 0
-81 -2888 0
-82 2907 0
-2889 2907 0
-82 -2889 2908 0
-2890 2908 0
-82 -2890 2909 0
-2891 2909 0
-82 -2891 2910 0
-2892 2910 0
-82 -2892 2911 0
-2893 2911 0
-82 -2893 2912 0
-2894 2912 0
-82 -2894 2913 0
-2895 2913 0
-82 -2895 2914 0
-2896 2914 0
-82 -2896 2915 0
-2897 2915 0
-82 -2897 2916 0
-2898 2916 0
-82 -2898 2917 0
-2899 2917 0
-82 -2899 2918 0
-2900 2918 0
-82 -2900 2919 0
-2901 2919 0
-82 -2901 2920 0
-2902 2920 0
-82 -2902 2921 0
-2903 2921 0
-82 -2903 2922 0
-2904 2922 0
-82 -2904 2923 0
-2905 2923 0
-82 -2905 2924 0
-2906 2924 0
-82 -2906 0
-83 2925 0
-2907 2925 0
-83 -2907 2926 0
-2908 2926 0
-83 -2908 2927 0
-2909 2927 0
-83 -2909 2928 0
-2910 2928 0
-83 -2910 2929 0
-2911 2929 0
-83 -2911 2930 0
-2912 2930 0
-83 -2912 2931 0
-2913 2931 0
-83 -2913 2932 0
-2914 2932 0
-83 -2914 2933 0
-2915 2933 0
-83 -2915 2934 0
-2916 2934 0
-83 -2916 2935 0
-2917 2935 0
-83 -2917 2936 0
-2918 2936 0
-83 -2918 2937 0
-2919 2937 0
-83 -2919 2938 0
-2920 2938 0
-83 -2920 2939 0
-2921 2939 0
-83 -2921 2940 0
-2922 2940 0
-83 -2922 2941 0
-2923 2941 0
-83 -2923 2942 0
-2924 2942 0
-83 -2924 0
-84 2943 0
-2925 2943 0
-84 -2925 2944 0
-2926 2944 0
-84 -2926 2945 0
-2927 2945 0
-84 -2927 2946 0
-2928 2946 0
-84 -2928 2947 0
-2929 2947 0
-84 -2929 2948 0
-2930 2948 0
-84 -2930 2949 0
-2931 2949 0
-84 -2931 2950 0
-2932 2950 0
-84 -2932 2951 0
-2933 2951 0
-84 -2933 2952 0
-2934 2952 0
-84 -2934 2953 0
-2935 2953 0
-84 -2935 2954 0
-2936 2954 0
-84 -2936 2955 0
-2937 2955 0
-84 -2937 2956 0
-2938 2956 0
-84 -2938 2957 0
-2939 2957 0
-84 -2939 2958 0
-2940 2958 0
-84 -2940 2959 0
-2941 2959 0
-84 -2941 2960 0
-2942 2960 0
-84 -2942 0
-85 2961 0
-2943 2961 0
-85 -2943 2962 0
-2944 2962 0
-85 -2944 2963 0
-2945 2963 0
-85 -2945 2964 0
-2946 2964 0
-85 -2946 2965 0
-2947 2965 0
-85 -2947 2966 0
-2948 2966 0
-85 -2948 2967 0
-2949 2967 0
-85 -2949 2968 0
-2950 2968 0
-85 -2950 2969 0
-2951 2969 0
-85 -2951 2970 0
-2952 2970 0
-85 -2952 2971 0
-2953 2971 0
-85 -2953 2972 0
-2954 2972 0
-85 -2954 2973 0
-2955 2973 0
-85 -2955 2974 0
-2956 2974 0
-85 -2956 2975 0
-2957 2975 0
-85 -2957 2976 0
-2958 2976 0
-85 -2958 2977 0
-2959 2977 0
-85 -2959 2978 0
-2960 2978 0
-85 -2960 0
-86 2979 0
-2961 2979 0
-86 -2961 2980 0
-2962 2980 0
-86 -2962 2981 0
-2963 2981 0
-86 -2963 2982 0
-2964 2982 0
-86 -2964 2983 0
-2965 2983 0
-86 -2965 2984 0
-2966 2984 0
-86 -2966 2985 0
-2967 2985 0
-86 -2967 2986 0
-2968 2986 0
-86 -2968 2987 0
-2969 2987 0
-86 -2969 2988 0
-2970 2988 0
-86 -2970 2989 0
-2971 2989 0
-86 -2971 2990 0
-2972 2990 0
-86 -2972 2991 0
-2973 2991 0
-86 -2973 2992 0
-2974 2992 0
-86 -2974 2993 0
-2975 2993 0
-86 -2975 2994 0
-2976 2994 0
-86 -2976 2995 0
-2977 2995 0
-86 -2977 2996 0
-2978 2996 0
-86 -2978 0
-87 2997 0
-2979 2997 0
-87 -2979 2998 0
-2980 2998 0
-87 -2980 2999 0
-2981 2999 0
-87 -2981 3000 0
-2982 3000 0
-87 -2982 3001 0
-2983 3001 0
-87 -2983 3002 0
-2984 3002 0
-87 -2984 3003 0
-2985 3003 0
-87 -2985 3004 0
-2986 3004 0
-87 -2986 3005 0
-2987 3005 0
-87 -2987 3006 0
-2988 3006 0
-87 -2988 3007 0
-2989 3007 0
-87 -2989 3008 0
-2990 3008 0
-87 -2990 3009 0
-2991 3009 0
-87 -2991 3010 0
-2992 3010 0
-87 -2992 3011 0
-2993 3011 0
-87 -2993 3012 0
-2994 3012 0
-87 -2994 3013 0
-2995 3013 0
-87 -2995 3014 0
-2996 3014 0
-87 -2996 0
-88 3015 0
-2997 3015 0
-88 -2997 3016 0
-2998 3016 0
-88 -2998 3017 0
-2999 3017 0
-88 -2999 3018 0
-3000 3018 0
-88 -3000 3019 0
-3001 3019 0
-88 -3001 3020 0
-3002 3020 0
-88 -3002 3021 0
-3003 3021 0
-88 -3003 3022 0
-3004 3022 0
-88 -3004 3023 0
-3005 3023 0
-88 -3005 3024 0
-3006 3024 0
-88 -3006 3025 0
-3007 3025 0
-88 -3007 3026 0
-3008 3026 0
-88 -3008 3027 0
-3009 3027 0
-88 -3009 3028 0
-3010 3028 0
-88 -3010 3029 0
-3011 3029 0
-88 -3011 3030 0
-3012 3030 0
-88 -3012 3031 0
-3013 3031 0
-88 -3013 3032 0
-3014 3032 0
-88 -3014 0
-89 3033 0
-3015 3033 0
-89 -3015 3034 0
-3016 3034 0
-89 -3016 3035 0
-3017 3035 0
-89 -3017 3036 0
-3018 3036 0
-89 -3018 3037 0
-3019 3037 0
-89 -3019 3038 0
-3020 3038 0
-89 -3020 3039 0
-3021 3039 0
-89 -3021 3040 0
-3022 3040 0
-89 -3022 3041 0
-3023 3041 0
-89 -3023 3042 0
-3024 3042 0
-89 -3024 3043 0
-3025 3043 0
-89 -3025 3044 0
-3026 3044 0
-89 -3026 3045 0
-3027 3045 0
-89 -3027 3046 0
-3028 3046 0
-89 -3028 3047 0
-3029 3047 0
-89 -3029 3048 0
-3030 3048 0
-89 -3030 3049 0
-3031 3049 0
-89 -3031 3050 0
-3032 3050 0
-89 -3032 0
-90 3051 0
-3033 3051 0
-90 -3033 3052 0
-3034 3052 0
-90 -3034 3053 0
-3035 3053 0
-90 -3035 3054 0
-3036 3054 0
-90 -3036 3055 0
-3037 3055 0
-90 -3037 3056 0
-3038 3056 0
-90 -3038 3057 0
-3039 3057 0
-90 -3039 3058 0
-3040 3058 0
-90 -3040 3059 0
-3041 3059 0
-90 -3041 3060 0
-3042 3060 0
-90 -3042 3061 0
-3043 3061 0
-90 -3043 3062 0
-3044 3062 0
-90 -3044 3063 0
-3045 3063 0
-90 -3045 3064 0
-3046 3064 0
-90 -3046 3065 0
-3047 3065 0
-90 -3047 3066 0
-3048 3066 0
-90 -3048 3067 0
-3049 3067 0
-90 -3049 3068 0
-3050 3068 0
-90 -3050 0
-91 3069 0
-3051 3069 0
-91 -3051 3070 0
-3052 3070 0
-91 -3052 3071 0
-3053 3071 0
-91 -3053 3072 0
-3054 3072 0
-91 -3054 3073 0
-3055 3073 0
-91 -3055 3074 0
-3056 3074 0
-91 -3056 3075 0
-3057 3075 0
-91 -3057 3076 0
-3058 3076 0
-91 -3058 3077 0
-3059 3077 0
-91 -3059 3078 0
-3060 3078 0
-91 -3060 3079 0
-3061 3079 0
-91 -3061 3080 0
-3062 3080 0
-91 -3062 3081 0
-3063 3081 0
-91 -3063 3082 0
-3064 3082 0
-91 -3064 3083 0
-3065 3083 0
-91 -3065 3084 0
-3066 3084 0
-91 -3066 3085 0
-3067 3085 0
-91 -3067 3086 0
-3068 3086 0
-91 -3068 0
-92 3087 0
-3069 3087 0
-92 -3069 3088 0
-3070 3088 0
-92 -3070 3089 0
-3071 3089 0
-92 -3071 3090 0
-3072 3090 0
-92 -3072 3091 0
-3073 3091 0
-92 -3073 3092 0
-3074 3092 0
-92 -3074 3093 0
-3075 3093 0
-92 -3075 3094 0
-3076 3094 0
-92 -3076 3095 0
-3077 3095 0
-92 -3077 3096 0
-3078 3096 0
-92 -3078 3097 0
-3079 3097 0
-92 -3079 3098 0
-3080 3098 0
-92 -3080 3099 0
-3081 3099 0
-92 -3081 3100 0
-3082 3100 0
-92 -3082 3101 0
-3083 3101 0
-92 -3083 3102 0
-3084 3102 0
-92 -3084 3103 0
-3085 3103 0
-92 -3085 3104 0
-3086 3104 0
-92 -3086 0
-93 3105 0
-3087 3105 0
-93 -3087 3106 0
-3088 3106 0
-93 -3088 3107 0
-3089 3107 0
-93 -3089 3108 0
-3090 3108 0
-93 -3090 3109 0
-3091 3109 0
-93 -3091 3110 0
-3092 3110 0
-93 -3092 3111 0
-3093 3111 0
-93 -3093 3112 0
-3094 3112 0
-93 -3094 3113 0
-3095 3113 0
-93 -3095 3114 0
-3096 3114 0
-93 -3096 3115 0
-3097 3115 0
-93 -3097 3116 0
-3098 3116 0
-93 -3098 3117 0
-3099 3117 0
-93 -3099 3118 0
-3100 3118 0
-93 -3100 3119 0
-3101 3119 0
-93 -3101 3120 0
-3102 3120 0
-93 -3102 3121 0
-3103 3121 0
-93 -3103 3122 0
-3104 3122 0
-93 -3104 0
-94 3123 0
-3105 3123 0
-94 -3105 3124 0
-3106 3124 0
-94 -3106 3125 0
-3107 3125 0
-94 -3107 3126 0
-3108 3126 0
-94 -3108 3127 0
-3109 3127 0
-94 -3109 3128 0
-3110 3128 0
-94 -3110 3129 0
-3111 3129 0
-94 -3111 3130 0
-3112 3130 0
-94 -3112 3131 0
-3113 3131 0
-94 -3113 3132 0
-3114 3132 0
-94 -3114 3133 0
-3115 3133 0
-94 -3115 3134 0
-3116 3134 0
-94 -3116 3135 0
-3117 3135 0
-94 -3117 3136 0
-3118 3136 0
-94 -3118 3137 0
-3119 3137 0
-94 -3119 3138 0
-3120 3138 0
-94 -3120 3139 0
-3121 3139 0
-94 -3121 3140 0
-3122 3140 0
-94 -3122 0
-95 3141 0
-3123 3141 0
-95 -3123 3142 0
-3124 3142 0
-95 -3124 3143 0
-3125 3143 0
-95 -3125 3144 0
-3126 3144 0
-95 -3126 3145 0
-3127 3145 0
-95 -3127 3146 0
-3128 3146 0
-95 -3128 3147 0
-3129 3147 0
-95 -3129 3148 0
-3130 3148 0
-95 -3130 3149 0
-3131 3149 0
-95 -3131 3150 0
-3132 3150 0
-95 -3132 3151 0
-3133 3151 0
-95 -3133 3152 0
-3134 3152 0
-95 -3134 3153 0
-3135 3153 0
-95 -3135 3154 0
-3136 3154 0
-95 -3136 3155 0
-3137 3155 0
-95 -3137 3156 0
-3138 3156 0
-95 -3138 3157 0
-3139 3157 0
-95 -3139 3158 0
-3140 3158 0
-95 -3140 0
-96 3159 0
-3141 3159 0
-96 -3141 3160 0
-3142 3160 0
-96 -3142 3161 0
-3143 3161 0
-96 -3143 3162 0
-3144 3162 0
-96 -3144 3163 0
-3145 3163 0
-96 -3145 3164 0
-3146 3164 0
-96 -3146 3165 0
-3147 3165 0
-96 -3147 3166 0
-3148 3166 0
-96 -3148 3167 0
-3149 3167 0
-96 -3149 3168 0
-3150 3168 0
-96 -3150 3169 0
-3151 3169 0
-96 -3151 3170 0
-3152 3170 0
-96 -3152 3171 0
-3153 3171 0
-96 -3153 3172 0
-3154 3172 0
-96 -3154 3173 0
-3155 3173 0
-96 -3155 3174 0
-3156 3174 0
-96 -3156 3175 0
-3157 3175 0
-96 -3157 3176 0
-3158 3176 0
-96 -3158 0
-97 3177 0
-3159 3177 0
-97 -3159 3178 0
-3160 3178 0
-97 -3160 3179 0
-3161 3179 0
-97 -3161 3180 0
-3162 3180 0
-97 -3162 3181 0
-3163 3181 0
-97 -3163 3182 0
-3164 3182 0
-97 -3164 3183 0
-3165 3183 0
-97 -3165 3184 0
-3166 3184 0
-97 -3166 3185 0
-3167 3185 0
-97 -3167 3186 0
-3168 3186 0
-97 -3168 3187 0
-3169 3187 0
-97 -3169 3188 0
-3170 3188 0
-97 -3170 3189 0
-3171 3189 0
-97 -3171 3190 0
-3172 3190 0
-97 -3172 3191 0
-3173 3191 0
-97 -3173 3192 0
-3174 3192 0
-97 -3174 3193 0
-3175 3193 0
-97 -3175 3194 0
-3176 3194 0
-97 -3176 0
-98 3195 0
-3177 3195 0
-98 -3177 3196 0
-3178 3196 0
-98 -3178 3197 0
-3179 3197 0
-98 -3179 3198 0
-3180 3198 0
-98 -3180 3199 0
-3181 3199 0
-98 -3181 3200 0
-3182 3200 0
-98 -3182 3201 0
-3183 3201 0
-98 -3183 3202 0
-3184 3202 0
-98 -3184 3203 0
-3185 3203 0
-98 -3185 3204 0
-3186 3204 0
-98 -3186 3205 0
-3187 3205 0
-98 -3187 3206 0
-3188 3206 0
-98 -3188 3207 0
-3189 3207 0
-98 -3189 3208 0
-3190 3208 0
-98 -3190 3209 0
-3191 3209 0
-98 -3191 3210 0
-3192 3210 0
-98 -3192 3211 0
-3193 3211 0
-98 -3193 3212 0
-3194 3212 0
-98 -3194 0
-99 3213 0
-3195 3213 0
-99 -3195 3214 0
-3196 3214 0
-99 -3196 3215 0
-3197 3215 0
-99 -3197 3216 0
-3198 3216 0
-99 -3198 3217 0
-3199 3217 0
-99 -3199 3218 0
-3200 3218 0
-99 -3200 3219 0
-3201 3219 0
-99 -3201 3220 0
-3202 3220 0
-99 -3202 3221 0
-3203 3221 0
-99 -3203 3222 0
-3204 3222 0
-99 -3204 3223 0
-3205 3223 0
-99 -3205 3224 0
-3206 3224 0
-99 -3206 3225 0
-3207 3225 0
-99 -3207 3226 0
-3208 3226 0
-99 -3208 3227 0
-3209 3227 0
-99 -3209 3228 0
-3210 3228 0
-99 -3210 3229 0
-3211 3229 0
-99 -3211 3230 0
-3212 3230 0
-99 -3212 0
-100 3231 0
-3213 3231 0
-100 -3213 3232 0
-3214 3232 0
-100 -3214 3233 0
-3215 3233 0
-100 -3215 3234 0
-3216 3234 0
-100 -3216 3235 0
-3217 3235 0
-100 -3217 3236 0
-3218 3236 0
-100 -3218 3237 0
-3219 3237 0
-100 -3219 3238 0
-3220 3238 0
-100 -3220 3239 0
-3221 3239 0
-100 -3221 3240 0
-3222 3240 0
-100 -3222 3241 0
-3223 3241 0
-100 -3223 3242 0
-3224 3242 0
-100 -3224 3243 0
-3225 3243 0
-100 -3225 3244 0
-3226 3244 0
-100 -3226 3245 0
-3227 3245 0
-100 -3227 3246 0
-3228 3246 0
-100 -3228 3247 0
-3229 3247 0
-100 -3229 3248 0
-3230 3248 0
-100 -3230 0
-101 3249 0
-3231 3249 0
-101 -3231 3250 0
-3232 3250 0
-101 -3232 3251 0
-3233 3251 0
-101 -3233 3252 0
-3234 3252 0
-101 -3234 3253 0
-3235 3253 0
-101 -3235 3254 0
-3236 3254 0
-101 -3236 3255 0
-3237 3255 0
-101 -3237 3256 0
-3238 3256 0
-101 -3238 3257 0
-3239 3257 0
-101 -3239 3258 0
-3240 3258 0
-101 -3240 3259 0
-3241 3259 0
-101 -3241 3260 0
-3242 3260 0
-101 -3242 3261 0
-3243 3261 0
-101 -3243 3262 0
-3244 3262 0
-101 -3244 3263 0
-3245 3263 0
-101 -3245 3264 0
-3246 3264 0
-101 -3246 3265 0
-3247 3265 0
-101 -3247 3266 0
-3248 3266 0
-101 -3248 0
-102 3267 0
-3249 3267 0
-102 -3249 3268 0
-3250 3268 0
-102 -3250 3269 0
-3251 3269 0
-102 -3251 3270 0
-3252 3270 0
-102 -3252 3271 0
-3253 3271 0
-102 -3253 3272 0
-3254 3272 0
-102 -3254 3273 0
-3255 3273 0
-102 -3255 3274 0
-3256 3274 0
-102 -3256 3275 0
-3257 3275 0
-102 -3257 3276 0
-3258 3276 0
-102 -3258 3277 0
-3259 3277 0
-102 -3259 3278 0
-3260 3278 0
-102 -3260 3279 0
-3261 3279 0
-102 -3261 3280 0
-3262 3280 0
-102 -3262 3281 0
-3263 3281 0
-102 -3263 3282 0
-3264 3282 0
-102 -3264 3283 0
-3265 3283 0
-102 -3265 3284 0
-3266 3284 0
-102 -3266 0
-103 3285 0
-3267 3285 0
-103 -3267 3286 0
-3268 3286 0
-103 -3268 3287 0
-3269 3287 0
-103 -3269 3288 0
-3270 3288 0
-103 -3270 3289 0
-3271 3289 0
-103 -3271 3290 0
-3272 3290 0
-103 -3272 3291 0
-3273 3291 0
-103 -3273 3292 0
-3274 3292 0
-103 -3274 3293 0
-3275 3293 0
-103 -3275 3294 0
-3276 3294 0
-103 -3276 3295 0
-3277 3295 0
-103 -3277 3296 0
-3278 3296 0
-103 -3278 3297 0
-3279 3297 0
-103 -3279 3298 0
-3280 3298 0
-103 -3280 3299 0
-3281 3299 0
-103 -3281 3300 0
-3282 3300 0
-103 -3282 3301 0
-3283 3301 0
-103 -3283 3302 0
-3284 3302 0
-103 -3284 0
-104 3303 0
-3285 3303 0
-104 -3285 3304 0
-3286 3304 0
-104 -3286 3305 0
-3287 3305 0
-104 -3287 3306 0
-3288 3306 0
-104 -3288 3307 0
-3289 3307 0
-104 -3289 3308 0
-3290 3308 0
-104 -3290 3309 0
-3291 3309 0
-104 -3291 3310 0
-3292 3310 0
-104 -3292 3311 0
-3293 3311 0
-104 -3293 3312 0
-3294 3312 0
-104 -3294 3313 0
-3295 3313 0
-104 -3295 3314 0
-3296 3314 0
-104 -3296 3315 0
-3297 3315 0
-104 -3297 3316 0
-3298 3316 0
-104 -3298 3317 0
-3299 3317 0
-104 -3299 3318 0
-3300 3318 0
-104 -3300 3319 0
-3301 3319 0
-104 -3301 3320 0
-3302 3320 0
-104 -3302 0
-105 3321 0
-3303 3321 0
-105 -3303 3322 0
-3304 3322 0
-105 -3304 3323 0
-3305 3323 0
-105 -3305 3324 0
-3306 3324 0
-105 -3306 3325 0
-3307 3325 0
-105 -3307 3326 0
-3308 3326 0
-105 -3308 3327 0
-3309 3327 0
-105 -3309 3328 0
-3310 3328 0
-105 -3310 3329 0
-3311 3329 0
-105 -3311 3330 0
-3312 3330 0
-105 -3312 3331 0
-3313 3331 0
-105 -3313 3332 0
-3314 3332 0
-105 -3314 3333 0
-3315 3333 0
-105 -3315 3334 0
-3316 3334 0
-105 -3316 3335 0
-3317 3335 0
-105 -3317 3336 0
-3318 3336 0
-105 -3318 3337 0
-3319 3337 0
-105 -3319 3338 0
-3320 3338 0
-105 -3320 0
-106 3339 0
-3321 3339 0
-106 -3321 3340 0
-3322 3340 0
-106 -3322 3341 0
-3323 3341 0
-106 -3323 3342 0
-3324 3342 0
-106 -3324 3343 0
-3325 3343 0
-106 -3325 3344 0
-3326 3344 0
-106 -3326 3345 0
-3327 3345 0
-106 -3327 3346 0
-3328 3346 0
-106 -3328 3347 0
-3329 3347 0
-106 -3329 3348 0
-3330 3348 0
-106 -3330 3349 0
-3331 3349 0
-106 -3331 3350 0
-3332 3350 0
-106 -3332 3351 0
-3333 3351 0
-106 -3333 3352 0
-3334 3352 0
-106 -3334 3353 0
-3335 3353 0
-106 -3335 3354 0
-3336 3354 0
-106 -3336 3355 0
-3337 3355 0
-106 -3337 3356 0
-3338 3356 0
-106 -3338 0
-107 3357 0
-3339 3357 0
-107 -3339 3358 0
-3340 3358 0
-107 -3340 3359 0
-3341 3359 0
-107 -3341 3360 0
-3342 3360 0
-107 -3342 3361 0
-3343 3361 0
-107 -3343 3362 0
-3344 3362 0
-107 -3344 3363 0
-3345 3363 0
-107 -3345 3364 0
-3346 3364 0
-107 -3346 3365 0
-3347 3365 0
-107 -3347 3366 0
-3348 3366 0
-107 -3348 3367 0
-3349 3367 0
-107 -3349 3368 0
-3350 3368 0
-107 -3350 3369 0
-3351 3369 0
-107 -3351 3370 0
-3352 3370 0
-107 -3352 3371 0
-3353 3371 0
-107 -3353 3372 0
-3354 3372 0
-107 -3354 3373 0
-3355 3373 0
-107 -3355 3374 0
-3356 3374 0
-107 -3356 0
-108 3375 0
-3357 3375 0
-108 -3357 3376 0
-3358 3376 0
-108 -3358 3377 0
-3359 3377 0
-108 -3359 3378 0
-3360 3378 0
-108 -3360 3379 0
-3361 3379 0
-108 -3361 3380 0
-3362 3380 0
-108 -3362 3381 0
-3363 3381 0
-108 -3363 3382 0
-3364 3382 0
-108 -3364 3383 0
-3365 3383 0
-108 -3365 3384 0
-3366 3384 0
-108 -3366 3385 0
-3367 3385 0
-108 -3367 3386 0
-3368 3386 0
-108 -3368 3387 0
-3369 3387 0
-108 -3369 3388 0
-3370 3388 0
-108 -3370 3389 0
-3371 3389 0
-108 -3371 3390 0
-3372 3390 0
-108 -3372 3391 0
-3373 3391 0
-108 -3373 3392 0
-3374 3392 0
-108 -3374 0
-109 3393 0
-3375 3393 0
-109 -3375 3394 0
-3376 3394 0
-109 -3376 3395 0
-3377 3395 0
-109 -3377 3396 0
-3378 3396 0
-109 -3378 3397 0
-3379 3397 0
-109 -3379 3398 0
-3380 3398 0
-109 -3380 3399 0
-3381 3399 0
-109 -3381 3400 0
-3382 3400 0
-109 -3382 3401 0
-3383 3401 0
-109 -3383 3402 0
-3384 3402 0
-109 -3384 3403 0
-3385 3403 0
-109 -3385 3404 0
-3386 3404 0
-109 -3386 3405 0
-3387 3405 0
-109 -3387 3406 0
-3388 3406 0
-109 -3388 3407 0
-3389 3407 0
-109 -3389 3408 0
-3390 3408 0
-109 -3390 3409 0
-3391 3409 0
-109 -3391 3410 0
-3392 3410 0
-109 -3392 0
-110 3411 0
-3393 3411 0
-110 -3393 3412 0
-3394 3412 0
-110 -3394 3413 0
-3395 3413 0
-110 -3395 3414 0
-3396 3414 0
-110 -3396 3415 0
-3397 3415 0
-110 -3397 3416 0
-3398 3416 0
-110 -3398 3417 0
-3399 3417 0
-110 -3399 3418 0
-3400 3418 0
-110 -3400 3419 0
-3401 3419 0
-110 -3401 3420 0
-3402 3420 0
-110 -3402 3421 0
-3403 3421 0
-110 -3403 3422 0
-3404 3422 0
-110 -3404 3423 0
-3405 3423 0
-110 -3405 3424 0
-3406 3424 0
-110 -3406 3425 0
-3407 3425 0
-110 -3407 3426 0
-3408 3426 0
-110 -3408 3427 0
-3409 3427 0
-110 -3409 3428 0
-3410 3428 0
-110 -3410 0
-111 3429 0
-3411 3429 0
-111 -3411 3430 0
-3412 3430 0
-111 -3412 3431 0
-3413 3431 0
-111 -3413 3432 0
-3414 3432 0
-111 -3414 3433 0
-3415 3433 0
-111 -3415 3434 0
-3416 3434 0
-111 -3416 3435 0
-3417 3435 0
-111 -3417 3436 0
-3418 3436 0
-111 -3418 3437 0
-3419 3437 0
-111 -3419 3438 0
-3420 3438 0
-111 -3420 3439 0
-3421 3439 0
-111 -3421 3440 0
-3422 3440 0
-111 -3422 3441 0
-3423 3441 0
-111 -3423 3442 0
-3424 3442 0
-111 -3424 3443 0
-3425 3443 0
-111 -3425 3444 0
-3426 3444 0
-111 -3426 3445 0
-3427 3445 0
-111 -3427 3446 0
-3428 3446 0
-111 -3428 0
-112 3447 0
-3429 3447 0
-112 -3429 3448 0
-3430 3448 0
-112 -3430 3449 0
-3431 3449 0
-112 -3431 3450 0
-3432 3450 0
-112 -3432 3451 0
-3433 3451 0
-112 -3433 3452 0
-3434 3452 0
-112 -3434 3453 0
-3435 3453 0
-112 -3435 3454 0
-3436 3454 0
-112 -3436 3455 0
-3437 3455 0
-112 -3437 3456 0
-3438 3456 0
-112 -3438 3457 0
-3439 3457 0
-112 -3439 3458 0
-3440 3458 0
-112 -3440 3459 0
-3441 3459 0
-112 -3441 3460 0
-3442 3460 0
-112 -3442 3461 0
-3443 3461 0
-112 -3443 3462 0
-3444 3462 0
-112 -3444 3463 0
-3445 3463 0
-112 -3445 3464 0
-3446 3464 0
-112 -3446 0
-113 3465 0
-3447 3465 0
-113 -3447 3466 0
-3448 3466 0
-113 -3448 3467 0
-3449 3467 0
-113 -3449 3468 0
-3450 3468 0
-113 -3450 3469 0
-3451 3469 0
-113 -3451 3470 0
-3452 3470 0
-113 -3452 3471 0
-3453 3471 0
-113 -3453 3472 0
-3454 3472 0
-113 -3454 3473 0
-3455 3473 0
-113 -3455 3474 0
-3456 3474 0
-113 -3456 3475 0
-3457 3475 0
-113 -3457 3476 0
-3458 3476 0
-113 -3458 3477 0
-3459 3477 0
-113 -3459 3478 0
-3460 3478 0
-113 -3460 3479 0
-3461 3479 0
-113 -3461 3480 0
-3462 3480 0
-113 -3462 3481 0
-3463 3481 0
-113 -3463 3482 0
-3464 3482 0
-113 -3464 0
-114 3483 0
-3465 3483 0
-114 -3465 3484 0
-3466 3484 0
-114 -3466 3485 0
-3467 3485 0
-114 -3467 3486 0
-3468 3486 0
-114 -3468 3487 0
-3469 3487 0
-114 -3469 3488 0
-3470 3488 0
-114 -3470 3489 0
-3471 3489 0
-114 -3471 3490 0
-3472 3490 0
-114 -3472 3491 0
-3473 3491 0
-114 -3473 3492 0
-3474 3492 0
-114 -3474 3493 0
-3475 3493 0
-114 -3475 3494 0
-3476 3494 0
-114 -3476 3495 0
-3477 3495 0
-114 -3477 3496 0
-3478 3496 0
-114 -3478 3497 0
-3479 3497 0
-114 -3479 3498 0
-3480 3498 0
-114 -3480 3499 0
-3481 3499 0
-114 -3481 3500 0
-3482 3500 0
-114 -3482 0
-115 3501 0
-3483 3501 0
-115 -3483 3502 0
-3484 3502 0
-115 -3484 3503 0
-3485 3503 0
-115 -3485 3504 0
-3486 3504 0
-115 -3486 3505 0
-3487 3505 0
-115 -3487 3506 0
-3488 3506 0
-115 -3488 3507 0
-3489 3507 0
-115 -3489 3508 0
-3490 3508 0
-115 -3490 3509 0
-3491 3509 0
-115 -3491 3510 0
-3492 3510 0
-115 -3492 3511 0
-3493 3511 0
-115 -3493 3512 0
-3494 3512 0
-115 -3494 3513 0
-3495 3513 0
-115 -3495 3514 0
-3496 3514 0
-115 -3496 3515 0
-3497 3515 0
-115 -3497 3516 0
-3498 3516 0
-115 -3498 3517 0
-3499 3517 0
-115 -3499 3518 0
-3500 3518 0
-115 -3500 0
-116 3519 0
-3501 3519 0
-116 -3501 3520 0
-3502 3520 0
-116 -3502 3521 0
-3503 3521 0
-116 -3503 3522 0
-3504 3522 0
-116 -3504 3523 0
-3505 3523 0
-116 -3505 3524 0
-3506 3524 0
-116 -3506 3525 0
-3507 3525 0
-116 -3507 3526 0
-3508 3526 0
-116 -3508 3527 0
-3509 3527 0
-116 -3509 3528 0
-3510 3528 0
-116 -3510 3529 0
-3511 3529 0
-116 -3511 3530 0
-3512 3530 0
-116 -3512 3531 0
-3513 3531 0
-116 -3513 3532 0
-3514 3532 0
-116 -3514 3533 0
-3515 3533 0
-116 -3515 3534 0
-3516 3534 0
-116 -3516 3535 0
-3517 3535 0
-116 -3517 3536 0
-3518 3536 0
-116 -3518 0
-117 3537 0
-3519 3537 0
-117 -3519 3538 0
-3520 3538 0
-117 -3520 3539 0
-3521 3539 0
-117 -3521 3540 0
-3522 3540 0
-117 -3522 3541 0
-3523 3541 0
-117 -3523 3542 0
-3524 3542 0
-117 -3524 3543 0
-3525 3543 0
-117 -3525 3544 0
-3526 3544 0
-117 -3526 3545 0
-3527 3545 0
-117 -3527 3546 0
-3528 3546 0
-117 -3528 3547 0
-3529 3547 0
-117 -3529 3548 0
-3530 3548 0
-117 -3530 3549 0
-3531 3549 0
-117 -3531 3550 0
-3532 3550 0
-117 -3532 3551 0
-3533 3551 0
-117 -3533 3552 0
-3534 3552 0
-117 -3534 3553 0
-3535 3553 0
-117 -3535 3554 0
-3536 3554 0
-117 -3536 0
-118 3555 0
-3537 3555 0
-118 -3537 3556 0
-3538 3556 0
-118 -3538 3557 0
-3539 3557 0
-118 -3539 3558 0
-3540 3558 0
-118 -3540 3559 0
-3541 3559 0
-118 -3541 3560 0
-3542 3560 0
-118 -3542 3561 0
-3543 3561 0
-118 -3543 3562 0
-3544 3562 0
-118 -3544 3563 0
-3545 3563 0
-118 -3545 3564 0
-3546 3564 0
-118 -3546 3565 0
-3547 3565 0
-118 -3547 3566 0
-3548 3566 0
-118 -3548 3567 0
-3549 3567 0
-118 -3549 3568 0
-3550 3568 0
-118 -3550 3569 0
-3551 3569 0
-118 -3551 3570 0
-3552 3570 0
-118 -3552 3571 0
-3553 3571 0
-118 -3553 3572 0
-3554 3572 0
-118 -3554 0
-119 3573 0
-3555 3573 0
-119 -3555 3574 0
-3556 3574 0
-119 -3556 3575 0
-3557 3575 0
-119 -3557 3576 0
-3558 3576 0
-119 -3558 3577 0
-3559 3577 0
-119 -3559 3578 0
-3560 3578 0
-119 -3560 3579 0
-3561 3579 0
-119 -3561 3580 0
-3562 3580 0
-119 -3562 3581 0
-3563 3581 0
-119 -3563 3582 0
-3564 3582 0
-119 -3564 3583 0
-3565 3583 0
-119 -3565 3584 0
-3566 3584 0
-119 -3566 3585 0
-3567 3585 0
-119 -3567 3586 0
-3568 3586 0
-119 -3568 3587 0
-3569 3587 0
-119 -3569 3588 0
-3570 3588 0
-119 -3570 3589 0
-3571 3589 0
-119 -3571 3590 0
-3572 3590 0
-119 -3572 0
-120 3591 0
-3573 3591 0
-120 -3573 3592 0
-3574 3592 0
-120 -3574 3593 0
-3575 3593 0
-120 -3575 3594 0
-3576 3594 0
-120 -3576 3595 0
-3577 3595 0
-120 -3577 3596 0
-3578 3596 0
-120 -3578 3597 0
-3579 3597 0
-120 -3579 3598 0
-3580 3598 0
-120 -3580 3599 0
-3581 3599 0
-120 -3581 3600 0
-3582 3600 0
-120 -3582 3601 0
-3583 3601 0
-120 -3583 3602 0
-3584 3602 0
-120 -3584 3603 0
-3585 3603 0
-120 -3585 3604 0
-3586 3604 0
-120 -3586 3605 0
-3587 3605 0
-120 -3587 3606 0
-3588 3606 0
-120 -3588 3607 0
-3589 3607 0
-120 -3589 3608 0
-3590 3608 0
-120 -3590 0
-121 3609 0
-3591 3609 0
-121 -3591 3610 0
-3592 3610 0
-121 -3592 3611 0
-3593 3611 0
-121 -3593 3612 0
-3594 3612 0
-121 -3594 3613 0
-3595 3613 0
-121 -3595 3614 0
-3596 3614 0
-121 -3596 3615 0
-3597 3615 0
-121 -3597 3616 0
-3598 3616 0
-121 -3598 3617 0
-3599 3617 0
-121 -3599 3618 0
-3600 3618 0
-121 -3600 3619 0
-3601 3619 0
-121 -3601 3620 0
-3602 3620 0
-121 -3602 3621 0
-3603 3621 0
-121 -3603 3622 0
-3604 3622 0
-121 -3604 3623 0
-3605 3623 0
-121 -3605 3624 0
-3606 3624 0
-121 -3606 3625 0
-3607 3625 0
-121 -3607 3626 0
-3608 3626 0
-121 -3608 0
-122 3627 0
-3609 3627 0
-122 -3609 3628 0
-3610 3628 0
-122 -3610 3629 0
-3611 3629 0
-122 -3611 3630 0
-3612 3630 0
-122 -3612 3631 0
-3613 3631 0
-122 -3613 3632 0
-3614 3632 0
-122 -3614 3633 0
-3615 3633 0
-122 -3615 3634 0
-3616 3634 0
-122 -3616 3635 0
-3617 3635 0
-122 -3617 3636 0
-3618 3636 0
-122 -3618 3637 0
-3619 3637 0
-122 -3619 3638 0
-3620 3638 0
-122 -3620 3639 0
-3621 3639 0
-122 -3621 3640 0
-3622 3640 0
-122 -3622 3641 0
-3623 3641 0
-122 -3623 3642 0
-3624 3642 0
-122 -3624 3643 0
-3625 3643 0
-122 -3625 3644 0
-3626 3644 0
-122 -3626 0
-123 3645 0
-3627 3645 0
-123 -3627 3646 0
-3628 3646 0
-123 -3628 3647 0
-3629 3647 0
-123 -3629 3648 0
-3630 3648 0
-123 -3630 3649 0
-3631 3649 0
-123 -3631 3650 0
-3632 3650 0
-123 -3632 3651 0
-3633 3651 0
-123 -3633 3652 0
-3634 3652 0
-123 -3634 3653 0
-3635 3653 0
-123 -3635 3654 0
-3636 3654 0
-123 -3636 3655 0
-3637 3655 0
-123 -3637 3656 0
-3638 3656 0
-123 -3638 3657 0
-3639 3657 0
-123 -3639 3658 0
-3640 3658 0
-123 -3640 3659 0
-3641 3659 0
-123 -3641 3660 0
-3642 3660 0
-123 -3642 3661 0
-3643 3661 0
-123 -3643 3662 0
-3644 3662 0
-123 -3644 0
-124 3663 0
-3645 3663 0
-124 -3645 3664 0
-3646 3664 0
-124 -3646 3665 0
-3647 3665 0
-124 -3647 3666 0
-3648 3666 0
-124 -3648 3667 0
-3649 3667 0
-124 -3649 3668 0
-3650 3668 0
-124 -3650 3669 0
-3651 3669 0
-124 -3651 3670 0
-3652 3670 0
-124 -3652 3671 0
-3653 3671 0
-124 -3653 3672 0
-3654 3672 0
-124 -3654 3673 0
-3655 3673 0
-124 -3655 3674 0
-3656 3674 0
-124 -3656 3675 0
-3657 3675 0
-124 -3657 3676 0
-3658 3676 0
-124 -3658 3677 0
-3659 3677 0
-124 -3659 3678 0
-3660 3678 0
-124 -3660 3679 0
-3661 3679 0
-124 -3661 3680 0
-3662 3680 0
-124 -3662 0
-125 3681 0
-3663 3681 0
-125 -3663 3682 0
-3664 3682 0
-125 -3664 3683 0
-3665 3683 0
-125 -3665 3684 0
-3666 3684 0
-125 -3666 3685 0
-3667 3685 0
-125 -3667 3686 0
-3668 3686 0
-125 -3668 3687 0
-3669 3687 0
-125 -3669 3688 0
-3670 3688 0
-125 -3670 3689 0
-3671 3689 0
-125 -3671 3690 0
-3672 3690 0
-125 -3672 3691 0
-3673 3691 0
-125 -3673 3692 0
-3674 3692 0
-125 -3674 3693 0
-3675 3693 0
-125 -3675 3694 0
-3676 3694 0
-125 -3676 3695 0
-3677 3695 0
-125 -3677 3696 0
-3678 3696 0
-125 -3678 3697 0
-3679 3697 0
-125 -3679 3698 0
-3680 3698 0
-125 -3680 0
-126 3699 0
-3681 3699 0
-126 -3681 3700 0
-3682 3700 0
-126 -3682 3701 0
-3683 3701 0
-126 -3683 3702 0
-3684 3702 0
-126 -3684 3703 0
-3685 3703 0
-126 -3685 3704 0
-3686 3704 0
-126 -3686 3705 0
-3687 3705 0
-126 -3687 3706 0
-3688 3706 0
-126 -3688 3707 0
-3689 3707 0
-126 -3689 3708 0
-3690 3708 0
-126 -3690 3709 0
-3691 3709 0
-126 -3691 3710 0
-3692 3710 0
-126 -3692 3711 0
-3693 3711 0
-126 -3693 3712 0
-3694 3712 0
-126 -3694 3713 0
-3695 3713 0
-126 -3695 3714 0
-3696 3714 0
-126 -3696 3715 0
-3697 3715 0
-126 -3697 3716 0
-3698 3716 0
-126 -3698 0
-127 3717 0
-3699 3717 0
-127 -3699 3718 0
-3700 3718 0
-127 -3700 3719 0
-3701 3719 0
-127 -3701 3720 0
-3702 3720 0
-127 -3702 3721 0
-3703 3721 0
-127 -3703 3722 0
-3704 3722 0
-127 -3704 3723 0
-3705 3723 0
-127 -3705 3724 0
-3706 3724 0
-127 -3706 3725 0
-3707 3725 0
-127 -3707 3726 0
-3708 3726 0
-127 -3708 3727 0
-3709 3727 0
-127 -3709 3728 0
-3710 3728 0
-127 -3710 3729 0
-3711 3729 0
-127 -3711 3730 0
-3712 3730 0
-127 -3712 3731 0
-3713 3731 0
-127 -3713 3732 0
-3714 3732 0
-127 -3714 3733 0
-3715 3733 0
-127 -3715 3734 0
-3716 3734 0
-127 -3716 0
-128 3735 0
-3717 3735 0
-128 -3717 3736 0
-3718 3736 0
-128 -3718 3737 0
-3719 3737 0
-128 -3719 3738 0
-3720 3738 0
-128 -3720 3739 0
-3721 3739 0
-128 -3721 3740 0
-3722 3740 0
-128 -3722 3741 0
-3723 3741 0
-128 -3723 3742 0
-3724 3742 0
-128 -3724 3743 0
-3725 3743 0
-128 -3725 3744 0
-3726 3744 0
-128 -3726 3745 0
-3727 3745 0
-128 -3727 3746 0
-3728 3746 0
-128 -3728 3747 0
-3729 3747 0
-128 -3729 3748 0
-3730 3748 0
-128 -3730 3749 0
-3731 3749 0
-128 -3731 3750 0
-3732 3750 0
-128 -3732 3751 0
-3733 3751 0
-128 -3733 3752 0
-3734 3752 0
-128 -3734 0
-129 3753 0
-3735 3753 0
-129 -3735 3754 0
-3736 3754 0
-129 -3736 3755 0
-3737 3755 0
-129 -3737 3756 0
-3738 3756 0
-129 -3738 3757 0
-3739 3757 0
-129 -3739 3758 0
-3740 3758 0
-129 -3740 3759 0
-3741 3759 0
-129 -3741 3760 0
-3742 3760 0
-129 -3742 3761 0
-3743 3761 0
-129 -3743 3762 0
-3744 3762 0
-129 -3744 3763 0
-3745 3763 0
-129 -3745 3764 0
-3746 3764 0
-129 -3746 3765 0
-3747 3765 0
-129 -3747 3766 0
-3748 3766 0
-129 -3748 3767 0
-3749 3767 0
-129 -3749 3768 0
-3750 3768 0
-129 -3750 3769 0
-3751 3769 0
-129 -3751 3770 0
-3752 3770 0
-129 -3752 0
-130 3771 0
-3753 3771 0
-130 -3753 3772 0
-3754 3772 0
-130 -3754 3773 0
-3755 3773 0
-130 -3755 3774 0
-3756 3774 0
-130 -3756 3775 0
-3757 3775 0
-130 -3757 3776 0
-3758 3776 0
-130 -3758 3777 0
-3759 3777 0
-130 -3759 3778 0
-3760 3778 0
-130 -3760 3779 0
-3761 3779 0
-130 -3761 3780 0
-3762 3780 0
-130 -3762 3781 0
-3763 3781 0
-130 -3763 3782 0
-3764 3782 0
-130 -3764 3783 0
-3765 3783 0
-130 -3765 3784 0
-3766 3784 0
-130 -3766 3785 0
-3767 3785 0
-130 -3767 3786 0
-3768 3786 0
-130 -3768 3787 0
-3769 3787 0
-130 -3769 3788 0
-3770 3788 0
-130 -3770 0
-131 3789 0
-3771 3789 0
-131 -3771 3790 0
-3772 3790 0
-131 -3772 3791 0
-3773 3791 0
-131 -3773 3792 0
-3774 3792 0
-131 -3774 3793 0
-3775 3793 0
-131 -3775 3794 0
-3776 3794 0
-131 -3776 3795 0
-3777 3795 0
-131 -3777 3796 0
-3778 3796 0
-131 -3778 3797 0
-3779 3797 0
-131 -3779 3798 0
-3780 3798 0
-131 -3780 3799 0
-3781 3799 0
-131 -3781 3800 0
-3782 3800 0
-131 -3782 3801 0
-3783 3801 0
-131 -3783 3802 0
-3784 3802 0
-131 -3784 3803 0
-3785 3803 0
-131 -3785 3804 0
-3786 3804 0
-131 -3786 3805 0
-3787 3805 0
-131 -3787 3806 0
-3788 3806 0
-131 -3788 0
-132 3807 0
-3789 3807 0
-132 -3789 3808 0
-3790 3808 0
-132 -3790 3809 0
-3791 3809 0
-132 -3791 3810 0
-3792 3810 0
-132 -3792 3811 0
-3793 3811 0
-132 -3793 3812 0
-3794 3812 0
-132 -3794 3813 0
-3795 3813 0
-132 -3795 3814 0
-3796 3814 0
-132 -3796 3815 0
-3797 3815 0
-132 -3797 3816 0
-3798 3816 0
-132 -3798 3817 0
-3799 3817 0
-132 -3799 3818 0
-3800 3818 0
-132 -3800 3819 0
-3801 3819 0
-132 -3801 3820 0
-3802 3820 0
-132 -3802 3821 0
-3803 3821 0
-132 -3803 3822 0
-3804 3822 0
-132 -3804 3823 0
-3805 3823 0
-132 -3805 3824 0
-3806 3824 0
-132 -3806 0
-133 3825 0
-3807 3825 0
-133 -3807 3826 0
-3808 3826 0
-133 -3808 3827 0
-3809 3827 0
-133 -3809 3828 0
-3810 3828 0
-133 -3810 3829 0
-3811 3829 0
-133 -3811 3830 0
-3812 3830 0
-133 -3812 3831 0
-3813 3831 0
-133 -3813 3832 0
-3814 3832 0
-133 -3814 3833 0
-3815 3833 0
-133 -3815 3834 0
-3816 3834 0
-133 -3816 3835 0
-3817 3835 0
-133 -3817 3836 0
-3818 3836 0
-133 -3818 3837 0
-3819 3837 0
-133 -3819 3838 0
-3820 3838 0
-133 -3820 3839 0
-3821 3839 0
-133 -3821 3840 0
-3822 3840 0
-133 -3822 3841 0
-3823 3841 0
-133 -3823 3842 0
-3824 3842 0
-133 -3824 0
-134 3843 0
-3825 3843 0
-134 -3825 3844 0
-3826 3844 0
-134 -3826 3845 0
-3827 3845 0
-134 -3827 3846 0
-3828 3846 0
-134 -3828 3847 0
-3829 3847 0
-134 -3829 3848 0
-3830 3848 0
-134 -3830 3849 0
-3831 3849 0
-134 -3831 3850 0
-3832 3850 0
-134 -3832 3851 0
-3833 3851 0
-134 -3833 3852 0
-3834 3852 0
-134 -3834 3853 0
-3835 3853 0
-134 -3835 3854 0
-3836 3854 0
-134 -3836 3855 0
-3837 3855 0
-134 -3837 3856 0
-3838 3856 0
-134 -3838 3857 0
-3839 3857 0
-134 -3839 3858 0
-3840 3858 0
-134 -3840 3859 0
-3841 3859 0
-134 -3841 3860 0
-3842 3860 0
-134 -3842 0
-135 3861 0
-3843 3861 0
-135 -3843 3862 0
-3844 3862 0
-135 -3844 3863 0
-3845 3863 0
-135 -3845 3864 0
-3846 3864 0
-135 -3846 3865 0
-3847 3865 0
-135 -3847 3866 0
-3848 3866 0
-135 -3848 3867 0
-3849 3867 0
-135 -3849 3868 0
-3850 3868 0
-135 -3850 3869 0
-3851 3869 0
-135 -3851 3870 0
-3852 3870 0
-135 -3852 3871 0
-3853 3871 0
-135 -3853 3872 0
-3854 3872 0
-135 -3854 3873 0
-3855 3873 0
-135 -3855 3874 0
-3856 3874 0
-135 -3856 3875 0
-3857 3875 0
-135 -3857 3876 0
-3858 3876 0
-135 -3858 3877 0
-3859 3877 0
-135 -3859 3878 0
-3860 3878 0
-135 -3860 0
-136 3879 0
-3861 3879 0
-136 -3861 3880 0
-3862 3880 0
-136 -3862 3881 0
-3863 3881 0
-136 -3863 3882 0
-3864 3882 0
-136 -3864 3883 0
-3865 3883 0
-136 -3865 3884 0
-3866 3884 0
-136 -3866 3885 0
-3867 3885 0
-136 -3867 3886 0
-3868 3886 0
-136 -3868 3887 0
-3869 3887 0
-136 -3869 3888 0
-3870 3888 0
-136 -3870 3889 0
-3871 3889 0
-136 -3871 3890 0
-3872 3890 0
-136 -3872 3891 0
-3873 3891 0
-136 -3873 3892 0
-3874 3892 0
-136 -3874 3893 0
-3875 3893 0
-136 -3875 3894 0
-3876 3894 0
-136 -3876 3895 0
-3877 3895 0
-136 -3877 3896 0
-3878 3896 0
-136 -3878 0
-137 3897 0
-3879 3897 0
-137 -3879 3898 0
-3880 3898 0
-137 -3880 3899 0
-3881 3899 0
-137 -3881 3900 0
-3882 3900 0
-137 -3882 3901 0
-3883 3901 0
-137 -3883 3902 0
-3884 3902 0
-137 -3884 3903 0
-3885 3903 0
-137 -3885 3904 0
-3886 3904 0
-137 -3886 3905 0
-3887 3905 0
-137 -3887 3906 0
-3888 3906 0
-137 -3888 3907 0
-3889 3907 0
-137 -3889 3908 0
-3890 3908 0
-137 -3890 3909 0
-3891 3909 0
-137 -3891 3910 0
-3892 3910 0
-137 -3892 3911 0
-3893 3911 0
-137 -3893 3912 0
-3894 3912 0
-137 -3894 3913 0
-3895 3913 0
-137 -3895 3914 0
-3896 3914 0
-137 -3896 0
-138 3915 0
-3897 3915 0
-138 -3897 3916 0
-3898 3916 0
-138 -3898 3917 0
-3899 3917 0
-138 -3899 3918 0
-3900 3918 0
-138 -3900 3919 0
-3901 3919 0
-138 -3901 3920 0
-3902 3920 0
-138 -3902 3921 0
-3903 3921 0
-138 -3903 3922 0
-3904 3922 0
-138 -3904 3923 0
-3905 3923 0
-138 -3905 3924 0
-3906 3924 0
-138 -3906 3925 0
-3907 3925 0
-138 -3907 3926 0
-3908 3926 0
-138 -3908 3927 0
-3909 3927 0
-138 -3909 3928 0
-3910 3928 0
-138 -3910 3929 0
-3911 3929 0
-138 -3911 3930 0
-3912 3930 0
-138 -3912 3931 0
-3913 3931 0
-138 -3913 3932 0
-3914 3932 0
-138 -3914 0
-139 3933 0
-3915 3933 0
-139 -3915 3934 0
-3916 3934 0
-139 -3916 3935 0
-3917 3935 0
-139 -3917 3936 0
-3918 3936 0
-139 -3918 3937 0
-3919 3937 0
-139 -3919 3938 0
-3920 3938 0
-139 -3920 3939 0
-3921 3939 0
-139 -3921 3940 0
-3922 3940 0
-139 -3922 3941 0
-3923 3941 0
-139 -3923 3942 0
-3924 3942 0
-139 -3924 3943 0
-3925 3943 0
-139 -3925 3944 0
-3926 3944 0
-139 -3926 3945 0
-3927 3945 0
-139 -3927 3946 0
-3928 3946 0
-139 -3928 3947 0
-3929 3947 0
-139 -3929 3948 0
-3930 3948 0
-139 -3930 3949 0
-3931 3949 0
-139 -3931 3950 0
-3932 3950 0
-139 -3932 0
-140 3951 0
-3933 3951 0
-140 -3933 3952 0
-3934 3952 0
-140 -3934 3953 0
-3935 3953 0
-140 -3935 3954 0
-3936 3954 0
-140 -3936 3955 0
-3937 3955 0
-140 -3937 3956 0
-3938 3956 0
-140 -3938 3957 0
-3939 3957 0
-140 -3939 3958 0
-3940 3958 0
-140 -3940 3959 0
-3941 3959 0
-140 -3941 3960 0
-3942 3960 0
-140 -3942 3961 0
-3943 3961 0
-140 -3943 3962 0
-3944 3962 0
-140 -3944 3963 0
-3945 3963 0
-140 -3945 3964 0
-3946 3964 0
-140 -3946 3965 0
-3947 3965 0
-140 -3947 3966 0
-3948 3966 0
-140 -3948 3967 0
-3949 3967 0
-140 -3949 3968 0
-3950 3968 0
-140 -3950 0
-141 3969 0
-3951 3969 0
-141 -3951 3970 0
-3952 3970 0
-141 -3952 3971 0
-3953 3971 0
-141 -3953 3972 0
-3954 3972 0
-141 -3954 3973 0
-3955 3973 0
-141 -3955 3974 0
-3956 3974 0
-141 -3956 3975 0
-3957 3975 0
-141 -3957 3976 0
-3958 3976 0
-141 -3958 3977 0
-3959 3977 0
-141 -3959 3978 0
-3960 3978 0
-141 -3960 3979 0
-3961 3979 0
-141 -3961 3980 0
-3962 3980 0
-141 -3962 3981 0
-3963 3981 0
-141 -3963 3982 0
-3964 3982 0
-141 -3964 3983 0
-3965 3983 0
-141 -3965 3984 0
-3966 3984 0
-141 -3966 3985 0
-3967 3985 0
-141 -3967 3986 0
-3968 3986 0
-141 -3968 0
-142 3987 0
-3969 3987 0
-142 -3969 3988 0
-3970 3988 0
-142 -3970 3989 0
-3971 3989 0
-142 -3971 3990 0
-3972 3990 0
-142 -3972 3991 0
-3973 3991 0
-142 -3973 3992 0
-3974 3992 0
-142 -3974 3993 0
-3975 3993 0
-142 -3975 3994 0
-3976 3994 0
-142 -3976 3995 0
-3977 3995 0
-142 -3977 3996 0
-3978 3996 0
-142 -3978 3997 0
-3979 3997 0
-142 -3979 3998 0
-3980 3998 0
-142 -3980 3999 0
-3981 3999 0
-142 -3981 4000 0
-3982 4000 0
-142 -3982 4001 0
-3983 4001 0
-142 -3983 4002 0
-3984 4002 0
-142 -3984 4003 0
-3985 4003 0
-142 -3985 4004 0
-3986 4004 0
-142 -3986 0
-143 4005 0
-3987 4005 0
-143 -3987 4006 0
-3988 4006 0
-143 -3988 4007 0
-3989 4007 0
-143 -3989 4008 0
-3990 4008 0
-143 -3990 4009 0
-3991 4009 0
-143 -3991 4010 0
-3992 4010 0
-143 -3992 4011 0
-3993 4011 0
-143 -3993 4012 0
-3994 4012 0
-143 -3994 4013 0
-3995 4013 0
-143 -3995 4014 0
-3996 4014 0
-143 -3996 4015 0
-3997 4015 0
-143 -3997 4016 0
-3998 4016 0
-143 -3998 4017 0
-3999 4017 0
-143 -3999 4018 0
-4000 4018 0
-143 -4000 4019 0
-4001 4019 0
-143 -4001 4020 0
-4002 4020 0
-143 -4002 4021 0
-4003 4021 0
-143 -4003 4022 0
-4004 4022 0
-143 -4004 0
-144 4023 0
-4005 4023 0
-144 -4005 4024 0
-4006 4024 0
-144 -4006 4025 0
-4007 4025 0
-144 -4007 4026 0
-4008 4026 0
-144 -4008 4027 0
-4009 4027 0
-144 -4009 4028 0
-4010 4028 0
-144 -4010 4029 0
-4011 4029 0
-144 -4011 4030 0
-4012 4030 0
-144 -4012 4031 0
-4013 4031 0
-144 -4013 4032 0
-4014 4032 0
-144 -4014 4033 0
-4015 4033 0
-144 -4015 4034 0
-4016 4034 0
-144 -4016 4035 0
-4017 4035 0
-144 -4017 4036 0
-4018 4036 0
-144 -4018 4037 0
-4019 4037 0
-144 -4019 4038 0
-4020 4038 0
-144 -4020 4039 0
-4021 4039 0
-144 -4021 4040 0
-4022 4040 0
-144 -4022 0
-145 4041 0
-4023 4041 0
-145 -4023 4042 0
-4024 4042 0
-145 -4024 4043 0
-4025 4043 0
-145 -4025 4044 0
-4026 4044 0
-145 -4026 4045 0
-4027 4045 0
-145 -4027 4046 0
-4028 4046 0
-145 -4028 4047 0
-4029 4047 0
-145 -4029 4048 0
-4030 4048 0
-145 -4030 4049 0
-4031 4049 0
-145 -4031 4050 0
-4032 4050 0
-145 -4032 4051 0
-4033 4051 0
-145 -4033 4052 0
-4034 4052 0
-145 -4034 4053 0
-4035 4053 0
-145 -4035 4054 0
-4036 4054 0
-145 -4036 4055 0
-4037 4055 0
-145 -4037 4056 0
-4038 4056 0
-145 -4038 4057 0
-4039 4057 0
-145 -4039 4058 0
-4040 4058 0
-145 -4040 0
-146 4059 0
-4041 4059 0
-146 -4041 4060 0
-4042 4060 0
-146 -4042 4061 0
-4043 4061 0
-146 -4043 4062 0
-4044 4062 0
-146 -4044 4063 0
-4045 4063 0
-146 -4045 4064 0
-4046 4064 0
-146 -4046 4065 0
-4047 4065 0
-146 -4047 4066 0
-4048 4066 0
-146 -4048 4067 0
-4049 4067 0
-146 -4049 4068 0
-4050 4068 0
-146 -4050 4069 0
-4051 4069 0
-146 -4051 4070 0
-4052 4070 0
-146 -4052 4071 0
-4053 4071 0
-146 -4053 4072 0
-4054 4072 0
-146 -4054 4073 0
-4055 4073 0
-146 -4055 4074 0
-4056 4074 0
-146 -4056 4075 0
-4057 4075 0
-146 -4057 4076 0
-4058 4076 0
-146 -4058 0
-147 4077 0
-4059 4077 0
-147 -4059 4078 0
-4060 4078 0
-147 -4060 4079 0
-4061 4079 0
-147 -4061 4080 0
-4062 4080 0
-147 -4062 4081 0
-4063 4081 0
-147 -4063 4082 0
-4064 4082 0
-147 -4064 4083 0
-4065 4083 0
-147 -4065 4084 0
-4066 4084 0
-147 -4066 4085 0
-4067 4085 0
-147 -4067 4086 0
-4068 4086 0
-147 -4068 4087 0
-4069 4087 0
-147 -4069 4088 0
-4070 4088 0
-147 -4070 4089 0
-4071 4089 0
-147 -4071 4090 0
-4072 4090 0
-147 -4072 4091 0
-4073 4091 0
-147 -4073 4092 0
-4074 4092 0
-147 -4074 4093 0
-4075 4093 0
-147 -4075 4094 0
-4076 4094 0
-147 -4076 0
-148 4095 0
-4077 4095 0
-148 -4077 4096 0
-4078 4096 0
-148 -4078 4097 0
-4079 4097 0
-148 -4079 4098 0
-4080 4098 0
-148 -4080 4099 0
-4081 4099 0
-148 -4081 4100 0
-4082 4100 0
-148 -4082 4101 0
-4083 4101 0
-148 -4083 4102 0
-4084 4102 0
-148 -4084 4103 0
-4085 4103 0
-148 -4085 4104 0
-4086 4104 0
-148 -4086 4105 0
-4087 4105 0
-148 -4087 4106 0
-4088 4106 0
-148 -4088 4107 0
-4089 4107 0
-148 -4089 4108 0
-4090 4108 0
-148 -4090 4109 0
-4091 4109 0
-148 -4091 4110 0
-4092 4110 0
-148 -4092 4111 0
-4093 4111 0
-148 -4093 4112 0
-4094 4112 0
-148 -4094 0
-149 4113 0
-4095 4113 0
-149 -4095 4114 0
-4096 4114 0
-149 -4096 4115 0
-4097 4115 0
-149 -4097 4116 0
-4098 4116 0
-149 -4098 4117 0
-4099 4117 0
-149 -4099 4118 0
-4100 4118 0
-149 -4100 4119 0
-4101 4119 0
-149 -4101 4120 0
-4102 4120 0
-149 -4102 4121 0
-4103 4121 0
-149 -4103 4122 0
-4104 4122 0
-149 -4104 4123 0
-4105 4123 0
-149 -4105 4124 0
-4106 4124 0
-149 -4106 4125 0
-4107 4125 0
-149 -4107 4126 0
-4108 4126 0
-149 -4108 4127 0
-4109 4127 0
-149 -4109 4128 0
-4110 4128 0
-149 -4110 4129 0
-4111 4129 0
-149 -4111 4130 0
-4112 4130 0
-149 -4112 0
-150 4131 0
-4113 4131 0
-150 -4113 4132 0
-4114 4132 0
-150 -4114 4133 0
-4115 4133 0
-150 -4115 4134 0
-4116 4134 0
-150 -4116 4135 0
-4117 4135 0
-150 -4117 4136 0
-4118 4136 0
-150 -4118 4137 0
-4119 4137 0
-150 -4119 4138 0
-4120 4138 0
-150 -4120 4139 0
-4121 4139 0
-150 -4121 4140 0
-4122 4140 0
-150 -4122 4141 0
-4123 4141 0
-150 -4123 4142 0
-4124 4142 0
-150 -4124 4143 0
-4125 4143 0
-150 -4125 4144 0
-4126 4144 0
-150 -4126 4145 0
-4127 4145 0
-150 -4127 4146 0
-4128 4146 0
-150 -4128 4147 0
-4129 4147 0
-150 -4129 4148 0
-4130 4148 0
-150 -4130 0
-151 4149 0
-4131 4149 0
-151 -4131 4150 0
-4132 4150 0
-151 -4132 4151 0
-4133 4151 0
-151 -4133 4152 0
-4134 4152 0
-151 -4134 4153 0
-4135 4153 0
-151 -4135 4154 0
-4136 4154 0
-151 -4136 4155 0
-4137 4155 0
-151 -4137 4156 0
-4138 4156 0
-151 -4138 4157 0
-4139 4157 0
-151 -4139 4158 0
-4140 4158 0
-151 -4140 4159 0
-4141 4159 0
-151 -4141 4160 0
-4142 4160 0
-151 -4142 4161 0
-4143 4161 0
-151 -4143 4162 0
-4144 4162 0
-151 -4144 4163 0
-4145 4163 0
-151 -4145 4164 0
-4146 4164 0
-151 -4146 4165 0
-4147 4165 0
-151 -4147 4166 0
-4148 4166 0
-151 -4148 0
-152 4167 0
-4149 4167 0
-152 -4149 4168 0
-4150 4168 0
-152 -4150 4169 0
-4151 4169 0
-152 -4151 4170 0
-4152 4170 0
-152 -4152 4171 0
-4153 4171 0
-152 -4153 4172 0
-4154 4172 0
-152 -4154 4173 0
-4155 4173 0
-152 -4155 4174 0
-4156 4174 0
-152 -4156 4175 0
-4157 4175 0
-152 -4157 4176 0
-4158 4176 0
-152 -4158 4177 0
-4159 4177 0
-152 -4159 4178 0
-4160 4178 0
-152 -4160 4179 0
-4161 4179 0
-152 -4161 4180 0
-4162 4180 0
-152 -4162 4181 0
-4163 4181 0
-152 -4163 4182 0
-4164 4182 0
-152 -4164 4183 0
-4165 4183 0
-152 -4165 4184 0
-4166 4184 0
-152 -4166 0
-153 4185 0
-4167 4185 0
-153 -4167 4186 0
-4168 4186 0
-153 -4168 4187 0
-4169 4187 0
-153 -4169 4188 0
-4170 4188 0
-153 -4170 4189 0
-4171 4189 0
-153 -4171 4190 0
-4172 4190 0
-153 -4172 4191 0
-4173 4191 0
-153 -4173 4192 0
-4174 4192 0
-153 -4174 4193 0
-4175 4193 0
-153 -4175 4194 0
-4176 4194 0
-153 -4176 4195 0
-4177 4195 0
-153 -4177 4196 0
-4178 4196 0
-153 -4178 4197 0
-4179 4197 0
-153 -4179 4198 0
-4180 4198 0
-153 -4180 4199 0
-4181 4199 0
-153 -4181 4200 0
-4182 4200 0
-153 -4182 4201 0
-4183 4201 0
-153 -4183 4202 0
-4184 4202 0
-153 -4184 0
-154 4203 0
-4185 4203 0
-154 -4185 4204 0
-4186 4204 0
-154 -4186 4205 0
-4187 4205 0
-154 -4187 4206 0
-4188 4206 0
-154 -4188 4207 0
-4189 4207 0
-154 -4189 4208 0
-4190 4208 0
-154 -4190 4209 0
-4191 4209 0
-154 -4191 4210 0
-4192 4210 0
-154 -4192 4211 0
-4193 4211 0
-154 -4193 4212 0
-4194 4212 0
-154 -4194 4213 0
-4195 4213 0
-154 -4195 4214 0
-4196 4214 0
-154 -4196 4215 0
-4197 4215 0
-154 -4197 4216 0
-4198 4216 0
-154 -4198 4217 0
-4199 4217 0
-154 -4199 4218 0
-4200 4218 0
-154 -4200 4219 0
-4201 4219 0
-154 -4201 4220 0
-4202 4220 0
-154 -4202 0
-155 4221 0
-4203 4221 0
-155 -4203 4222 0
-4204 4222 0
-155 -4204 4223 0
-4205 4223 0
-155 -4205 4224 0
-4206 4224 0
-155 -4206 4225 0
-4207 4225 0
-155 -4207 4226 0
-4208 4226 0
-155 -4208 4227 0
-4209 4227 0
-155 -4209 4228 0
-4210 4228 0
-155 -4210 4229 0
-4211 4229 0
-155 -4211 4230 0
-4212 4230 0
-155 -4212 4231 0
-4213 4231 0
-155 -4213 4232 0
-4214 4232 0
-155 -4214 4233 0
-4215 4233 0
-155 -4215 4234 0
-4216 4234 0
-155 -4216 4235 0
-4217 4235 0
-155 -4217 4236 0
-4218 4236 0
-155 -4218 4237 0
-4219 4237 0
-155 -4219 4238 0
-4220 4238 0
-155 -4220 0
-156 4239 0
-4221 4239 0
-156 -4221 4240 0
-4222 4240 0
-156 -4222 4241 0
-4223 4241 0
-156 -4223 4242 0
-4224 4242 0
-156 -4224 4243 0
-4225 4243 0
-156 -4225 4244 0
-4226 4244 0
-156 -4226 4245 0
-4227 4245 0
-156 -4227 4246 0
-4228 4246 0
-156 -4228 4247 0
-4229 4247 0
-156 -4229 4248 0
-4230 4248 0
-156 -4230 4249 0
-4231 4249 0
-156 -4231 4250 0
-4232 4250 0
-156 -4232 4251 0
-4233 4251 0
-156 -4233 4252 0
-4234 4252 0
-156 -4234 4253 0
-4235 4253 0
-156 -4235 4254 0
-4236 4254 0
-156 -4236 4255 0
-4237 4255 0
-156 -4237 4256 0
-4238 4256 0
-156 -4238 0
-157 4257 0
-4239 4257 0
-157 -4239 4258 0
-4240 4258 0
-157 -4240 4259 0
-4241 4259 0
-157 -4241 4260 0
-4242 4260 0
-157 -4242 4261 0
-4243 4261 0
-157 -4243 4262 0
-4244 4262 0
-157 -4244 4263 0
-4245 4263 0
-157 -4245 4264 0
-4246 4264 0
-157 -4246 4265 0
-4247 4265 0
-157 -4247 4266 0
-4248 4266 0
-157 -4248 4267 0
-4249 4267 0
-157 -4249 4268 0
-4250 4268 0
-157 -4250 4269 0
-4251 4269 0
-157 -4251 4270 0
-4252 4270 0
-157 -4252 4271 0
-4253 4271 0
-157 -4253 4272 0
-4254 4272 0
-157 -4254 4273 0
-4255 4273 0
-157 -4255 4274 0
-4256 4274 0
-157 -4256 0
-158 4275 0
-4257 4275 0
-158 -4257 4276 0
-4258 4276 0
-158 -4258 4277 0
-4259 4277 0
-158 -4259 4278 0
-4260 4278 0
-158 -4260 4279 0
-4261 4279 0
-158 -4261 4280 0
-4262 4280 0
-158 -4262 4281 0
-4263 4281 0
-158 -4263 4282 0
-4264 4282 0
-158 -4264 4283 0
-4265 4283 0
-158 -4265 4284 0
-4266 4284 0
-158 -4266 4285 0
-4267 4285 0
-158 -4267 4286 0
-4268 4286 0
-158 -4268 4287 0
-4269 4287 0
-158 -4269 4288 0
-4270 4288 0
-158 -4270 4289 0
-4271 4289 0
-158 -4271 4290 0
-4272 4290 0
-158 -4272 4291 0
-4273 4291 0
-158 -4273 4292 0
-4274 4292 0
-158 -4274 0
-159 4293 0
-4275 4293 0
-159 -4275 4294 0
-4276 4294 0
-159 -4276 4295 0
-4277 4295 0
-159 -4277 4296 0
-4278 4296 0
-159 -4278 4297 0
-4279 4297 0
-159 -4279 4298 0
-4280 4298 0
-159 -4280 4299 0
-4281 4299 0
-159 -4281 4300 0
-4282 4300 0
-159 -4282 4301 0
-4283 4301 0
-159 -4283 4302 0
-4284 4302 0
-159 -4284 4303 0
-4285 4303 0
-159 -4285 4304 0
-4286 4304 0
-159 -4286 4305 0
-4287 4305 0
-159 -4287 4306 0
-4288 4306 0
-159 -4288 4307 0
-4289 4307 0
-159 -4289 4308 0
-4290 4308 0
-159 -4290 4309 0
-4291 4309 0
-159 -4291 4310 0
-4292 4310 0
-159 -4292 0
-160 4311 0
-4293 4311 0
-160 -4293 4312 0
-4294 4312 0
-160 -4294 4313 0
-4295 4313 0
-160 -4295 4314 0
-4296 4314 0
-160 -4296 4315 0
-4297 4315 0
-160 -4297 4316 0
-4298 4316 0
-160 -4298 4317 0
-4299 4317 0
-160 -4299 4318 0
-4300 4318 0
-160 -4300 4319 0
-4301 4319 0
-160 -4301 4320 0
-4302 4320 0
-160 -4302 4321 0
-4303 4321 0
-160 -4303 4322 0
-4304 4322 0
-160 -4304 4323 0
-4305 4323 0
-160 -4305 4324 0
-4306 4324 0
-160 -4306 4325 0
-4307 4325 0
-160 -4307 4326 0
-4308 4326 0
-160 -4308 4327 0
-4309 4327 0
-160 -4309 4328 0
-4310 4328 0
-160 -4310 0
-161 4329 0
-4311 4329 0
-161 -4311 4330 0
-4312 4330 0
-161 -4312 4331 0
-4313 4331 0
-161 -4313 4332 0
-4314 4332 0
-161 -4314 4333 0
-4315 4333 0
-161 -4315 4334 0
-4316 4334 0
-161 -4316 4335 0
-4317 4335 0
-161 -4317 4336 0
-4318 4336 0
-161 -4318 4337 0
-4319 4337 0
-161 -4319 4338 0
-4320 4338 0
-161 -4320 4339 0
-4321 4339 0
-161 -4321 4340 0
-4322 4340 0
-161 -4322 4341 0
-4323 4341 0
-161 -4323 4342 0
-4324 4342 0
-161 -4324 4343 0
-4325 4343 0
-161 -4325 4344 0
-4326 4344 0
-161 -4326 4345 0
-4327 4345 0
-161 -4327 4346 0
-4328 4346 0
-161 -4328 0
-162 4347 0
-4329 4347 0
-162 -4329 4348 0
-4330 4348 0
-162 -4330 4349 0
-4331 4349 0
-162 -4331 4350 0
-4332 4350 0
-162 -4332 4351 0
-4333 4351 0
-162 -4333 4352 0
-4334 4352 0
-162 -4334 4353 0
-4335 4353 0
-162 -4335 4354 0
-4336 4354 0
-162 -4336 4355 0
-4337 4355 0
-162 -4337 4356 0
-4338 4356 0
-162 -4338 4357 0
-4339 4357 0
-162 -4339 4358 0
-4340 4358 0
-162 -4340 4359 0
-4341 4359 0
-162 -4341 4360 0
-4342 4360 0
-162 -4342 4361 0
-4343 4361 0
-162 -4343 4362 0
-4344 4362 0
-162 -4344 4363 0
-4345 4363 0
-162 -4345 4364 0
-4346 4364 0
-162 -4346 0
-163 4365 0
-4347 4365 0
-163 -4347 4366 0
-4348 4366 0
-163 -4348 4367 0
-4349 4367 0
-163 -4349 4368 0
-4350 4368 0
-163 -4350 4369 0
-4351 4369 0
-163 -4351 4370 0
-4352 4370 0
-163 -4352 4371 0
-4353 4371 0
-163 -4353 4372 0
-4354 4372 0
-163 -4354 4373 0
-4355 4373 0
-163 -4355 4374 0
-4356 4374 0
-163 -4356 4375 0
-4357 4375 0
-163 -4357 4376 0
-4358 4376 0
-163 -4358 4377 0
-4359 4377 0
-163 -4359 4378 0
-4360 4378 0
-163 -4360 4379 0
-4361 4379 0
-163 -4361 4380 0
-4362 4380 0
-163 -4362 4381 0
-4363 4381 0
-163 -4363 4382 0
-4364 4382 0
-163 -4364 0
-164 4383 0
-4365 4383 0
-164 -4365 4384 0
-4366 4384 0
-164 -4366 4385 0
-4367 4385 0
-164 -4367 4386 0
-4368 4386 0
-164 -4368 4387 0
-4369 4387 0
-164 -4369 4388 0
-4370 4388 0
-164 -4370 4389 0
-4371 4389 0
-164 -4371 4390 0
-4372 4390 0
-164 -4372 4391 0
-4373 4391 0
-164 -4373 4392 0
-4374 4392 0
-164 -4374 4393 0
-4375 4393 0
-164 -4375 4394 0
-4376 4394 0
-164 -4376 4395 0
-4377 4395 0
-164 -4377 4396 0
-4378 4396 0
-164 -4378 4397 0
-4379 4397 0
-164 -4379 4398 0
-4380 4398 0
-164 -4380 4399 0
-4381 4399 0
-164 -4381 4400 0
-4382 4400 0
-164 -4382 0
-165 4401 0
-4383 4401 0
-165 -4383 4402 0
-4384 4402 0
-165 -4384 4403 0
-4385 4403 0
-165 -4385 4404 0
-4386 4404 0
-165 -4386 4405 0
-4387 4405 0
-165 -4387 4406 0
-4388 4406 0
-165 -4388 4407 0
-4389 4407 0
-165 -4389 4408 0
-4390 4408 0
-165 -4390 4409 0
-4391 4409 0
-165 -4391 4410 0
-4392 4410 0
-165 -4392 4411 0
-4393 4411 0
-165 -4393 4412 0
-4394 4412 0
-165 -4394 4413 0
-4395 4413 0
-165 -4395 4414 0
-4396 4414 0
-165 -4396 4415 0
-4397 4415 0
-165 -4397 4416 0
-4398 4416 0
-165 -4398 4417 0
-4399 4417 0
-165 -4399 4418 0
-4400 4418 0
-165 -4400 0
-166 4419 0
-4401 4419 0
-166 -4401 4420 0
-4402 4420 0
-166 -4402 4421 0
-4403 4421 0
-166 -4403 4422 0
-4404 4422 0
-166 -4404 4423 0
-4405 4423 0
-166 -4405 4424 0
-4406 4424 0
-166 -4406 4425 0
-4407 4425 0
-166 -4407 4426 0
-4408 4426 0
-166 -4408 4427 0
-4409 4427 0
-166 -4409 4428 0
-4410 4428 0
-166 -4410 4429 0
-4411 4429 0
-166 -4411 4430 0
-4412 4430 0
-166 -4412 4431 0
-4413 4431 0
-166 -4413 4432 0
-4414 4432 0
-166 -4414 4433 0
-4415 4433 0
-166 -4415 4434 0
-4416 4434 0
-166 -4416 4435 0
-4417 4435 0
-166 -4417 4436 0
-4418 4436 0
-166 -4418 0
-167 4437 0
-4419 4437 0
-167 -4419 4438 0
-4420 4438 0
-167 -4420 4439 0
-4421 4439 0
-167 -4421 4440 0
-4422 4440 0
-167 -4422 4441 0
-4423 4441 0
-167 -4423 4442 0
-4424 4442 0
-167 -4424 4443 0
-4425 4443 0
-167 -4425 4444 0
-4426 4444 0
-167 -4426 4445 0
-4427 4445 0
-167 -4427 4446 0
-4428 4446 0
-167 -4428 4447 0
-4429 4447 0
-167 -4429 4448 0
-4430 4448 0
-167 -4430 4449 0
-4431 4449 0
-167 -4431 4450 0
-4432 4450 0
-167 -4432 4451 0
-4433 4451 0
-167 -4433 4452 0
-4434 4452 0
-167 -4434 4453 0
-4435 4453 0
-167 -4435 4454 0
-4436 4454 0
-167 -4436 0
-168 4455 0
-4437 4455 0
-168 -4437 4456 0
-4438 4456 0
-168 -4438 4457 0
-4439 4457 0
-168 -4439 4458 0
-4440 4458 0
-168 -4440 4459 0
-4441 4459 0
-168 -4441 4460 0
-4442 4460 0
-168 -4442 4461 0
-4443 4461 0
-168 -4443 4462 0
-4444 4462 0
-168 -4444 4463 0
-4445 4463 0
-168 -4445 4464 0
-4446 4464 0
-168 -4446 4465 0
-4447 4465 0
-168 -4447 4466 0
-4448 4466 0
-168 -4448 4467 0
-4449 4467 0
-168 -4449 4468 0
-4450 4468 0
-168 -4450 4469 0
-4451 4469 0
-168 -4451 4470 0
-4452 4470 0
-168 -4452 4471 0
-4453 4471 0
-168 -4453 4472 0
-4454 4472 0
-168 -4454 0
-169 4473 0
-4455 4473 0
-169 -4455 4474 0
-4456 4474 0
-169 -4456 4475 0
-4457 4475 0
-169 -4457 4476 0
-4458 4476 0
-169 -4458 4477 0
-4459 4477 0
-169 -4459 4478 0
-4460 4478 0
-169 -4460 4479 0
-4461 4479 0
-169 -4461 4480 0
-4462 4480 0
-169 -4462 4481 0
-4463 4481 0
-169 -4463 4482 0
-4464 4482 0
-169 -4464 4483 0
-4465 4483 0
-169 -4465 4484 0
-4466 4484 0
-169 -4466 4485 0
-4467 4485 0
-169 -4467 4486 0
-4468 4486 0
-169 -4468 4487 0
-4469 4487 0
-169 -4469 4488 0
-4470 4488 0
-169 -4470 4489 0
-4471 4489 0
-169 -4471 4490 0
-4472 4490 0
-169 -4472 0
-170 4491 0
-4473 4491 0
-170 -4473 4492 0
-4474 4492 0
-170 -4474 4493 0
-4475 4493 0
-170 -4475 4494 0
-4476 4494 0
-170 -4476 4495 0
-4477 4495 0
-170 -4477 4496 0
-4478 4496 0
-170 -4478 4497 0
-4479 4497 0
-170 -4479 4498 0
-4480 4498 0
-170 -4480 4499 0
-4481 4499 0
-170 -4481 4500 0
-4482 4500 0
-170 -4482 4501 0
-4483 4501 0
-170 -4483 4502 0
-4484 4502 0
-170 -4484 4503 0
-4485 4503 0
-170 -4485 4504 0
-4486 4504 0
-170 -4486 4505 0
-4487 4505 0
-170 -4487 4506 0
-4488 4506 0
-170 -4488 4507 0
-4489 4507 0
-170 -4489 4508 0
-4490 4508 0
-170 -4490 0
-171 4509 0
-4491 4509 0
-171 -4491 4510 0
-4492 4510 0
-171 -4492 4511 0
-4493 4511 0
-171 -4493 4512 0
-4494 4512 0
-171 -4494 4513 0
-4495 4513 0
-171 -4495 4514 0
-4496 4514 0
-171 -4496 4515 0
-4497 4515 0
-171 -4497 4516 0
-4498 4516 0
-171 -4498 4517 0
-4499 4517 0
-171 -4499 4518 0
-4500 4518 0
-171 -4500 4519 0
-4501 4519 0
-171 -4501 4520 0
-4502 4520 0
-171 -4502 4521 0
-4503 4521 0
-171 -4503 4522 0
-4504 4522 0
-171 -4504 4523 0
-4505 4523 0
-171 -4505 4524 0
-4506 4524 0
-171 -4506 4525 0
-4507 4525 0
-171 -4507 4526 0
-4508 4526 0
-171 -4508 0
-172 4527 0
-4509 4527 0
-172 -4509 4528 0
-4510 4528 0
-172 -4510 4529 0
-4511 4529 0
-172 -4511 4530 0
-4512 4530 0
-172 -4512 4531 0
-4513 4531 0
-172 -4513 4532 0
-4514 4532 0
-172 -4514 4533 0
-4515 4533 0
-172 -4515 4534 0
-4516 4534 0
-172 -4516 4535 0
-4517 4535 0
-172 -4517 4536 0
-4518 4536 0
-172 -4518 4537 0
-4519 4537 0
-172 -4519 4538 0
-4520 4538 0
-172 -4520 4539 0
-4521 4539 0
-172 -4521 4540 0
-4522 4540 0
-172 -4522 4541 0
-4523 4541 0
-172 -4523 4542 0
-4524 4542 0
-172 -4524 4543 0
-4525 4543 0
-172 -4525 4544 0
-4526 4544 0
-172 -4526 0
-173 4545 0
-4527 4545 0
-173 -4527 4546 0
-4528 4546 0
-173 -4528 4547 0
-4529 4547 0
-173 -4529 4548 0
-4530 4548 0
-173 -4530 4549 0
-4531 4549 0
-173 -4531 4550 0
-4532 4550 0
-173 -4532 4551 0
-4533 4551 0
-173 -4533 4552 0
-4534 4552 0
-173 -4534 4553 0
-4535 4553 0
-173 -4535 4554 0
-4536 4554 0
-173 -4536 4555 0
-4537 4555 0
-173 -4537 4556 0
-4538 4556 0
-173 -4538 4557 0
-4539 4557 0
-173 -4539 4558 0
-4540 4558 0
-173 -4540 4559 0
-4541 4559 0
-173 -4541 4560 0
-4542 4560 0
-173 -4542 4561 0
-4543 4561 0
-173 -4543 4562 0
-4544 4562 0
-173 -4544 0
-174 4563 0
-4545 4563 0
-174 -4545 4564 0
-4546 4564 0
-174 -4546 4565 0
-4547 4565 0
-174 -4547 4566 0
-4548 4566 0
-174 -4548 4567 0
-4549 4567 0
-174 -4549 4568 0
-4550 4568 0
-174 -4550 4569 0
-4551 4569 0
-174 -4551 4570 0
-4552 4570 0
-174 -4552 4571 0
-4553 4571 0
-174 -4553 4572 0
-4554 4572 0
-174 -4554 4573 0
-4555 4573 0
-174 -4555 4574 0
-4556 4574 0
-174 -4556 4575 0
-4557 4575 0
-174 -4557 4576 0
-4558 4576 0
-174 -4558 4577 0
-4559 4577 0
-174 -4559 4578 0
-4560 4578 0
-174 -4560 4579 0
-4561 4579 0
-174 -4561 4580 0
-4562 4580 0
-174 -4562 0
-175 4581 0
-4563 4581 0
-175 -4563 4582 0
-4564 4582 0
-175 -4564 4583 0
-4565 4583 0
-175 -4565 4584 0
-4566 4584 0
-175 -4566 4585 0
-4567 4585 0
-175 -4567 4586 0
-4568 4586 0
-175 -4568 4587 0
-4569 4587 0
-175 -4569 4588 0
-4570 4588 0
-175 -4570 4589 0
-4571 4589 0
-175 -4571 4590 0
-4572 4590 0
-175 -4572 4591 0
-4573 4591 0
-175 -4573 4592 0
-4574 4592 0
-175 -4574 4593 0
-4575 4593 0
-175 -4575 4594 0
-4576 4594 0
-175 -4576 4595 0
-4577 4595 0
-175 -4577 4596 0
-4578 4596 0
-175 -4578 4597 0
-4579 4597 0
-175 -4579 4598 0
-4580 4598 0
-175 -4580 0
-176 4599 0
-4581 4599 0
-176 -4581 4600 0
-4582 4600 0
-176 -4582 4601 0
-4583 4601 0
-176 -4583 4602 0
-4584 4602 0
-176 -4584 4603 0
-4585 4603 0
-176 -4585 4604 0
-4586 4604 0
-176 -4586 4605 0
-4587 4605 0
-176 -4587 4606 0
-4588 4606 0
-176 -4588 4607 0
-4589 4607 0
-176 -4589 4608 0
-4590 4608 0
-176 -4590 4609 0
-4591 4609 0
-176 -4591 4610 0
-4592 4610 0
-176 -4592 4611 0
-4593 4611 0
-176 -4593 4612 0
-4594 4612 0
-176 -4594 4613 0
-4595 4613 0
-176 -4595 4614 0
-4596 4614 0
-176 -4596 4615 0
-4597 4615 0
-176 -4597 4616 0
-4598 4616 0
-176 -4598 0
-177 4617 0
-4599 4617 0
-177 -4599 4618 0
-4600 4618 0
-177 -4600 4619 0
-4601 4619 0
-177 -4601 4620 0
-4602 4620 0
-177 -4602 4621 0
-4603 4621 0
-177 -4603 4622 0
-4604 4622 0
-177 -4604 4623 0
-4605 4623 0
-177 -4605 4624 0
-4606 4624 0
-177 -4606 4625 0
-4607 4625 0
-177 -4607 4626 0
-4608 4626 0
-177 -4608 4627 0
-4609 4627 0
-177 -4609 4628 0
-4610 4628 0
-177 -4610 4629 0
-4611 4629 0
-177 -4611 4630 0
-4612 4630 0
-177 -4612 4631 0
-4613 4631 0
-177 -4613 4632 0
-4614 4632 0
-177 -4614 4633 0
-4615 4633 0
-177 -4615 4634 0
-4616 4634 0
-177 -4616 0
-178 4635 0
-4617 4635 0
-178 -4617 4636 0
-4618 4636 0
-178 -4618 4637 0
-4619 4637 0
-178 -4619 4638 0
-4620 4638 0
-178 -4620 4639 0
-4621 4639 0
-178 -4621 4640 0
-4622 4640 0
-178 -4622 4641 0
-4623 4641 0
-178 -4623 4642 0
-4624 4642 0
-178 -4624 4643 0
-4625 4643 0
-178 -4625 4644 0
-4626 4644 0
-178 -4626 4645 0
-4627 4645 0
-178 -4627 4646 0
-4628 4646 0
-178 -4628 4647 0
-4629 4647 0
-178 -4629 4648 0
-4630 4648 0
-178 -4630 4649 0
-4631 4649 0
-178 -4631 4650 0
-4632 4650 0
-178 -4632 4651 0
-4633 4651 0
-178 -4633 4652 0
-4634 4652 0
-178 -4634 0
-179 4653 0
-4635 4653 0
-179 -4635 4654 0
-4636 4654 0
-179 -4636 4655 0
-4637 4655 0
-179 -4637 4656 0
-4638 4656 0
-179 -4638 4657 0
-4639 4657 0
-179 -4639 4658 0
-4640 4658 0
-179 -4640 4659 0
-4641 4659 0
-179 -4641 4660 0
-4642 4660 0
-179 -4642 4661 0
-4643 4661 0
-179 -4643 4662 0
-4644 4662 0
-179 -4644 4663 0
-4645 4663 0
-179 -4645 4664 0
-4646 4664 0
-179 -4646 4665 0
-4647 4665 0
-179 -4647 4666 0
-4648 4666 0
-179 -4648 4667 0
-4649 4667 0
-179 -4649 4668 0
-4650 4668 0
-179 -4650 4669 0
-4651 4669 0
-179 -4651 4670 0
-4652 4670 0
-179 -4652 0
-180 4671 0
-4653 4671 0
-180 -4653 4672 0
-4654 4672 0
-180 -4654 4673 0
-4655 4673 0
-180 -4655 4674 0
-4656 4674 0
-180 -4656 4675 0
-4657 4675 0
-180 -4657 4676 0
-4658 4676 0
-180 -4658 4677 0
-4659 4677 0
-180 -4659 4678 0
-4660 4678 0
-180 -4660 4679 0
-4661 4679 0
-180 -4661 4680 0
-4662 4680 0
-180 -4662 4681 0
-4663 4681 0
-180 -4663 4682 0
-4664 4682 0
-180 -4664 4683 0
-4665 4683 0
-180 -4665 4684 0
-4666 4684 0
-180 -4666 4685 0
-4667 4685 0
-180 -4667 4686 0
-4668 4686 0
-180 -4668 4687 0
-4669 4687 0
-180 -4669 4688 0
-4670 4688 0
-180 -4670 0
-181 4689 0
-4671 4689 0
-181 -4671 4690 0
-4672 4690 0
-181 -4672 4691 0
-4673 4691 0
-181 -4673 4692 0
-4674 4692 0
-181 -4674 4693 0
-4675 4693 0
-181 -4675 4694 0
-4676 4694 0
-181 -4676 4695 0
-4677 4695 0
-181 -4677 4696 0
-4678 4696 0
-181 -4678 4697 0
-4679 4697 0
-181 -4679 4698 0
-4680 4698 0
-181 -4680 4699 0
-4681 4699 0
-181 -4681 4700 0
-4682 4700 0
-181 -4682 4701 0
-4683 4701 0
-181 -4683 4702 0
-4684 4702 0
-181 -4684 4703 0
-4685 4703 0
-181 -4685 4704 0
-4686 4704 0
-181 -4686 4705 0
-4687 4705 0
-181 -4687 4706 0
-4688 4706 0
-181 -4688 0
-182 4707 0
-4689 4707 0
-182 -4689 4708 0
-4690 4708 0
-182 -4690 4709 0
-4691 4709 0
-182 -4691 4710 0
-4692 4710 0
-182 -4692 4711 0
-4693 4711 0
-182 -4693 4712 0
-4694 4712 0
-182 -4694 4713 0
-4695 4713 0
-182 -4695 4714 0
-4696 4714 0
-182 -4696 4715 0
-4697 4715 0
-182 -4697 4716 0
-4698 4716 0
-182 -4698 4717 0
-4699 4717 0
-182 -4699 4718 0
-4700 4718 0
-182 -4700 4719 0
-4701 4719 0
-182 -4701 4720 0
-4702 4720 0
-182 -4702 4721 0
-4703 4721 0
-182 -4703 4722 0
-4704 4722 0
-182 -4704 4723 0
-4705 4723 0
-182 -4705 4724 0
-4706 4724 0
-182 -4706 0
-183 4725 0
-4707 4725 0
-183 -4707 4726 0
-4708 4726 0
-183 -4708 4727 0
-4709 4727 0
-183 -4709 4728 0
-4710 4728 0
-183 -4710 4729 0
-4711 4729 0
-183 -4711 4730 0
-4712 4730 0
-183 -4712 4731 0
-4713 4731 0
-183 -4713 4732 0
-4714 4732 0
-183 -4714 4733 0
-4715 4733 0
-183 -4715 4734 0
-4716 4734 0
-183 -4716 4735 0
-4717 4735 0
-183 -4717 4736 0
-4718 4736 0
-183 -4718 4737 0
-4719 4737 0
-183 -4719 4738 0
-4720 4738 0
-183 -4720 4739 0
-4721 4739 0
-183 -4721 4740 0
-4722 4740 0
-183 -4722 4741 0
-4723 4741 0
-183 -4723 4742 0
-4724 4742 0
-183 -4724 0
-184 4743 0
-4725 4743 0
-184 -4725 4744 0
-4726 4744 0
-184 -4726 4745 0
-4727 4745 0
-184 -4727 4746 0
-4728 4746 0
-184 -4728 4747 0
-4729 4747 0
-184 -4729 4748 0
-4730 4748 0
-184 -4730 4749 0
-4731 4749 0
-184 -4731 4750 0
-4732 4750 0
-184 -4732 4751 0
-4733 4751 0
-184 -4733 4752 0
-4734 4752 0
-184 -4734 4753 0
-4735 4753 0
-184 -4735 4754 0
-4736 4754 0
-184 -4736 4755 0
-4737 4755 0
-184 -4737 4756 0
-4738 4756 0
-184 -4738 4757 0
-4739 4757 0
-184 -4739 4758 0
-4740 4758 0
-184 -4740 4759 0
-4741 4759 0
-184 -4741 4760 0
-4742 4760 0
-184 -4742 0
-185 4761 0
-4743 4761 0
-185 -4743 4762 0
-4744 4762 0
-185 -4744 4763 0
-4745 4763 0
-185 -4745 4764 0
-4746 4764 0
-185 -4746 4765 0
-4747 4765 0
-185 -4747 4766 0
-4748 4766 0
-185 -4748 4767 0
-4749 4767 0
-185 -4749 4768 0
-4750 4768 0
-185 -4750 4769 0
-4751 4769 0
-185 -4751 4770 0
-4752 4770 0
-185 -4752 4771 0
-4753 4771 0
-185 -4753 4772 0
-4754 4772 0
-185 -4754 4773 0
-4755 4773 0
-185 -4755 4774 0
-4756 4774 0
-185 -4756 4775 0
-4757 4775 0
-185 -4757 4776 0
-4758 4776 0
-185 -4758 4777 0
-4759 4777 0
-185 -4759 4778 0
-4760 4778 0
-185 -4760 0
-186 4779 0
-4761 4779 0
-186 -4761 4780 0
-4762 4780 0
-186 -4762 4781 0
-4763 4781 0
-186 -4763 4782 0
-4764 4782 0
-186 -4764 4783 0
-4765 4783 0
-186 -4765 4784 0
-4766 4784 0
-186 -4766 4785 0
-4767 4785 0
-186 -4767 4786 0
-4768 4786 0
-186 -4768 4787 0
-4769 4787 0
-186 -4769 4788 0
-4770 4788 0
-186 -4770 4789 0
-4771 4789 0
-186 -4771 4790 0
-4772 4790 0
-186 -4772 4791 0
-4773 4791 0
-186 -4773 4792 0
-4774 4792 0
-186 -4774 4793 0
-4775 4793 0
-186 -4775 4794 0
-4776 4794 0
-186 -4776 4795 0
-4777 4795 0
-186 -4777 4796 0
-4778 4796 0
-186 -4778 0
-187 4797 0
-4779 4797 0
-187 -4779 4798 0
-4780 4798 0
-187 -4780 4799 0
-4781 4799 0
-187 -4781 4800 0
-4782 4800 0
-187 -4782 4801 0
-4783 4801 0
-187 -4783 4802 0
-4784 4802 0
-187 -4784 4803 0
-4785 4803 0
-187 -4785 4804 0
-4786 4804 0
-187 -4786 4805 0
-4787 4805 0
-187 -4787 4806 0
-4788 4806 0
-187 -4788 4807 0
-4789 4807 0
-187 -4789 4808 0
-4790 4808 0
-187 -4790 4809 0
-4791 4809 0
-187 -4791 4810 0
-4792 4810 0
-187 -4792 4811 0
-4793 4811 0
-187 -4793 4812 0
-4794 4812 0
-187 -4794 4813 0
-4795 4813 0
-187 -4795 4814 0
-4796 4814 0
-187 -4796 0
-188 4815 0
-4797 4815 0
-188 -4797 4816 0
-4798 4816 0
-188 -4798 4817 0
-4799 4817 0
-188 -4799 4818 0
-4800 4818 0
-188 -4800 4819 0
-4801 4819 0
-188 -4801 4820 0
-4802 4820 0
-188 -4802 4821 0
-4803 4821 0
-188 -4803 4822 0
-4804 4822 0
-188 -4804 4823 0
-4805 4823 0
-188 -4805 4824 0
-4806 4824 0
-188 -4806 4825 0
-4807 4825 0
-188 -4807 4826 0
-4808 4826 0
-188 -4808 4827 0
-4809 4827 0
-188 -4809 4828 0
-4810 4828 0
-188 -4810 4829 0
-4811 4829 0
-188 -4811 4830 0
-4812 4830 0
-188 -4812 4831 0
-4813 4831 0
-188 -4813 4832 0
-4814 4832 0
-188 -4814 0
-189 4833 0
-4815 4833 0
-189 -4815 4834 0
-4816 4834 0
-189 -4816 4835 0
-4817 4835 0
-189 -4817 4836 0
-4818 4836 0
-189 -4818 4837 0
-4819 4837 0
-189 -4819 4838 0
-4820 4838 0
-189 -4820 4839 0
-4821 4839 0
-189 -4821 4840 0
-4822 4840 0
-189 -4822 4841 0
-4823 4841 0
-189 -4823 4842 0
-4824 4842 0
-189 -4824 4843 0
-4825 4843 0
-189 -4825 4844 0
-4826 4844 0
-189 -4826 4845 0
-4827 4845 0
-189 -4827 4846 0
-4828 4846 0
-189 -4828 4847 0
-4829 4847 0
-189 -4829 4848 0
-4830 4848 0
-189 -4830 4849 0
-4831 4849 0
-189 -4831 4850 0
-4832 4850 0
-189 -4832 0
-190 4851 0
-4833 4851 0
-190 -4833 4852 0
-4834 4852 0
-190 -4834 4853 0
-4835 4853 0
-190 -4835 4854 0
-4836 4854 0
-190 -4836 4855 0
-4837 4855 0
-190 -4837 4856 0
-4838 4856 0
-190 -4838 4857 0
-4839 4857 0
-190 -4839 4858 0
-4840 4858 0
-190 -4840 4859 0
-4841 4859 0
-190 -4841 4860 0
-4842 4860 0
-190 -4842 4861 0
-4843 4861 0
-190 -4843 4862 0
-4844 4862 0
-190 -4844 4863 0
-4845 4863 0
-190 -4845 4864 0
-4846 4864 0
-190 -4846 4865 0
-4847 4865 0
-190 -4847 4866 0
-4848 4866 0
-190 -4848 4867 0
-4849 4867 0
-190 -4849 4868 0
-4850 4868 0
-190 -4850 0
-191 4869 0
-4851 4869 0
-191 -4851 4870 0
-4852 4870 0
-191 -4852 4871 0
-4853 4871 0
-191 -4853 4872 0
-4854 4872 0
-191 -4854 4873 0
-4855 4873 0
-191 -4855 4874 0
-4856 4874 0
-191 -4856 4875 0
-4857 4875 0
-191 -4857 4876 0
-4858 4876 0
-191 -4858 4877 0
-4859 4877 0
-191 -4859 4878 0
-4860 4878 0
-191 -4860 4879 0
-4861 4879 0
-191 -4861 4880 0
-4862 4880 0
-191 -4862 4881 0
-4863 4881 0
-191 -4863 4882 0
-4864 4882 0
-191 -4864 4883 0
-4865 4883 0
-191 -4865 4884 0
-4866 4884 0
-191 -4866 4885 0
-4867 4885 0
-191 -4867 4886 0
-4868 4886 0
-191 -4868 0
-192 4887 0
-4869 4887 0
-192 -4869 4888 0
-4870 4888 0
-192 -4870 4889 0
-4871 4889 0
-192 -4871 4890 0
-4872 4890 0
-192 -4872 4891 0
-4873 4891 0
-192 -4873 4892 0
-4874 4892 0
-192 -4874 4893 0
-4875 4893 0
-192 -4875 4894 0
-4876 4894 0
-192 -4876 4895 0
-4877 4895 0
-192 -4877 4896 0
-4878 4896 0
-192 -4878 4897 0
-4879 4897 0
-192 -4879 4898 0
-4880 4898 0
-192 -4880 4899 0
-4881 4899 0
-192 -4881 4900 0
-4882 4900 0
-192 -4882 4901 0
-4883 4901 0
-192 -4883 4902 0
-4884 4902 0
-192 -4884 4903 0
-4885 4903 0
-192 -4885 4904 0
-4886 4904 0
-192 -4886 0
-193 4905 0
-4887 4905 0
-193 -4887 4906 0
-4888 4906 0
-193 -4888 4907 0
-4889 4907 0
-193 -4889 4908 0
-4890 4908 0
-193 -4890 4909 0
-4891 4909 0
-193 -4891 4910 0
-4892 4910 0
-193 -4892 4911 0
-4893 4911 0
-193 -4893 4912 0
-4894 4912 0
-193 -4894 4913 0
-4895 4913 0
-193 -4895 4914 0
-4896 4914 0
-193 -4896 4915 0
-4897 4915 0
-193 -4897 4916 0
-4898 4916 0
-193 -4898 4917 0
-4899 4917 0
-193 -4899 4918 0
-4900 4918 0
-193 -4900 4919 0
-4901 4919 0
-193 -4901 4920 0
-4902 4920 0
-193 -4902 4921 0
-4903 4921 0
-193 -4903 4922 0
-4904 4922 0
-193 -4904 0
-194 4923 0
-4905 4923 0
-194 -4905 4924 0
-4906 4924 0
-194 -4906 4925 0
-4907 4925 0
-194 -4907 4926 0
-4908 4926 0
-194 -4908 4927 0
-4909 4927 0
-194 -4909 4928 0
-4910 4928 0
-194 -4910 4929 0
-4911 4929 0
-194 -4911 4930 0
-4912 4930 0
-194 -4912 4931 0
-4913 4931 0
-194 -4913 4932 0
-4914 4932 0
-194 -4914 4933 0
-4915 4933 0
-194 -4915 4934 0
-4916 4934 0
-194 -4916 4935 0
-4917 4935 0
-194 -4917 4936 0
-4918 4936 0
-194 -4918 4937 0
-4919 4937 0
-194 -4919 4938 0
-4920 4938 0
-194 -4920 4939 0
-4921 4939 0
-194 -4921 4940 0
-4922 4940 0
-194 -4922 0
-195 4941 0
-4923 4941 0
-195 -4923 4942 0
-4924 4942 0
-195 -4924 4943 0
-4925 4943 0
-195 -4925 4944 0
-4926 4944 0
-195 -4926 4945 0
-4927 4945 0
-195 -4927 4946 0
-4928 4946 0
-195 -4928 4947 0
-4929 4947 0
-195 -4929 4948 0
-4930 4948 0
-195 -4930 4949 0
-4931 4949 0
-195 -4931 4950 0
-4932 4950 0
-195 -4932 4951 0
-4933 4951 0
-195 -4933 4952 0
-4934 4952 0
-195 -4934 4953 0
-4935 4953 0
-195 -4935 4954 0
-4936 4954 0
-195 -4936 4955 0
-4937 4955 0
-195 -4937 4956 0
-4938 4956 0
-195 -4938 4957 0
-4939 4957 0
-195 -4939 4958 0
-4940 4958 0
-195 -4940 0
-196 4959 0
-4941 4959 0
-196 -4941 4960 0
-4942 4960 0
-196 -4942 4961 0
-4943 4961 0
-196 -4943 4962 0
-4944 4962 0
-196 -4944 4963 0
-4945 4963 0
-196 -4945 4964 0
-4946 4964 0
-196 -4946 4965 0
-4947 4965 0
-196 -4947 4966 0
-4948 4966 0
-196 -4948 4967 0
-4949 4967 0
-196 -4949 4968 0
-4950 4968 0
-196 -4950 4969 0
-4951 4969 0
-196 -4951 4970 0
-4952 4970 0
-196 -4952 4971 0
-4953 4971 0
-196 -4953 4972 0
-4954 4972 0
-196 -4954 4973 0
-4955 4973 0
-196 -4955 4974 0
-4956 4974 0
-196 -4956 4975 0
-4957 4975 0
-196 -4957 4976 0
-4958 4976 0
-196 -4958 0
-197 4977 0
-4959 4977 0
-197 -4959 4978 0
-4960 4978 0
-197 -4960 4979 0
-4961 4979 0
-197 -4961 4980 0
-4962 4980 0
-197 -4962 4981 0
-4963 4981 0
-197 -4963 4982 0
-4964 4982 0
-197 -4964 4983 0
-4965 4983 0
-197 -4965 4984 0
-4966 4984 0
-197 -4966 4985 0
-4967 4985 0
-197 -4967 4986 0
-4968 4986 0
-197 -4968 4987 0
-4969 4987 0
-197 -4969 4988 0
-4970 4988 0
-197 -4970 4989 0
-4971 4989 0
-197 -4971 4990 0
-4972 4990 0
-197 -4972 4991 0
-4973 4991 0
-197 -4973 4992 0
-4974 4992 0
-197 -4974 4993 0
-4975 4993 0
-197 -4975 4994 0
-4976 4994 0
-197 -4976 0
-198 4995 0
-4977 4995 0
-198 -4977 4996 0
-4978 4996 0
-198 -4978 4997 0
-4979 4997 0
-198 -4979 4998 0
-4980 4998 0
-198 -4980 4999 0
-4981 4999 0
-198 -4981 5000 0
-4982 5000 0
-198 -4982 5001 0
-4983 5001 0
-198 -4983 5002 0
-4984 5002 0
-198 -4984 5003 0
-4985 5003 0
-198 -4985 5004 0
-4986 5004 0
-198 -4986 5005 0
-4987 5005 0
-198 -4987 5006 0
-4988 5006 0
-198 -4988 5007 0
-4989 5007 0
-198 -4989 5008 0
-4990 5008 0
-198 -4990 5009 0
-4991 5009 0
-198 -4991 5010 0
-4992 5010 0
-198 -4992 5011 0
-4993 5011 0
-198 -4993 5012 0
-4994 5012 0
-198 -4994 0
-199 5013 0
-4995 5013 0
-199 -4995 5014 0
-4996 5014 0
-199 -4996 5015 0
-4997 5015 0
-199 -4997 5016 0
-4998 5016 0
-199 -4998 5017 0
-4999 5017 0
-199 -4999 5018 0
-5000 5018 0
-199 -5000 5019 0
-5001 5019 0
-199 -5001 5020 0
-5002 5020 0
-199 -5002 5021 0
-5003 5021 0
-199 -5003 5022 0
-5004 5022 0
-199 -5004 5023 0
-5005 5023 0
-199 -5005 5024 0
-5006 5024 0
-199 -5006 5025 0
-5007 5025 0
-199 -5007 5026 0
-5008 5026 0
-199 -5008 5027 0
-5009 5027 0
-199 -5009 5028 0
-5010 5028 0
-199 -5010 5029 0
-5011 5029 0
-199 -5011 5030 0
-5012 5030 0
-199 -5012 0
-200 5031 0
-5013 5031 0
-200 -5013 5032 0
-5014 5032 0
-200 -5014 5033 0
-5015 5033 0
-200 -5015 5034 0
-5016 5034 0
-200 -5016 5035 0
-5017 5035 0
-200 -5017 5036 0
-5018 5036 0
-200 -5018 5037 0
-5019 5037 0
-200 -5019 5038 0
-5020 5038 0
-200 -5020 5039 0
-5021 5039 0
-200 -5021 5040 0
-5022 5040 0
-200 -5022 5041 0
-5023 5041 0
-200 -5023 5042 0
-5024 5042 0
-200 -5024 5043 0
-5025 5043 0
-200 -5025 5044 0
-5026 5044 0
-200 -5026 5045 0
-5027 5045 0
-200 -5027 5046 0
-5028 5046 0
-200 -5028 5047 0
-5029 5047 0
-200 -5029 5048 0
-5030 5048 0
-200 -5030 0
-201 5049 0
-5031 5049 0
-201 -5031 5050 0
-5032 5050 0
-201 -5032 5051 0
-5033 5051 0
-201 -5033 5052 0
-5034 5052 0
-201 -5034 5053 0
-5035 5053 0
-201 -5035 5054 0
-5036 5054 0
-201 -5036 5055 0
-5037 5055 0
-201 -5037 5056 0
-5038 5056 0
-201 -5038 5057 0
-5039 5057 0
-201 -5039 5058 0
-5040 5058 0
-201 -5040 5059 0
-5041 5059 0
-201 -5041 5060 0
-5042 5060 0
-201 -5042 5061 0
-5043 5061 0
-201 -5043 5062 0
-5044 5062 0
-201 -5044 5063 0
-5045 5063 0
-201 -5045 5064 0
-5046 5064 0
-201 -5046 5065 0
-5047 5065 0
-201 -5047 5066 0
-5048 5066 0
-201 -5048 0
-202 5067 0
-5049 5067 0
-202 -5049 5068 0
-5050 5068 0
-202 -5050 5069 0
-5051 5069 0
-202 -5051 5070 0
-5052 5070 0
-202 -5052 5071 0
-5053 5071 0
-202 -5053 5072 0
-5054 5072 0
-202 -5054 5073 0
-5055 5073 0
-202 -5055 5074 0
-5056 5074 0
-202 -5056 5075 0
-5057 5075 0
-202 -5057 5076 0
-5058 5076 0
-202 -5058 5077 0
-5059 5077 0
-202 -5059 5078 0
-5060 5078 0
-202 -5060 5079 0
-5061 5079 0
-202 -5061 5080 0
-5062 5080 0
-202 -5062 5081 0
-5063 5081 0
-202 -5063 5082 0
-5064 5082 0
-202 -5064 5083 0
-5065 5083 0
-202 -5065 5084 0
-5066 5084 0
-202 -5066 0
-203 5085 0
-5067 5085 0
-203 -5067 5086 0
-5068 5086 0
-203 -5068 5087 0
-5069 5087 0
-203 -5069 5088 0
-5070 5088 0
-203 -5070 5089 0
-5071 5089 0
-203 -5071 5090 0
-5072 5090 0
-203 -5072 5091 0
-5073 5091 0
-203 -5073 5092 0
-5074 5092 0
-203 -5074 5093 0
-5075 5093 0
-203 -5075 5094 0
-5076 5094 0
-203 -5076 5095 0
-5077 5095 0
-203 -5077 5096 0
-5078 5096 0
-203 -5078 5097 0
-5079 5097 0
-203 -5079 5098 0
-5080 5098 0
-203 -5080 5099 0
-5081 5099 0
-203 -5081 5100 0
-5082 5100 0
-203 -5082 5101 0
-5083 5101 0
-203 -5083 5102 0
-5084 5102 0
-203 -5084 0
-204 5103 0
-5085 5103 0
-204 -5085 5104 0
-5086 5104 0
-204 -5086 5105 0
-5087 5105 0
-204 -5087 5106 0
-5088 5106 0
-204 -5088 5107 0
-5089 5107 0
-204 -5089 5108 0
-5090 5108 0
-204 -5090 5109 0
-5091 5109 0
-204 -5091 5110 0
-5092 5110 0
-204 -5092 5111 0
-5093 5111 0
-204 -5093 5112 0
-5094 5112 0
-204 -5094 5113 0
-5095 5113 0
-204 -5095 5114 0
-5096 5114 0
-204 -5096 5115 0
-5097 5115 0
-204 -5097 5116 0
-5098 5116 0
-204 -5098 5117 0
-5099 5117 0
-204 -5099 5118 0
-5100 5118 0
-204 -5100 5119 0
-5101 5119 0
-204 -5101 5120 0
-5102 5120 0
-204 -5102 0
-205 5121 0
-5103 5121 0
-205 -5103 5122 0
-5104 5122 0
-205 -5104 5123 0
-5105 5123 0
-205 -5105 5124 0
-5106 5124 0
-205 -5106 5125 0
-5107 5125 0
-205 -5107 5126 0
-5108 5126 0
-205 -5108 5127 0
-5109 5127 0
-205 -5109 5128 0
-5110 5128 0
-205 -5110 5129 0
-5111 5129 0
-205 -5111 5130 0
-5112 5130 0
-205 -5112 5131 0
-5113 5131 0
-205 -5113 5132 0
-5114 5132 0
-205 -5114 5133 0
-5115 5133 0
-205 -5115 5134 0
-5116 5134 0
-205 -5116 5135 0
-5117 5135 0
-205 -5117 5136 0
-5118 5136 0
-205 -5118 5137 0
-5119 5137 0
-205 -5119 5138 0
-5120 5138 0
-205 -5120 0
-206 5139 0
-5121 5139 0
-206 -5121 5140 0
-5122 5140 0
-206 -5122 5141 0
-5123 5141 0
-206 -5123 5142 0
-5124 5142 0
-206 -5124 5143 0
-5125 5143 0
-206 -5125 5144 0
-5126 5144 0
-206 -5126 5145 0
-5127 5145 0
-206 -5127 5146 0
-5128 5146 0
-206 -5128 5147 0
-5129 5147 0
-206 -5129 5148 0
-5130 5148 0
-206 -5130 5149 0
-5131 5149 0
-206 -5131 5150 0
-5132 5150 0
-206 -5132 5151 0
-5133 5151 0
-206 -5133 5152 0
-5134 5152 0
-206 -5134 5153 0
-5135 5153 0
-206 -5135 5154 0
-5136 5154 0
-206 -5136 5155 0
-5137 5155 0
-206 -5137 5156 0
-5138 5156 0
-206 -5138 0
-207 5157 0
-5139 5157 0
-207 -5139 5158 0
-5140 5158 0
-207 -5140 5159 0
-5141 5159 0
-207 -5141 5160 0
-5142 5160 0
-207 -5142 5161 0
-5143 5161 0
-207 -5143 5162 0
-5144 5162 0
-207 -5144 5163 0
-5145 5163 0
-207 -5145 5164 0
-5146 5164 0
-207 -5146 5165 0
-5147 5165 0
-207 -5147 5166 0
-5148 5166 0
-207 -5148 5167 0
-5149 5167 0
-207 -5149 5168 0
-5150 5168 0
-207 -5150 5169 0
-5151 5169 0
-207 -5151 5170 0
-5152 5170 0
-207 -5152 5171 0
-5153 5171 0
-207 -5153 5172 0
-5154 5172 0
-207 -5154 5173 0
-5155 5173 0
-207 -5155 5174 0
-5156 5174 0
-207 -5156 0
-208 5175 0
-5157 5175 0
-208 -5157 5176 0
-5158 5176 0
-208 -5158 5177 0
-5159 5177 0
-208 -5159 5178 0
-5160 5178 0
-208 -5160 5179 0
-5161 5179 0
-208 -5161 5180 0
-5162 5180 0
-208 -5162 5181 0
-5163 5181 0
-208 -5163 5182 0
-5164 5182 0
-208 -5164 5183 0
-5165 5183 0
-208 -5165 5184 0
-5166 5184 0
-208 -5166 5185 0
-5167 5185 0
-208 -5167 5186 0
-5168 5186 0
-208 -5168 5187 0
-5169 5187 0
-208 -5169 5188 0
-5170 5188 0
-208 -5170 5189 0
-5171 5189 0
-208 -5171 5190 0
-5172 5190 0
-208 -5172 5191 0
-5173 5191 0
-208 -5173 5192 0
-5174 5192 0
-208 -5174 0
-209 5193 0
-5175 5193 0
-209 -5175 5194 0
-5176 5194 0
-209 -5176 5195 0
-5177 5195 0
-209 -5177 5196 0
-5178 5196 0
-209 -5178 5197 0
-5179 5197 0
-209 -5179 5198 0
-5180 5198 0
-209 -5180 5199 0
-5181 5199 0
-209 -5181 5200 0
-5182 5200 0
-209 -5182 5201 0
-5183 5201 0
-209 -5183 5202 0
-5184 5202 0
-209 -5184 5203 0
-5185 5203 0
-209 -5185 5204 0
-5186 5204 0
-209 -5186 5205 0
-5187 5205 0
-209 -5187 5206 0
-5188 5206 0
-209 -5188 5207 0
-5189 5207 0
-209 -5189 5208 0
-5190 5208 0
-209 -5190 5209 0
-5191 5209 0
-209 -5191 5210 0
-5192 5210 0
-209 -5192 0
-210 5211 0
-5193 5211 0
-210 -5193 5212 0
-5194 5212 0
-210 -5194 5213 0
-5195 5213 0
-210 -5195 5214 0
-5196 5214 0
-210 -5196 5215 0
-5197 5215 0
-210 -5197 5216 0
-5198 5216 0
-210 -5198 5217 0
-5199 5217 0
-210 -5199 5218 0
-5200 5218 0
-210 -5200 5219 0
-5201 5219 0
-210 -5201 5220 0
-5202 5220 0
-210 -5202 5221 0
-5203 5221 0
-210 -5203 5222 0
-5204 5222 0
-210 -5204 5223 0
-5205 5223 0
-210 -5205 5224 0
-5206 5224 0
-210 -5206 5225 0
-5207 5225 0
-210 -5207 5226 0
-5208 5226 0
-210 -5208 5227 0
-5209 5227 0
-210 -5209 5228 0
-5210 5228 0
-210 -5210 0
-211 5229 0
-5211 5229 0
-211 -5211 5230 0
-5212 5230 0
-211 -5212 5231 0
-5213 5231 0
-211 -5213 5232 0
-5214 5232 0
-211 -5214 5233 0
-5215 5233 0
-211 -5215 5234 0
-5216 5234 0
-211 -5216 5235 0
-5217 5235 0
-211 -5217 5236 0
-5218 5236 0
-211 -5218 5237 0
-5219 5237 0
-211 -5219 5238 0
-5220 5238 0
-211 -5220 5239 0
-5221 5239 0
-211 -5221 5240 0
-5222 5240 0
-211 -5222 5241 0
-5223 5241 0
-211 -5223 5242 0
-5224 5242 0
-211 -5224 5243 0
-5225 5243 0
-211 -5225 5244 0
-5226 5244 0
-211 -5226 5245 0
-5227 5245 0
-211 -5227 5246 0
-5228 5246 0
-211 -5228 0
-212 5247 0
-5229 5247 0
-212 -5229 5248 0
-5230 5248 0
-212 -5230 5249 0
-5231 5249 0
-212 -5231 5250 0
-5232 5250 0
-212 -5232 5251 0
-5233 5251 0
-212 -5233 5252 0
-5234 5252 0
-212 -5234 5253 0
-5235 5253 0
-212 -5235 5254 0
-5236 5254 0
-212 -5236 5255 0
-5237 5255 0
-212 -5237 5256 0
-5238 5256 0
-212 -5238 5257 0
-5239 5257 0
-212 -5239 5258 0
-5240 5258 0
-212 -5240 5259 0
-5241 5259 0
-212 -5241 5260 0
-5242 5260 0
-212 -5242 5261 0
-5243 5261 0
-212 -5243 5262 0
-5244 5262 0
-212 -5244 5263 0
-5245 5263 0
-212 -5245 5264 0
-5246 5264 0
-212 -5246 0
-213 5265 0
-5247 5265 0
-213 -5247 5266 0
-5248 5266 0
-213 -5248 5267 0
-5249 5267 0
-213 -5249 5268 0
-5250 5268 0
-213 -5250 5269 0
-5251 5269 0
-213 -5251 5270 0
-5252 5270 0
-213 -5252 5271 0
-5253 5271 0
-213 -5253 5272 0
-5254 5272 0
-213 -5254 5273 0
-5255 5273 0
-213 -5255 5274 0
-5256 5274 0
-213 -5256 5275 0
-5257 5275 0
-213 -5257 5276 0
-5258 5276 0
-213 -5258 5277 0
-5259 5277 0
-213 -5259 5278 0
-5260 5278 0
-213 -5260 5279 0
-5261 5279 0
-213 -5261 5280 0
-5262 5280 0
-213 -5262 5281 0
-5263 5281 0
-213 -5263 5282 0
-5264 5282 0
-213 -5264 0
-214 5283 0
-5265 5283 0
-214 -5265 5284 0
-5266 5284 0
-214 -5266 5285 0
-5267 5285 0
-214 -5267 5286 0
-5268 5286 0
-214 -5268 5287 0
-5269 5287 0
-214 -5269 5288 0
-5270 5288 0
-214 -5270 5289 0
-5271 5289 0
-214 -5271 5290 0
-5272 5290 0
-214 -5272 5291 0
-5273 5291 0
-214 -5273 5292 0
-5274 5292 0
-214 -5274 5293 0
-5275 5293 0
-214 -5275 5294 0
-5276 5294 0
-214 -5276 5295 0
-5277 5295 0
-214 -5277 5296 0
-5278 5296 0
-214 -5278 5297 0
-5279 5297 0
-214 -5279 5298 0
-5280 5298 0
-214 -5280 5299 0
-5281 5299 0
-214 -5281 5300 0
-5282 5300 0
-214 -5282 0
-215 5301 0
-5283 5301 0
-215 -5283 5302 0
-5284 5302 0
-215 -5284 5303 0
-5285 5303 0
-215 -5285 5304 0
-5286 5304 0
-215 -5286 5305 0
-5287 5305 0
-215 -5287 5306 0
-5288 5306 0
-215 -5288 5307 0
-5289 5307 0
-215 -5289 5308 0
-5290 5308 0
-215 -5290 5309 0
-5291 5309 0
-215 -5291 5310 0
-5292 5310 0
-215 -5292 5311 0
-5293 5311 0
-215 -5293 5312 0
-5294 5312 0
-215 -5294 5313 0
-5295 5313 0
-215 -5295 5314 0
-5296 5314 0
-215 -5296 5315 0
-5297 5315 0
-215 -5297 5316 0
-5298 5316 0
-215 -5298 5317 0
-5299 5317 0
-215 -5299 5318 0
-5300 5318 0
-215 -5300 0
-216 5319 0
-5301 5319 0
-216 -5301 5320 0
-5302 5320 0
-216 -5302 5321 0
-5303 5321 0
-216 -5303 5322 0
-5304 5322 0
-216 -5304 5323 0
-5305 5323 0
-216 -5305 5324 0
-5306 5324 0
-216 -5306 5325 0
-5307 5325 0
-216 -5307 5326 0
-5308 5326 0
-216 -5308 5327 0
-5309 5327 0
-216 -5309 5328 0
-5310 5328 0
-216 -5310 5329 0
-5311 5329 0
-216 -5311 5330 0
-5312 5330 0
-216 -5312 5331 0
-5313 5331 0
-216 -5313 5332 0
-5314 5332 0
-216 -5314 5333 0
-5315 5333 0
-216 -5315 5334 0
-5316 5334 0
-216 -5316 5335 0
-5317 5335 0
-216 -5317 5336 0
-5318 5336 0
-216 -5318 0
-217 5337 0
-5319 5337 0
-217 -5319 5338 0
-5320 5338 0
-217 -5320 5339 0
-5321 5339 0
-217 -5321 5340 0
-5322 5340 0
-217 -5322 5341 0
-5323 5341 0
-217 -5323 5342 0
-5324 5342 0
-217 -5324 5343 0
-5325 5343 0
-217 -5325 5344 0
-5326 5344 0
-217 -5326 5345 0
-5327 5345 0
-217 -5327 5346 0
-5328 5346 0
-217 -5328 5347 0
-5329 5347 0
-217 -5329 5348 0
-5330 5348 0
-217 -5330 5349 0
-5331 5349 0
-217 -5331 5350 0
-5332 5350 0
-217 -5332 5351 0
-5333 5351 0
-217 -5333 5352 0
-5334 5352 0
-217 -5334 5353 0
-5335 5353 0
-217 -5335 5354 0
-5336 5354 0
-217 -5336 0
-218 5355 0
-5337 5355 0
-218 -5337 5356 0
-5338 5356 0
-218 -5338 5357 0
-5339 5357 0
-218 -5339 5358 0
-5340 5358 0
-218 -5340 5359 0
-5341 5359 0
-218 -5341 5360 0
-5342 5360 0
-218 -5342 5361 0
-5343 5361 0
-218 -5343 5362 0
-5344 5362 0
-218 -5344 5363 0
-5345 5363 0
-218 -5345 5364 0
-5346 5364 0
-218 -5346 5365 0
-5347 5365 0
-218 -5347 5366 0
-5348 5366 0
-218 -5348 5367 0
-5349 5367 0
-218 -5349 5368 0
-5350 5368 0
-218 -5350 5369 0
-5351 5369 0
-218 -5351 5370 0
-5352 5370 0
-218 -5352 5371 0
-5353 5371 0
-218 -5353 5372 0
-5354 5372 0
-218 -5354 0
-219 5373 0
-5355 5373 0
-219 -5355 5374 0
-5356 5374 0
-219 -5356 5375 0
-5357 5375 0
-219 -5357 5376 0
-5358 5376 0
-219 -5358 5377 0
-5359 5377 0
-219 -5359 5378 0
-5360 5378 0
-219 -5360 5379 0
-5361 5379 0
-219 -5361 5380 0
-5362 5380 0
-219 -5362 5381 0
-5363 5381 0
-219 -5363 5382 0
-5364 5382 0
-219 -5364 5383 0
-5365 5383 0
-219 -5365 5384 0
-5366 5384 0
-219 -5366 5385 0
-5367 5385 0
-219 -5367 5386 0
-5368 5386 0
-219 -5368 5387 0
-5369 5387 0
-219 -5369 5388 0
-5370 5388 0
-219 -5370 5389 0
-5371 5389 0
-219 -5371 5390 0
-5372 5390 0
-219 -5372 0
-220 5391 0
-5373 5391 0
-220 -5373 5392 0
-5374 5392 0
-220 -5374 5393 0
-5375 5393 0
-220 -5375 5394 0
-5376 5394 0
-220 -5376 5395 0
-5377 5395 0
-220 -5377 5396 0
-5378 5396 0
-220 -5378 5397 0
-5379 5397 0
-220 -5379 5398 0
-5380 5398 0
-220 -5380 5399 0
-5381 5399 0
-220 -5381 5400 0
-5382 5400 0
-220 -5382 5401 0
-5383 5401 0
-220 -5383 5402 0
-5384 5402 0
-220 -5384 5403 0
-5385 5403 0
-220 -5385 5404 0
-5386 5404 0
-220 -5386 5405 0
-5387 5405 0
-220 -5387 5406 0
-5388 5406 0
-220 -5388 5407 0
-5389 5407 0
-220 -5389 5408 0
-5390 5408 0
-220 -5390 0
-221 5409 0
-5391 5409 0
-221 -5391 5410 0
-5392 5410 0
-221 -5392 5411 0
-5393 5411 0
-221 -5393 5412 0
-5394 5412 0
-221 -5394 5413 0
-5395 5413 0
-221 -5395 5414 0
-5396 5414 0
-221 -5396 5415 0
-5397 5415 0
-221 -5397 5416 0
-5398 5416 0
-221 -5398 5417 0
-5399 5417 0
-221 -5399 5418 0
-5400 5418 0
-221 -5400 5419 0
-5401 5419 0
-221 -5401 5420 0
-5402 5420 0
-221 -5402 5421 0
-5403 5421 0
-221 -5403 5422 0
-5404 5422 0
-221 -5404 5423 0
-5405 5423 0
-221 -5405 5424 0
-5406 5424 0
-221 -5406 5425 0
-5407 5425 0
-221 -5407 5426 0
-5408 5426 0
-221 -5408 0
-222 5427 0
-5409 5427 0
-222 -5409 5428 0
-5410 5428 0
-222 -5410 5429 0
-5411 5429 0
-222 -5411 5430 0
-5412 5430 0
-222 -5412 5431 0
-5413 5431 0
-222 -5413 5432 0
-5414 5432 0
-222 -5414 5433 0
-5415 5433 0
-222 -5415 5434 0
-5416 5434 0
-222 -5416 5435 0
-5417 5435 0
-222 -5417 5436 0
-5418 5436 0
-222 -5418 5437 0
-5419 5437 0
-222 -5419 5438 0
-5420 5438 0
-222 -5420 5439 0
-5421 5439 0
-222 -5421 5440 0
-5422 5440 0
-222 -5422 5441 0
-5423 5441 0
-222 -5423 5442 0
-5424 5442 0
-222 -5424 5443 0
-5425 5443 0
-222 -5425 5444 0
-5426 5444 0
-222 -5426 0
-223 5445 0
-5427 5445 0
-223 -5427 5446 0
-5428 5446 0
-223 -5428 5447 0
-5429 5447 0
-223 -5429 5448 0
-5430 5448 0
-223 -5430 5449 0
-5431 5449 0
-223 -5431 5450 0
-5432 5450 0
-223 -5432 5451 0
-5433 5451 0
-223 -5433 5452 0
-5434 5452 0
-223 -5434 5453 0
-5435 5453 0
-223 -5435 5454 0
-5436 5454 0
-223 -5436 5455 0
-5437 5455 0
-223 -5437 5456 0
-5438 5456 0
-223 -5438 5457 0
-5439 5457 0
-223 -5439 5458 0
-5440 5458 0
-223 -5440 5459 0
-5441 5459 0
-223 -5441 5460 0
-5442 5460 0
-223 -5442 5461 0
-5443 5461 0
-223 -5443 5462 0
-5444 5462 0
-223 -5444 0
-224 5463 0
-5445 5463 0
-224 -5445 5464 0
-5446 5464 0
-224 -5446 5465 0
-5447 5465 0
-224 -5447 5466 0
-5448 5466 0
-224 -5448 5467 0
-5449 5467 0
-224 -5449 5468 0
-5450 5468 0
-224 -5450 5469 0
-5451 5469 0
-224 -5451 5470 0
-5452 5470 0
-224 -5452 5471 0
-5453 5471 0
-224 -5453 5472 0
-5454 5472 0
-224 -5454 5473 0
-5455 5473 0
-224 -5455 5474 0
-5456 5474 0
-224 -5456 5475 0
-5457 5475 0
-224 -5457 5476 0
-5458 5476 0
-224 -5458 5477 0
-5459 5477 0
-224 -5459 5478 0
-5460 5478 0
-224 -5460 5479 0
-5461 5479 0
-224 -5461 5480 0
-5462 5480 0
-224 -5462 0
-225 5481 0
-5463 5481 0
-225 -5463 5482 0
-5464 5482 0
-225 -5464 5483 0
-5465 5483 0
-225 -5465 5484 0
-5466 5484 0
-225 -5466 5485 0
-5467 5485 0
-225 -5467 5486 0
-5468 5486 0
-225 -5468 5487 0
-5469 5487 0
-225 -5469 5488 0
-5470 5488 0
-225 -5470 5489 0
-5471 5489 0
-225 -5471 5490 0
-5472 5490 0
-225 -5472 5491 0
-5473 5491 0
-225 -5473 5492 0
-5474 5492 0
-225 -5474 5493 0
-5475 5493 0
-225 -5475 5494 0
-5476 5494 0
-225 -5476 5495 0
-5477 5495 0
-225 -5477 5496 0
-5478 5496 0
-225 -5478 5497 0
-5479 5497 0
-225 -5479 5498 0
-5480 5498 0
-225 -5480 0
-226 5499 0
-5481 5499 0
-226 -5481 5500 0
-5482 5500 0
-226 -5482 5501 0
-5483 5501 0
-226 -5483 5502 0
-5484 5502 0
-226 -5484 5503 0
-5485 5503 0
-226 -5485 5504 0
-5486 5504 0
-226 -5486 5505 0
-5487 5505 0
-226 -5487 5506 0
-5488 5506 0
-226 -5488 5507 0
-5489 5507 0
-226 -5489 5508 0
-5490 5508 0
-226 -5490 5509 0
-5491 5509 0
-226 -5491 5510 0
-5492 5510 0
-226 -5492 5511 0
-5493 5511 0
-226 -5493 5512 0
-5494 5512 0
-226 -5494 5513 0
-5495 5513 0
-226 -5495 5514 0
-5496 5514 0
-226 -5496 5515 0
-5497 5515 0
-226 -5497 5516 0
-5498 5516 0
-226 -5498 0
-227 5517 0
-5499 5517 0
-227 -5499 5518 0
-5500 5518 0
-227 -5500 5519 0
-5501 5519 0
-227 -5501 5520 0
-5502 5520 0
-227 -5502 5521 0
-5503 5521 0
-227 -5503 5522 0
-5504 5522 0
-227 -5504 5523 0
-5505 5523 0
-227 -5505 5524 0
-5506 5524 0
-227 -5506 5525 0
-5507 5525 0
-227 -5507 5526 0
-5508 5526 0
-227 -5508 5527 0
-5509 5527 0
-227 -5509 5528 0
-5510 5528 0
-227 -5510 5529 0
-5511 5529 0
-227 -5511 5530 0
-5512 5530 0
-227 -5512 5531 0
-5513 5531 0
-227 -5513 5532 0
-5514 5532 0
-227 -5514 5533 0
-5515 5533 0
-227 -5515 5534 0
-5516 5534 0
-227 -5516 0
-228 5535 0
-5517 5535 0
-228 -5517 5536 0
-5518 5536 0
-228 -5518 5537 0
-5519 5537 0
-228 -5519 5538 0
-5520 5538 0
-228 -5520 5539 0
-5521 5539 0
-228 -5521 5540 0
-5522 5540 0
-228 -5522 5541 0
-5523 5541 0
-228 -5523 5542 0
-5524 5542 0
-228 -5524 5543 0
-5525 5543 0
-228 -5525 5544 0
-5526 5544 0
-228 -5526 5545 0
-5527 5545 0
-228 -5527 5546 0
-5528 5546 0
-228 -5528 5547 0
-5529 5547 0
-228 -5529 5548 0
-5530 5548 0
-228 -5530 5549 0
-5531 5549 0
-228 -5531 5550 0
-5532 5550 0
-228 -5532 5551 0
-5533 5551 0
-228 -5533 5552 0
-5534 5552 0
-228 -5534 0
-229 5553 0
-5535 5553 0
-229 -5535 5554 0
-5536 5554 0
-229 -5536 5555 0
-5537 5555 0
-229 -5537 5556 0
-5538 5556 0
-229 -5538 5557 0
-5539 5557 0
-229 -5539 5558 0
-5540 5558 0
-229 -5540 5559 0
-5541 5559 0
-229 -5541 5560 0
-5542 5560 0
-229 -5542 5561 0
-5543 5561 0
-229 -5543 5562 0
-5544 5562 0
-229 -5544 5563 0
-5545 5563 0
-229 -5545 5564 0
-5546 5564 0
-229 -5546 5565 0
-5547 5565 0
-229 -5547 5566 0
-5548 5566 0
-229 -5548 5567 0
-5549 5567 0
-229 -5549 5568 0
-5550 5568 0
-229 -5550 5569 0
-5551 5569 0
-229 -5551 5570 0
-5552 5570 0
-229 -5552 0
-230 5571 0
-5553 5571 0
-230 -5553 5572 0
-5554 5572 0
-230 -5554 5573 0
-5555 5573 0
-230 -5555 5574 0
-5556 5574 0
-230 -5556 5575 0
-5557 5575 0
-230 -5557 5576 0
-5558 5576 0
-230 -5558 5577 0
-5559 5577 0
-230 -5559 5578 0
-5560 5578 0
-230 -5560 5579 0
-5561 5579 0
-230 -5561 5580 0
-5562 5580 0
-230 -5562 5581 0
-5563 5581 0
-230 -5563 5582 0
-5564 5582 0
-230 -5564 5583 0
-5565 5583 0
-230 -5565 5584 0
-5566 5584 0
-230 -5566 5585 0
-5567 5585 0
-230 -5567 5586 0
-5568 5586 0
-230 -5568 5587 0
-5569 5587 0
-230 -5569 5588 0
-5570 5588 0
-230 -5570 0
-231 5589 0
-5571 5589 0
-231 -5571 5590 0
-5572 5590 0
-231 -5572 5591 0
-5573 5591 0
-231 -5573 5592 0
-5574 5592 0
-231 -5574 5593 0
-5575 5593 0
-231 -5575 5594 0
-5576 5594 0
-231 -5576 5595 0
-5577 5595 0
-231 -5577 5596 0
-5578 5596 0
-231 -5578 5597 0
-5579 5597 0
-231 -5579 5598 0
-5580 5598 0
-231 -5580 5599 0
-5581 5599 0
-231 -5581 5600 0
-5582 5600 0
-231 -5582 5601 0
-5583 5601 0
-231 -5583 5602 0
-5584 5602 0
-231 -5584 5603 0
-5585 5603 0
-231 -5585 5604 0
-5586 5604 0
-231 -5586 5605 0
-5587 5605 0
-231 -5587 5606 0
-5588 5606 0
-231 -5588 0
-232 5607 0
-5589 5607 0
-232 -5589 5608 0
-5590 5608 0
-232 -5590 5609 0
-5591 5609 0
-232 -5591 5610 0
-5592 5610 0
-232 -5592 5611 0
-5593 5611 0
-232 -5593 5612 0
-5594 5612 0
-232 -5594 5613 0
-5595 5613 0
-232 -5595 5614 0
-5596 5614 0
-232 -5596 5615 0
-5597 5615 0
-232 -5597 5616 0
-5598 5616 0
-232 -5598 5617 0
-5599 5617 0
-232 -5599 5618 0
-5600 5618 0
-232 -5600 5619 0
-5601 5619 0
-232 -5601 5620 0
-5602 5620 0
-232 -5602 5621 0
-5603 5621 0
-232 -5603 5622 0
-5604 5622 0
-232 -5604 5623 0
-5605 5623 0
-232 -5605 5624 0
-5606 5624 0
-232 -5606 0
-233 5625 0
-5607 5625 0
-233 -5607 5626 0
-5608 5626 0
-233 -5608 5627 0
-5609 5627 0
-233 -5609 5628 0
-5610 5628 0
-233 -5610 5629 0
-5611 5629 0
-233 -5611 5630 0
-5612 5630 0
-233 -5612 5631 0
-5613 5631 0
-233 -5613 5632 0
-5614 5632 0
-233 -5614 5633 0
-5615 5633 0
-233 -5615 5634 0
-5616 5634 0
-233 -5616 5635 0
-5617 5635 0
-233 -5617 5636 0
-5618 5636 0
-233 -5618 5637 0
-5619 5637 0
-233 -5619 5638 0
-5620 5638 0
-233 -5620 5639 0
-5621 5639 0
-233 -5621 5640 0
-5622 5640 0
-233 -5622 5641 0
-5623 5641 0
-233 -5623 5642 0
-5624 5642 0
-233 -5624 0
-234 5643 0
-5625 5643 0
-234 -5625 5644 0
-5626 5644 0
-234 -5626 5645 0
-5627 5645 0
-234 -5627 5646 0
-5628 5646 0
-234 -5628 5647 0
-5629 5647 0
-234 -5629 5648 0
-5630 5648 0
-234 -5630 5649 0
-5631 5649 0
-234 -5631 5650 0
-5632 5650 0
-234 -5632 5651 0
-5633 5651 0
-234 -5633 5652 0
-5634 5652 0
-234 -5634 5653 0
-5635 5653 0
-234 -5635 5654 0
-5636 5654 0
-234 -5636 5655 0
-5637 5655 0
-234 -5637 5656 0
-5638 5656 0
-234 -5638 5657 0
-5639 5657 0
-234 -5639 5658 0
-5640 5658 0
-234 -5640 5659 0
-5641 5659 0
-234 -5641 5660 0
-5642 5660 0
-234 -5642 0
-235 5661 0
-5643 5661 0
-235 -5643 5662 0
-5644 5662 0
-235 -5644 5663 0
-5645 5663 0
-235 -5645 5664 0
-5646 5664 0
-235 -5646 5665 0
-5647 5665 0
-235 -5647 5666 0
-5648 5666 0
-235 -5648 5667 0
-5649 5667 0
-235 -5649 5668 0
-5650 5668 0
-235 -5650 5669 0
-5651 5669 0
-235 -5651 5670 0
-5652 5670 0
-235 -5652 5671 0
-5653 5671 0
-235 -5653 5672 0
-5654 5672 0
-235 -5654 5673 0
-5655 5673 0
-235 -5655 5674 0
-5656 5674 0
-235 -5656 5675 0
-5657 5675 0
-235 -5657 5676 0
-5658 5676 0
-235 -5658 5677 0
-5659 5677 0
-235 -5659 5678 0
-5660 5678 0
-235 -5660 0
-236 5679 0
-5661 5679 0
-236 -5661 5680 0
-5662 5680 0
-236 -5662 5681 0
-5663 5681 0
-236 -5663 5682 0
-5664 5682 0
-236 -5664 5683 0
-5665 5683 0
-236 -5665 5684 0
-5666 5684 0
-236 -5666 5685 0
-5667 5685 0
-236 -5667 5686 0
-5668 5686 0
-236 -5668 5687 0
-5669 5687 0
-236 -5669 5688 0
-5670 5688 0
-236 -5670 5689 0
-5671 5689 0
-236 -5671 5690 0
-5672 5690 0
-236 -5672 5691 0
-5673 5691 0
-236 -5673 5692 0
-5674 5692 0
-236 -5674 5693 0
-5675 5693 0
-236 -5675 5694 0
-5676 5694 0
-236 -5676 5695 0
-5677 5695 0
-236 -5677 5696 0
-5678 5696 0
-236 -5678 0
-237 5697 0
-5679 5697 0
-237 -5679 5698 0
-5680 5698 0
-237 -5680 5699 0
-5681 5699 0
-237 -5681 5700 0
-5682 5700 0
-237 -5682 5701 0
-5683 5701 0
-237 -5683 5702 0
-5684 5702 0
-237 -5684 5703 0
-5685 5703 0
-237 -5685 5704 0
-5686 5704 0
-237 -5686 5705 0
-5687 5705 0
-237 -5687 5706 0
-5688 5706 0
-237 -5688 5707 0
-5689 5707 0
-237 -5689 5708 0
-5690 5708 0
-237 -5690 5709 0
-5691 5709 0
-237 -5691 5710 0
-5692 5710 0
-237 -5692 5711 0
-5693 5711 0
-237 -5693 5712 0
-5694 5712 0
-237 -5694 5713 0
-5695 5713 0
-237 -5695 5714 0
-5696 5714 0
-237 -5696 0
-238 5715 0
-5697 5715 0
-238 -5697 5716 0
-5698 5716 0
-238 -5698 5717 0
-5699 5717 0
-238 -5699 5718 0
-5700 5718 0
-238 -5700 5719 0
-5701 5719 0
-238 -5701 5720 0
-5702 5720 0
-238 -5702 5721 0
-5703 5721 0
-238 -5703 5722 0
-5704 5722 0
-238 -5704 5723 0
-5705 5723 0
-238 -5705 5724 0
-5706 5724 0
-238 -5706 5725 0
-5707 5725 0
-238 -5707 5726 0
-5708 5726 0
-238 -5708 5727 0
-5709 5727 0
-238 -5709 5728 0
-5710 5728 0
-238 -5710 5729 0
-5711 5729 0
-238 -5711 5730 0
-5712 5730 0
-238 -5712 5731 0
-5713 5731 0
-238 -5713 5732 0
-5714 5732 0
-238 -5714 0
-239 5733 0
-5715 5733 0
-239 -5715 5734 0
-5716 5734 0
-239 -5716 5735 0
-5717 5735 0
-239 -5717 5736 0
-5718 5736 0
-239 -5718 5737 0
-5719 5737 0
-239 -5719 5738 0
-5720 5738 0
-239 -5720 5739 0
-5721 5739 0
-239 -5721 5740 0
-5722 5740 0
-239 -5722 5741 0
-5723 5741 0
-239 -5723 5742 0
-5724 5742 0
-239 -5724 5743 0
-5725 5743 0
-239 -5725 5744 0
-5726 5744 0
-239 -5726 5745 0
-5727 5745 0
-239 -5727 5746 0
-5728 5746 0
-239 -5728 5747 0
-5729 5747 0
-239 -5729 5748 0
-5730 5748 0
-239 -5730 5749 0
-5731 5749 0
-239 -5731 5750 0
-5732 5750 0
-239 -5732 0
-240 5751 0
-5733 5751 0
-240 -5733 5752 0
-5734 5752 0
-240 -5734 5753 0
-5735 5753 0
-240 -5735 5754 0
-5736 5754 0
-240 -5736 5755 0
-5737 5755 0
-240 -5737 5756 0
-5738 5756 0
-240 -5738 5757 0
-5739 5757 0
-240 -5739 5758 0
-5740 5758 0
-240 -5740 5759 0
-5741 5759 0
-240 -5741 5760 0
-5742 5760 0
-240 -5742 5761 0
-5743 5761 0
-240 -5743 5762 0
-5744 5762 0
-240 -5744 5763 0
-5745 5763 0
-240 -5745 5764 0
-5746 5764 0
-240 -5746 5765 0
-5747 5765 0
-240 -5747 5766 0
-5748 5766 0
-240 -5748 5767 0
-5749 5767 0
-240 -5749 5768 0
-5750 5768 0
-240 -5750 0
-241 5769 0
-5751 5769 0
-241 -5751 5770 0
-5752 5770 0
-241 -5752 5771 0
-5753 5771 0
-241 -5753 5772 0
-5754 5772 0
-241 -5754 5773 0
-5755 5773 0
-241 -5755 5774 0
-5756 5774 0
-241 -5756 5775 0
-5757 5775 0
-241 -5757 5776 0
-5758 5776 0
-241 -5758 5777 0
-5759 5777 0
-241 -5759 5778 0
-5760 5778 0
-241 -5760 5779 0
-5761 5779 0
-241 -5761 5780 0
-5762 5780 0
-241 -5762 5781 0
-5763 5781 0
-241 -5763 5782 0
-5764 5782 0
-241 -5764 5783 0
-5765 5783 0
-241 -5765 5784 0
-5766 5784 0
-241 -5766 5785 0
-5767 5785 0
-241 -5767 5786 0
-5768 5786 0
-241 -5768 0
-242 5787 0
-5769 5787 0
-242 -5769 5788 0
-5770 5788 0
-242 -5770 5789 0
-5771 5789 0
-242 -5771 5790 0
-5772 5790 0
-242 -5772 5791 0
-5773 5791 0
-242 -5773 5792 0
-5774 5792 0
-242 -5774 5793 0
-5775 5793 0
-242 -5775 5794 0
-5776 5794 0
-242 -5776 5795 0
-5777 5795 0
-242 -5777 5796 0
-5778 5796 0
-242 -5778 5797 0
-5779 5797 0
-242 -5779 5798 0
-5780 5798 0
-242 -5780 5799 0
-5781 5799 0
-242 -5781 5800 0
-5782 5800 0
-242 -5782 5801 0
-5783 5801 0
-242 -5783 5802 0
-5784 5802 0
-242 -5784 5803 0
-5785 5803 0
-242 -5785 5804 0
-5786 5804 0
-242 -5786 0
-243 5805 0
-5787 5805 0
-243 -5787 5806 0
-5788 5806 0
-243 -5788 5807 0
-5789 5807 0
-243 -5789 5808 0
-5790 5808 0
-243 -5790 5809 0
-5791 5809 0
-243 -5791 5810 0
-5792 5810 0
-243 -5792 5811 0
-5793 5811 0
-243 -5793 5812 0
-5794 5812 0
-243 -5794 5813 0
-5795 5813 0
-243 -5795 5814 0
-5796 5814 0
-243 -5796 5815 0
-5797 5815 0
-243 -5797 5816 0
-5798 5816 0
-243 -5798 5817 0
-5799 5817 0
-243 -5799 5818 0
-5800 5818 0
-243 -5800 5819 0
-5801 5819 0
-243 -5801 5820 0
-5802 5820 0
-243 -5802 5821 0
-5803 5821 0
-243 -5803 5822 0
-5804 5822 0
-243 -5804 0
-244 5823 0
-5805 5823 0
-244 -5805 5824 0
-5806 5824 0
-244 -5806 5825 0
-5807 5825 0
-244 -5807 5826 0
-5808 5826 0
-244 -5808 5827 0
-5809 5827 0
-244 -5809 5828 0
-5810 5828 0
-244 -5810 5829 0
-5811 5829 0
-244 -5811 5830 0
-5812 5830 0
-244 -5812 5831 0
-5813 5831 0
-244 -5813 5832 0
-5814 5832 0
-244 -5814 5833 0
-5815 5833 0
-244 -5815 5834 0
-5816 5834 0
-244 -5816 5835 0
-5817 5835 0
-244 -5817 5836 0
-5818 5836 0
-244 -5818 5837 0
-5819 5837 0
-244 -5819 5838 0
-5820 5838 0
-244 -5820 5839 0
-5821 5839 0
-244 -5821 5840 0
-5822 5840 0
-244 -5822 0
-245 5841 0
-5823 5841 0
-245 -5823 5842 0
-5824 5842 0
-245 -5824 5843 0
-5825 5843 0
-245 -5825 5844 0
-5826 5844 0
-245 -5826 5845 0
-5827 5845 0
-245 -5827 5846 0
-5828 5846 0
-245 -5828 5847 0
-5829 5847 0
-245 -5829 5848 0
-5830 5848 0
-245 -5830 5849 0
-5831 5849 0
-245 -5831 5850 0
-5832 5850 0
-245 -5832 5851 0
-5833 5851 0
-245 -5833 5852 0
-5834 5852 0
-245 -5834 5853 0
-5835 5853 0
-245 -5835 5854 0
-5836 5854 0
-245 -5836 5855 0
-5837 5855 0
-245 -5837 5856 0
-5838 5856 0
-245 -5838 5857 0
-5839 5857 0
-245 -5839 5858 0
-5840 5858 0
-245 -5840 0
-246 5859 0
-5841 5859 0
-246 -5841 5860 0
-5842 5860 0
-246 -5842 5861 0
-5843 5861 0
-246 -5843 5862 0
-5844 5862 0
-246 -5844 5863 0
-5845 5863 0
-246 -5845 5864 0
-5846 5864 0
-246 -5846 5865 0
-5847 5865 0
-246 -5847 5866 0
-5848 5866 0
-246 -5848 5867 0
-5849 5867 0
-246 -5849 5868 0
-5850 5868 0
-246 -5850 5869 0
-5851 5869 0
-246 -5851 5870 0
-5852 5870 0
-246 -5852 5871 0
-5853 5871 0
-246 -5853 5872 0
-5854 5872 0
-246 -5854 5873 0
-5855 5873 0
-246 -5855 5874 0
-5856 5874 0
-246 -5856 5875 0
-5857 5875 0
-246 -5857 5876 0
-5858 5876 0
-246 -5858 0
-247 5877 0
-5859 5877 0
-247 -5859 5878 0
-5860 5878 0
-247 -5860 5879 0
-5861 5879 0
-247 -5861 5880 0
-5862 5880 0
-247 -5862 5881 0
-5863 5881 0
-247 -5863 5882 0
-5864 5882 0
-247 -5864 5883 0
-5865 5883 0
-247 -5865 5884 0
-5866 5884 0
-247 -5866 5885 0
-5867 5885 0
-247 -5867 5886 0
-5868 5886 0
-247 -5868 5887 0
-5869 5887 0
-247 -5869 5888 0
-5870 5888 0
-247 -5870 5889 0
-5871 5889 0
-247 -5871 5890 0
-5872 5890 0
-247 -5872 5891 0
-5873 5891 0
-247 -5873 5892 0
-5874 5892 0
-247 -5874 5893 0
-5875 5893 0
-247 -5875 5894 0
-5876 5894 0
-247 -5876 0
-248 5895 0
-5877 5895 0
-248 -5877 5896 0
-5878 5896 0
-248 -5878 5897 0
-5879 5897 0
-248 -5879 5898 0
-5880 5898 0
-248 -5880 5899 0
-5881 5899 0
-248 -5881 5900 0
-5882 5900 0
-248 -5882 5901 0
-5883 5901 0
-248 -5883 5902 0
-5884 5902 0
-248 -5884 5903 0
-5885 5903 0
-248 -5885 5904 0
-5886 5904 0
-248 -5886 5905 0
-5887 5905 0
-248 -5887 5906 0
-5888 5906 0
-248 -5888 5907 0
-5889 5907 0
-248 -5889 5908 0
-5890 5908 0
-248 -5890 5909 0
-5891 5909 0
-248 -5891 5910 0
-5892 5910 0
-248 -5892 5911 0
-5893 5911 0
-248 -5893 5912 0
-5894 5912 0
-248 -5894 0
-249 5913 0
-5895 5913 0
-249 -5895 5914 0
-5896 5914 0
-249 -5896 5915 0
-5897 5915 0
-249 -5897 5916 0
-5898 5916 0
-249 -5898 5917 0
-5899 5917 0
-249 -5899 5918 0
-5900 5918 0
-249 -5900 5919 0
-5901 5919 0
-249 -5901 5920 0
-5902 5920 0
-249 -5902 5921 0
-5903 5921 0
-249 -5903 5922 0
-5904 5922 0
-249 -5904 5923 0
-5905 5923 0
-249 -5905 5924 0
-5906 5924 0
-249 -5906 5925 0
-5907 5925 0
-249 -5907 5926 0
-5908 5926 0
-249 -5908 5927 0
-5909 5927 0
-249 -5909 5928 0
-5910 5928 0
-249 -5910 5929 0
-5911 5929 0
-249 -5911 5930 0
-5912 5930 0
-249 -5912 0
-250 5931 0
-5913 5931 0
-250 -5913 5932 0
-5914 5932 0
-250 -5914 5933 0
-5915 5933 0
-250 -5915 5934 0
-5916 5934 0
-250 -5916 5935 0
-5917 5935 0
-250 -5917 5936 0
-5918 5936 0
-250 -5918 5937 0
-5919 5937 0
-250 -5919 5938 0
-5920 5938 0
-250 -5920 5939 0
-5921 5939 0
-250 -5921 5940 0
-5922 5940 0
-250 -5922 5941 0
-5923 5941 0
-250 -5923 5942 0
-5924 5942 0
-250 -5924 5943 0
-5925 5943 0
-250 -5925 5944 0
-5926 5944 0
-250 -5926 5945 0
-5927 5945 0
-250 -5927 5946 0
-5928 5946 0
-250 -5928 5947 0
-5929 5947 0
-250 -5929 5948 0
-5930 5948 0
-250 -5930 0
-251 5949 0
-5931 5949 0
-251 -5931 5950 0
-5932 5950 0
-251 -5932 5951 0
-5933 5951 0
-251 -5933 5952 0
-5934 5952 0
-251 -5934 5953 0
-5935 5953 0
-251 -5935 5954 0
-5936 5954 0
-251 -5936 5955 0
-5937 5955 0
-251 -5937 5956 0
-5938 5956 0
-251 -5938 5957 0
-5939 5957 0
-251 -5939 5958 0
-5940 5958 0
-251 -5940 5959 0
-5941 5959 0
-251 -5941 5960 0
-5942 5960 0
-251 -5942 5961 0
-5943 5961 0
-251 -5943 5962 0
-5944 5962 0
-251 -5944 5963 0
-5945 5963 0
-251 -5945 5964 0
-5946 5964 0
-251 -5946 5965 0
-5947 5965 0
-251 -5947 5966 0
-5948 5966 0
-251 -5948 0
-252 5967 0
-5949 5967 0
-252 -5949 5968 0
-5950 5968 0
-252 -5950 5969 0
-5951 5969 0
-252 -5951 5970 0
-5952 5970 0
-252 -5952 5971 0
-5953 5971 0
-252 -5953 5972 0
-5954 5972 0
-252 -5954 5973 0
-5955 5973 0
-252 -5955 5974 0
-5956 5974 0
-252 -5956 5975 0
-5957 5975 0
-252 -5957 5976 0
-5958 5976 0
-252 -5958 5977 0
-5959 5977 0
-252 -5959 5978 0
-5960 5978 0
-252 -5960 5979 0
-5961 5979 0
-252 -5961 5980 0
-5962 5980 0
-252 -5962 5981 0
-5963 5981 0
-252 -5963 5982 0
-5964 5982 0
-252 -5964 5983 0
-5965 5983 0
-252 -5965 5984 0
-5966 5984 0
-252 -5966 0
-253 5985 0
-5967 5985 0
-253 -5967 5986 0
-5968 5986 0
-253 -5968 5987 0
-5969 5987 0
-253 -5969 5988 0
-5970 5988 0
-253 -5970 5989 0
-5971 5989 0
-253 -5971 5990 0
-5972 5990 0
-253 -5972 5991 0
-5973 5991 0
-253 -5973 5992 0
-5974 5992 0
-253 -5974 5993 0
-5975 5993 0
-253 -5975 5994 0
-5976 5994 0
-253 -5976 5995 0
-5977 5995 0
-253 -5977 5996 0
-5978 5996 0
-253 -5978 5997 0
-5979 5997 0
-253 -5979 5998 0
-5980 5998 0
-253 -5980 5999 0
-5981 5999 0
-253 -5981 6000 0
-5982 6000 0
-253 -5982 6001 0
-5983 6001 0
-253 -5983 6002 0
-5984 6002 0
-253 -5984 0
-254 6003 0
-5985 6003 0
-254 -5985 6004 0
-5986 6004 0
-254 -5986 6005 0
-5987 6005 0
-254 -5987 6006 0
-5988 6006 0
-254 -5988 6007 0
-5989 6007 0
-254 -5989 6008 0
-5990 6008 0
-254 -5990 6009 0
-5991 6009 0
-254 -5991 6010 0
-5992 6010 0
-254 -5992 6011 0
-5993 6011 0
-254 -5993 6012 0
-5994 6012 0
-254 -5994 6013 0
-5995 6013 0
-254 -5995 6014 0
-5996 6014 0
-254 -5996 6015 0
-5997 6015 0
-254 -5997 6016 0
-5998 6016 0
-254 -5998 6017 0
-5999 6017 0
-254 -5999 6018 0
-6000 6018 0
-254 -6000 6019 0
-6001 6019 0
-254 -6001 6020 0
-6002 6020 0
-254 -6002 0
-255 6021 0
-6003 6021 0
-255 -6003 6022 0
-6004 6022 0
-255 -6004 6023 0
-6005 6023 0
-255 -6005 6024 0
-6006 6024 0
-255 -6006 6025 0
-6007 6025 0
-255 -6007 6026 0
-6008 6026 0
-255 -6008 6027 0
-6009 6027 0
-255 -6009 6028 0
-6010 6028 0
-255 -6010 6029 0
-6011 6029 0
-255 -6011 6030 0
-6012 6030 0
-255 -6012 6031 0
-6013 6031 0
-255 -6013 6032 0
-6014 6032 0
-255 -6014 6033 0
-6015 6033 0
-255 -6015 6034 0
-6016 6034 0
-255 -6016 6035 0
-6017 6035 0
-255 -6017 6036 0
-6018 6036 0
-255 -6018 6037 0
-6019 6037 0
-255 -6019 6038 0
-6020 6038 0
-255 -6020 0
-256 6039 0
-6021 6039 0
-256 -6021 6040 0
-6022 6040 0
-256 -6022 6041 0
-6023 6041 0
-256 -6023 6042 0
-6024 6042 0
-256 -6024 6043 0
-6025 6043 0
-256 -6025 6044 0
-6026 6044 0
-256 -6026 6045 0
-6027 6045 0
-256 -6027 6046 0
-6028 6046 0
-256 -6028 6047 0
-6029 6047 0
-256 -6029 6048 0
-6030 6048 0
-256 -6030 6049 0
-6031 6049 0
-256 -6031 6050 0
-6032 6050 0
-256 -6032 6051 0
-6033 6051 0
-256 -6033 6052 0
-6034 6052 0
-256 -6034 6053 0
-6035 6053 0
-256 -6035 6054 0
-6036 6054 0
-256 -6036 6055 0
-6037 6055 0
-256 -6037 6056 0
-6038 6056 0
-256 -6038 0
-257 6057 0
-6039 6057 0
-257 -6039 6058 0
-6040 6058 0
-257 -6040 6059 0
-6041 6059 0
-257 -6041 6060 0
-6042 6060 0
-257 -6042 6061 0
-6043 6061 0
-257 -6043 6062 0
-6044 6062 0
-257 -6044 6063 0
-6045 6063 0
-257 -6045 6064 0
-6046 6064 0
-257 -6046 6065 0
-6047 6065 0
-257 -6047 6066 0
-6048 6066 0
-257 -6048 6067 0
-6049 6067 0
-257 -6049 6068 0
-6050 6068 0
-257 -6050 6069 0
-6051 6069 0
-257 -6051 6070 0
-6052 6070 0
-257 -6052 6071 0
-6053 6071 0
-257 -6053 6072 0
-6054 6072 0
-257 -6054 6073 0
-6055 6073 0
-257 -6055 6074 0
-6056 6074 0
-257 -6056 0
-258 6075 0
-6057 6075 0
-258 -6057 6076 0
-6058 6076 0
-258 -6058 6077 0
-6059 6077 0
-258 -6059 6078 0
-6060 6078 0
-258 -6060 6079 0
-6061 6079 0
-258 -6061 6080 0
-6062 6080 0
-258 -6062 6081 0
-6063 6081 0
-258 -6063 6082 0
-6064 6082 0
-258 -6064 6083 0
-6065 6083 0
-258 -6065 6084 0
-6066 6084 0
-258 -6066 6085 0
-6067 6085 0
-258 -6067 6086 0
-6068 6086 0
-258 -6068 6087 0
-6069 6087 0
-258 -6069 6088 0
-6070 6088 0
-258 -6070 6089 0
-6071 6089 0
-258 -6071 6090 0
-6072 6090 0
-258 -6072 6091 0
-6073 6091 0
-258 -6073 6092 0
-6074 6092 0
-258 -6074 0
-259 6093 0
-6075 6093 0
-259 -6075 6094 0
-6076 6094 0
-259 -6076 6095 0
-6077 6095 0
-259 -6077 6096 0
-6078 6096 0
-259 -6078 6097 0
-6079 6097 0
-259 -6079 6098 0
-6080 6098 0
-259 -6080 6099 0
-6081 6099 0
-259 -6081 6100 0
-6082 6100 0
-259 -6082 6101 0
-6083 6101 0
-259 -6083 6102 0
-6084 6102 0
-259 -6084 6103 0
-6085 6103 0
-259 -6085 6104 0
-6086 6104 0
-259 -6086 6105 0
-6087 6105 0
-259 -6087 6106 0
-6088 6106 0
-259 -6088 6107 0
-6089 6107 0
-259 -6089 6108 0
-6090 6108 0
-259 -6090 6109 0
-6091 6109 0
-259 -6091 6110 0
-6092 6110 0
-259 -6092 0
-260 6111 0
-6093 6111 0
-260 -6093 6112 0
-6094 6112 0
-260 -6094 6113 0
-6095 6113 0
-260 -6095 6114 0
-6096 6114 0
-260 -6096 6115 0
-6097 6115 0
-260 -6097 6116 0
-6098 6116 0
-260 -6098 6117 0
-6099 6117 0
-260 -6099 6118 0
-6100 6118 0
-260 -6100 6119 0
-6101 6119 0
-260 -6101 6120 0
-6102 6120 0
-260 -6102 6121 0
-6103 6121 0
-260 -6103 6122 0
-6104 6122 0
-260 -6104 6123 0
-6105 6123 0
-260 -6105 6124 0
-6106 6124 0
-260 -6106 6125 0
-6107 6125 0
-260 -6107 6126 0
-6108 6126 0
-260 -6108 6127 0
-6109 6127 0
-260 -6109 6128 0
-6110 6128 0
-260 -6110 0
-261 6129 0
-6111 6129 0
-261 -6111 6130 0
-6112 6130 0
-261 -6112 6131 0
-6113 6131 0
-261 -6113 6132 0
-6114 6132 0
-261 -6114 6133 0
-6115 6133 0
-261 -6115 6134 0
-6116 6134 0
-261 -6116 6135 0
-6117 6135 0
-261 -6117 6136 0
-6118 6136 0
-261 -6118 6137 0
-6119 6137 0
-261 -6119 6138 0
-6120 6138 0
-261 -6120 6139 0
-6121 6139 0
-261 -6121 6140 0
-6122 6140 0
-261 -6122 6141 0
-6123 6141 0
-261 -6123 6142 0
-6124 6142 0
-261 -6124 6143 0
-6125 6143 0
-261 -6125 6144 0
-6126 6144 0
-261 -6126 6145 0
-6127 6145 0
-261 -6127 6146 0
-6128 6146 0
-261 -6128 0
-262 6147 0
-6129 6147 0
-262 -6129 6148 0
-6130 6148 0
-262 -6130 6149 0
-6131 6149 0
-262 -6131 6150 0
-6132 6150 0
-262 -6132 6151 0
-6133 6151 0
-262 -6133 6152 0
-6134 6152 0
-262 -6134 6153 0
-6135 6153 0
-262 -6135 6154 0
-6136 6154 0
-262 -6136 6155 0
-6137 6155 0
-262 -6137 6156 0
-6138 6156 0
-262 -6138 6157 0
-6139 6157 0
-262 -6139 6158 0
-6140 6158 0
-262 -6140 6159 0
-6141 6159 0
-262 -6141 6160 0
-6142 6160 0
-262 -6142 6161 0
-6143 6161 0
-262 -6143 6162 0
-6144 6162 0
-262 -6144 6163 0
-6145 6163 0
-262 -6145 6164 0
-6146 6164 0
-262 -6146 0
-263 6165 0
-6147 6165 0
-263 -6147 6166 0
-6148 6166 0
-263 -6148 6167 0
-6149 6167 0
-263 -6149 6168 0
-6150 6168 0
-263 -6150 6169 0
-6151 6169 0
-263 -6151 6170 0
-6152 6170 0
-263 -6152 6171 0
-6153 6171 0
-263 -6153 6172 0
-6154 6172 0
-263 -6154 6173 0
-6155 6173 0
-263 -6155 6174 0
-6156 6174 0
-263 -6156 6175 0
-6157 6175 0
-263 -6157 6176 0
-6158 6176 0
-263 -6158 6177 0
-6159 6177 0
-263 -6159 6178 0
-6160 6178 0
-263 -6160 6179 0
-6161 6179 0
-263 -6161 6180 0
-6162 6180 0
-263 -6162 6181 0
-6163 6181 0
-263 -6163 6182 0
-6164 6182 0
-263 -6164 0
-264 6183 0
-6165 6183 0
-264 -6165 6184 0
-6166 6184 0
-264 -6166 6185 0
-6167 6185 0
-264 -6167 6186 0
-6168 6186 0
-264 -6168 6187 0
-6169 6187 0
-264 -6169 6188 0
-6170 6188 0
-264 -6170 6189 0
-6171 6189 0
-264 -6171 6190 0
-6172 6190 0
-264 -6172 6191 0
-6173 6191 0
-264 -6173 6192 0
-6174 6192 0
-264 -6174 6193 0
-6175 6193 0
-264 -6175 6194 0
-6176 6194 0
-264 -6176 6195 0
-6177 6195 0
-264 -6177 6196 0
-6178 6196 0
-264 -6178 6197 0
-6179 6197 0
-264 -6179 6198 0
-6180 6198 0
-264 -6180 6199 0
-6181 6199 0
-264 -6181 6200 0
-6182 6200 0
-264 -6182 0
-265 6201 0
-6183 6201 0
-265 -6183 6202 0
-6184 6202 0
-265 -6184 6203 0
-6185 6203 0
-265 -6185 6204 0
-6186 6204 0
-265 -6186 6205 0
-6187 6205 0
-265 -6187 6206 0
-6188 6206 0
-265 -6188 6207 0
-6189 6207 0
-265 -6189 6208 0
-6190 6208 0
-265 -6190 6209 0
-6191 6209 0
-265 -6191 6210 0
-6192 6210 0
-265 -6192 6211 0
-6193 6211 0
-265 -6193 6212 0
-6194 6212 0
-265 -6194 6213 0
-6195 6213 0
-265 -6195 6214 0
-6196 6214 0
-265 -6196 6215 0
-6197 6215 0
-265 -6197 6216 0
-6198 6216 0
-265 -6198 6217 0
-6199 6217 0
-265 -6199 6218 0
-6200 6218 0
-265 -6200 0
-266 6219 0
-6201 6219 0
-266 -6201 6220 0
-6202 6220 0
-266 -6202 6221 0
-6203 6221 0
-266 -6203 6222 0
-6204 6222 0
-266 -6204 6223 0
-6205 6223 0
-266 -6205 6224 0
-6206 6224 0
-266 -6206 6225 0
-6207 6225 0
-266 -6207 6226 0
-6208 6226 0
-266 -6208 6227 0
-6209 6227 0
-266 -6209 6228 0
-6210 6228 0
-266 -6210 6229 0
-6211 6229 0
-266 -6211 6230 0
-6212 6230 0
-266 -6212 6231 0
-6213 6231 0
-266 -6213 6232 0
-6214 6232 0
-266 -6214 6233 0
-6215 6233 0
-266 -6215 6234 0
-6216 6234 0
-266 -6216 6235 0
-6217 6235 0
-266 -6217 6236 0
-6218 6236 0
-266 -6218 0
-267 6237 0
-6219 6237 0
-267 -6219 6238 0
-6220 6238 0
-267 -6220 6239 0
-6221 6239 0
-267 -6221 6240 0
-6222 6240 0
-267 -6222 6241 0
-6223 6241 0
-267 -6223 6242 0
-6224 6242 0
-267 -6224 6243 0
-6225 6243 0
-267 -6225 6244 0
-6226 6244 0
-267 -6226 6245 0
-6227 6245 0
-267 -6227 6246 0
-6228 6246 0
-267 -6228 6247 0
-6229 6247 0
-267 -6229 6248 0
-6230 6248 0
-267 -6230 6249 0
-6231 6249 0
-267 -6231 6250 0
-6232 6250 0
-267 -6232 6251 0
-6233 6251 0
-267 -6233 6252 0
-6234 6252 0
-267 -6234 6253 0
-6235 6253 0
-267 -6235 6254 0
-6236 6254 0
-267 -6236 0
-268 6255 0
-6237 6255 0
-268 -6237 6256 0
-6238 6256 0
-268 -6238 6257 0
-6239 6257 0
-268 -6239 6258 0
-6240 6258 0
-268 -6240 6259 0
-6241 6259 0
-268 -6241 6260 0
-6242 6260 0
-268 -6242 6261 0
-6243 6261 0
-268 -6243 6262 0
-6244 6262 0
-268 -6244 6263 0
-6245 6263 0
-268 -6245 6264 0
-6246 6264 0
-268 -6246 6265 0
-6247 6265 0
-268 -6247 6266 0
-6248 6266 0
-268 -6248 6267 0
-6249 6267 0
-268 -6249 6268 0
-6250 6268 0
-268 -6250 6269 0
-6251 6269 0
-268 -6251 6270 0
-6252 6270 0
-268 -6252 6271 0
-6253 6271 0
-268 -6253 6272 0
-6254 6272 0
-268 -6254 0
-269 6273 0
-6255 6273 0
-269 -6255 6274 0
-6256 6274 0
-269 -6256 6275 0
-6257 6275 0
-269 -6257 6276 0
-6258 6276 0
-269 -6258 6277 0
-6259 6277 0
-269 -6259 6278 0
-6260 6278 0
-269 -6260 6279 0
-6261 6279 0
-269 -6261 6280 0
-6262 6280 0
-269 -6262 6281 0
-6263 6281 0
-269 -6263 6282 0
-6264 6282 0
-269 -6264 6283 0
-6265 6283 0
-269 -6265 6284 0
-6266 6284 0
-269 -6266 6285 0
-6267 6285 0
-269 -6267 6286 0
-6268 6286 0
-269 -6268 6287 0
-6269 6287 0
-269 -6269 6288 0
-6270 6288 0
-269 -6270 6289 0
-6271 6289 0
-269 -6271 6290 0
-6272 6290 0
-269 -6272 0
-270 6291 0
-6273 6291 0
-270 -6273 6292 0
-6274 6292 0
-270 -6274 6293 0
-6275 6293 0
-270 -6275 6294 0
-6276 6294 0
-270 -6276 6295 0
-6277 6295 0
-270 -6277 6296 0
-6278 6296 0
-270 -6278 6297 0
-6279 6297 0
-270 -6279 6298 0
-6280 6298 0
-270 -6280 6299 0
-6281 6299 0
-270 -6281 6300 0
-6282 6300 0
-270 -6282 6301 0
-6283 6301 0
-270 -6283 6302 0
-6284 6302 0
-270 -6284 6303 0
-6285 6303 0
-270 -6285 6304 0
-6286 6304 0
-270 -6286 6305 0
-6287 6305 0
-270 -6287 6306 0
-6288 6306 0
-270 -6288 6307 0
-6289 6307 0
-270 -6289 6308 0
-6290 6308 0
-270 -6290 0
-271 6309 0
-6291 6309 0
-271 -6291 6310 0
-6292 6310 0
-271 -6292 6311 0
-6293 6311 0
-271 -6293 6312 0
-6294 6312 0
-271 -6294 6313 0
-6295 6313 0
-271 -6295 6314 0
-6296 6314 0
-271 -6296 6315 0
-6297 6315 0
-271 -6297 6316 0
-6298 6316 0
-271 -6298 6317 0
-6299 6317 0
-271 -6299 6318 0
-6300 6318 0
-271 -6300 6319 0
-6301 6319 0
-271 -6301 6320 0
-6302 6320 0
-271 -6302 6321 0
-6303 6321 0
-271 -6303 6322 0
-6304 6322 0
-271 -6304 6323 0
-6305 6323 0
-271 -6305 6324 0
-6306 6324 0
-271 -6306 6325 0
-6307 6325 0
-271 -6307 6326 0
-6308 6326 0
-271 -6308 0
-272 6327 0
-6309 6327 0
-272 -6309 6328 0
-6310 6328 0
-272 -6310 6329 0
-6311 6329 0
-272 -6311 6330 0
-6312 6330 0
-272 -6312 6331 0
-6313 6331 0
-272 -6313 6332 0
-6314 6332 0
-272 -6314 6333 0
-6315 6333 0
-272 -6315 6334 0
-6316 6334 0
-272 -6316 6335 0
-6317 6335 0
-272 -6317 6336 0
-6318 6336 0
-272 -6318 6337 0
-6319 6337 0
-272 -6319 6338 0
-6320 6338 0
-272 -6320 6339 0
-6321 6339 0
-272 -6321 6340 0
-6322 6340 0
-272 -6322 6341 0
-6323 6341 0
-272 -6323 6342 0
-6324 6342 0
-272 -6324 6343 0
-6325 6343 0
-272 -6325 6344 0
-6326 6344 0
-272 -6326 0
-273 6345 0
-6327 6345 0
-273 -6327 6346 0
-6328 6346 0
-273 -6328 6347 0
-6329 6347 0
-273 -6329 6348 0
-6330 6348 0
-273 -6330 6349 0
-6331 6349 0
-273 -6331 6350 0
-6332 6350 0
-273 -6332 6351 0
-6333 6351 0
-273 -6333 6352 0
-6334 6352 0
-273 -6334 6353 0
-6335 6353 0
-273 -6335 6354 0
-6336 6354 0
-273 -6336 6355 0
-6337 6355 0
-273 -6337 6356 0
-6338 6356 0
-273 -6338 6357 0
-6339 6357 0
-273 -6339 6358 0
-6340 6358 0
-273 -6340 6359 0
-6341 6359 0
-273 -6341 6360 0
-6342 6360 0
-273 -6342 6361 0
-6343 6361 0
-273 -6343 6362 0
-6344 6362 0
-273 -6344 0
-274 6363 0
-6345 6363 0
-274 -6345 6364 0
-6346 6364 0
-274 -6346 6365 0
-6347 6365 0
-274 -6347 6366 0
-6348 6366 0
-274 -6348 6367 0
-6349 6367 0
-274 -6349 6368 0
-6350 6368 0
-274 -6350 6369 0
-6351 6369 0
-274 -6351 6370 0
-6352 6370 0
-274 -6352 6371 0
-6353 6371 0
-274 -6353 6372 0
-6354 6372 0
-274 -6354 6373 0
-6355 6373 0
-274 -6355 6374 0
-6356 6374 0
-274 -6356 6375 0
-6357 6375 0
-274 -6357 6376 0
-6358 6376 0
-274 -6358 6377 0
-6359 6377 0
-274 -6359 6378 0
-6360 6378 0
-274 -6360 6379 0
-6361 6379 0
-274 -6361 6380 0
-6362 6380 0
-274 -6362 0
-275 6381 0
-6363 6381 0
-275 -6363 6382 0
-6364 6382 0
-275 -6364 6383 0
-6365 6383 0
-275 -6365 6384 0
-6366 6384 0
-275 -6366 6385 0
-6367 6385 0
-275 -6367 6386 0
-6368 6386 0
-275 -6368 6387 0
-6369 6387 0
-275 -6369 6388 0
-6370 6388 0
-275 -6370 6389 0
-6371 6389 0
-275 -6371 6390 0
-6372 6390 0
-275 -6372 6391 0
-6373 6391 0
-275 -6373 6392 0
-6374 6392 0
-275 -6374 6393 0
-6375 6393 0
-275 -6375 6394 0
-6376 6394 0
-275 -6376 6395 0
-6377 6395 0
-275 -6377 6396 0
-6378 6396 0
-275 -6378 6397 0
-6379 6397 0
-275 -6379 6398 0
-6380 6398 0
-275 -6380 0
-276 6399 0
-6381 6399 0
-276 -6381 6400 0
-6382 6400 0
-276 -6382 6401 0
-6383 6401 0
-276 -6383 6402 0
-6384 6402 0
-276 -6384 6403 0
-6385 6403 0
-276 -6385 6404 0
-6386 6404 0
-276 -6386 6405 0
-6387 6405 0
-276 -6387 6406 0
-6388 6406 0
-276 -6388 6407 0
-6389 6407 0
-276 -6389 6408 0
-6390 6408 0
-276 -6390 6409 0
-6391 6409 0
-276 -6391 6410 0
-6392 6410 0
-276 -6392 6411 0
-6393 6411 0
-276 -6393 6412 0
-6394 6412 0
-276 -6394 6413 0
-6395 6413 0
-276 -6395 6414 0
-6396 6414 0
-276 -6396 6415 0
-6397 6415 0
-276 -6397 6416 0
-6398 6416 0
-276 -6398 0
-277 6417 0
-6399 6417 0
-277 -6399 6418 0
-6400 6418 0
-277 -6400 6419 0
-6401 6419 0
-277 -6401 6420 0
-6402 6420 0
-277 -6402 6421 0
-6403 6421 0
-277 -6403 6422 0
-6404 6422 0
-277 -6404 6423 0
-6405 6423 0
-277 -6405 6424 0
-6406 6424 0
-277 -6406 6425 0
-6407 6425 0
-277 -6407 6426 0
-6408 6426 0
-277 -6408 6427 0
-6409 6427 0
-277 -6409 6428 0
-6410 6428 0
-277 -6410 6429 0
-6411 6429 0
-277 -6411 6430 0
-6412 6430 0
-277 -6412 6431 0
-6413 6431 0
-277 -6413 6432 0
-6414 6432 0
-277 -6414 6433 0
-6415 6433 0
-277 -6415 6434 0
-6416 6434 0
-277 -6416 0
-278 6435 0
-6417 6435 0
-278 -6417 6436 0
-6418 6436 0
-278 -6418 6437 0
-6419 6437 0
-278 -6419 6438 0
-6420 6438 0
-278 -6420 6439 0
-6421 6439 0
-278 -6421 6440 0
-6422 6440 0
-278 -6422 6441 0
-6423 6441 0
-278 -6423 6442 0
-6424 6442 0
-278 -6424 6443 0
-6425 6443 0
-278 -6425 6444 0
-6426 6444 0
-278 -6426 6445 0
-6427 6445 0
-278 -6427 6446 0
-6428 6446 0
-278 -6428 6447 0
-6429 6447 0
-278 -6429 6448 0
-6430 6448 0
-278 -6430 6449 0
-6431 6449 0
-278 -6431 6450 0
-6432 6450 0
-278 -6432 6451 0
-6433 6451 0
-278 -6433 6452 0
-6434 6452 0
-278 -6434 0
-279 6453 0
-6435 6453 0
-279 -6435 6454 0
-6436 6454 0
-279 -6436 6455 0
-6437 6455 0
-279 -6437 6456 0
-6438 6456 0
-279 -6438 6457 0
-6439 6457 0
-279 -6439 6458 0
-6440 6458 0
-279 -6440 6459 0
-6441 6459 0
-279 -6441 6460 0
-6442 6460 0
-279 -6442 6461 0
-6443 6461 0
-279 -6443 6462 0
-6444 6462 0
-279 -6444 6463 0
-6445 6463 0
-279 -6445 6464 0
-6446 6464 0
-279 -6446 6465 0
-6447 6465 0
-279 -6447 6466 0
-6448 6466 0
-279 -6448 6467 0
-6449 6467 0
-279 -6449 6468 0
-6450 6468 0
-279 -6450 6469 0
-6451 6469 0
-279 -6451 6470 0
-6452 6470 0
-279 -6452 0
-280 6471 0
-6453 6471 0
-280 -6453 6472 0
-6454 6472 0
-280 -6454 6473 0
-6455 6473 0
-280 -6455 6474 0
-6456 6474 0
-280 -6456 6475 0
-6457 6475 0
-280 -6457 6476 0
-6458 6476 0
-280 -6458 6477 0
-6459 6477 0
-280 -6459 6478 0
-6460 6478 0
-280 -6460 6479 0
-6461 6479 0
-280 -6461 6480 0
-6462 6480 0
-280 -6462 6481 0
-6463 6481 0
-280 -6463 6482 0
-6464 6482 0
-280 -6464 6483 0
-6465 6483 0
-280 -6465 6484 0
-6466 6484 0
-280 -6466 6485 0
-6467 6485 0
-280 -6467 6486 0
-6468 6486 0
-280 -6468 6487 0
-6469 6487 0
-280 -6469 6488 0
-6470 6488 0
-280 -6470 0
-281 6489 0
-6471 6489 0
-281 -6471 6490 0
-6472 6490 0
-281 -6472 6491 0
-6473 6491 0
-281 -6473 6492 0
-6474 6492 0
-281 -6474 6493 0
-6475 6493 0
-281 -6475 6494 0
-6476 6494 0
-281 -6476 6495 0
-6477 6495 0
-281 -6477 6496 0
-6478 6496 0
-281 -6478 6497 0
-6479 6497 0
-281 -6479 6498 0
-6480 6498 0
-281 -6480 6499 0
-6481 6499 0
-281 -6481 6500 0
-6482 6500 0
-281 -6482 6501 0
-6483 6501 0
-281 -6483 6502 0
-6484 6502 0
-281 -6484 6503 0
-6485 6503 0
-281 -6485 6504 0
-6486 6504 0
-281 -6486 6505 0
-6487 6505 0
-281 -6487 6506 0
-6488 6506 0
-281 -6488 0
-282 6507 0
-6489 6507 0
-282 -6489 6508 0
-6490 6508 0
-282 -6490 6509 0
-6491 6509 0
-282 -6491 6510 0
-6492 6510 0
-282 -6492 6511 0
-6493 6511 0
-282 -6493 6512 0
-6494 6512 0
-282 -6494 6513 0
-6495 6513 0
-282 -6495 6514 0
-6496 6514 0
-282 -6496 6515 0
-6497 6515 0
-282 -6497 6516 0
-6498 6516 0
-282 -6498 6517 0
-6499 6517 0
-282 -6499 6518 0
-6500 6518 0
-282 -6500 6519 0
-6501 6519 0
-282 -6501 6520 0
-6502 6520 0
-282 -6502 6521 0
-6503 6521 0
-282 -6503 6522 0
-6504 6522 0
-282 -6504 6523 0
-6505 6523 0
-282 -6505 6524 0
-6506 6524 0
-282 -6506 0
-283 6525 0
-6507 6525 0
-283 -6507 6526 0
-6508 6526 0
-283 -6508 6527 0
-6509 6527 0
-283 -6509 6528 0
-6510 6528 0
-283 -6510 6529 0
-6511 6529 0
-283 -6511 6530 0
-6512 6530 0
-283 -6512 6531 0
-6513 6531 0
-283 -6513 6532 0
-6514 6532 0
-283 -6514 6533 0
-6515 6533 0
-283 -6515 6534 0
-6516 6534 0
-283 -6516 6535 0
-6517 6535 0
-283 -6517 6536 0
-6518 6536 0
-283 -6518 6537 0
-6519 6537 0
-283 -6519 6538 0
-6520 6538 0
-283 -6520 6539 0
-6521 6539 0
-283 -6521 6540 0
-6522 6540 0
-283 -6522 6541 0
-6523 6541 0
-283 -6523 6542 0
-6524 6542 0
-283 -6524 0
-284 6543 0
-6525 6543 0
-284 -6525 6544 0
-6526 6544 0
-284 -6526 6545 0
-6527 6545 0
-284 -6527 6546 0
-6528 6546 0
-284 -6528 6547 0
-6529 6547 0
-284 -6529 6548 0
-6530 6548 0
-284 -6530 6549 0
-6531 6549 0
-284 -6531 6550 0
-6532 6550 0
-284 -6532 6551 0
-6533 6551 0
-284 -6533 6552 0
-6534 6552 0
-284 -6534 6553 0
-6535 6553 0
-284 -6535 6554 0
-6536 6554 0
-284 -6536 6555 0
-6537 6555 0
-284 -6537 6556 0
-6538 6556 0
-284 -6538 6557 0
-6539 6557 0
-284 -6539 6558 0
-6540 6558 0
-284 -6540 6559 0
-6541 6559 0
-284 -6541 6560 0
-6542 6560 0
-284 -6542 0
-285 6561 0
-6543 6561 0
-285 -6543 6562 0
-6544 6562 0
-285 -6544 6563 0
-6545 6563 0
-285 -6545 6564 0
-6546 6564 0
-285 -6546 6565 0
-6547 6565 0
-285 -6547 6566 0
-6548 6566 0
-285 -6548 6567 0
-6549 6567 0
-285 -6549 6568 0
-6550 6568 0
-285 -6550 6569 0
-6551 6569 0
-285 -6551 6570 0
-6552 6570 0
-285 -6552 6571 0
-6553 6571 0
-285 -6553 6572 0
-6554 6572 0
-285 -6554 6573 0
-6555 6573 0
-285 -6555 6574 0
-6556 6574 0
-285 -6556 6575 0
-6557 6575 0
-285 -6557 6576 0
-6558 6576 0
-285 -6558 6577 0
-6559 6577 0
-285 -6559 6578 0
-6560 6578 0
-285 -6560 0
-286 6579 0
-6561 6579 0
-286 -6561 6580 0
-6562 6580 0
-286 -6562 6581 0
-6563 6581 0
-286 -6563 6582 0
-6564 6582 0
-286 -6564 6583 0
-6565 6583 0
-286 -6565 6584 0
-6566 6584 0
-286 -6566 6585 0
-6567 6585 0
-286 -6567 6586 0
-6568 6586 0
-286 -6568 6587 0
-6569 6587 0
-286 -6569 6588 0
-6570 6588 0
-286 -6570 6589 0
-6571 6589 0
-286 -6571 6590 0
-6572 6590 0
-286 -6572 6591 0
-6573 6591 0
-286 -6573 6592 0
-6574 6592 0
-286 -6574 6593 0
-6575 6593 0
-286 -6575 6594 0
-6576 6594 0
-286 -6576 6595 0
-6577 6595 0
-286 -6577 6596 0
-6578 6596 0
-286 -6578 0
-287 6597 0
-6579 6597 0
-287 -6579 6598 0
-6580 6598 0
-287 -6580 6599 0
-6581 6599 0
-287 -6581 6600 0
-6582 6600 0
-287 -6582 6601 0
-6583 6601 0
-287 -6583 6602 0
-6584 6602 0
-287 -6584 6603 0
-6585 6603 0
-287 -6585 6604 0
-6586 6604 0
-287 -6586 6605 0
-6587 6605 0
-287 -6587 6606 0
-6588 6606 0
-287 -6588 6607 0
-6589 6607 0
-287 -6589 6608 0
-6590 6608 0
-287 -6590 6609 0
-6591 6609 0
-287 -6591 6610 0
-6592 6610 0
-287 -6592 6611 0
-6593 6611 0
-287 -6593 6612 0
-6594 6612 0
-287 -6594 6613 0
-6595 6613 0
-287 -6595 6614 0
-6596 6614 0
-287 -6596 0
-288 -6614 0
