p cnf 35 83
-10 2 3 0
-10 -2 -3 0
10 -2 3 0
10 2 -3 0
-10 0
-11 1 2 0
-11 -1 -2 0
11 -1 2 0
11 1 -2 0
-12 11 4 0
-12 -11 -4 0
12 -11 4 0
12 11 -4 0
-13 12 5 0
-13 -12 -5 0
13 -12 5 0
13 12 -5 0
-13 0
-14 5 6 0
-14 -5 -6 0
14 -5 6 0
14 5 -6 0
-15 14 8 0
-15 -14 -8 0
15 -14 8 0
15 14 -8 0
-16 15 9 0
-16 -15 -9 0
16 -15 9 0
16 15 -9 0
-16 0
-17 7 8 0
-17 -7 -8 0
17 -7 8 0
17 7 -8 0
-17 0
-18 1 4 0
-18 -1 -4 0
18 -1 4 0
18 1 -4 0
-19 18 7 0
-19 -18 -7 0
19 -18 7 0
19 18 -7 0
19 0
-1 20 0
-21 0
-2 22 0
-20 22 0
-2 -20 23 0
-21 23 0
-2 -21 0
-3 24 0
-22 24 0
-3 -22 25 0
-23 25 0
-3 -23 0
-4 26 0
-24 26 0
-4 -24 27 0
-25 27 0
-4 -25 0
-5 28 0
-26 28 0
-5 -26 29 0
-27 29 0
-5 -27 0
-6 30 0
-28 30 0
-6 -28 31 0
-29 31 0
-6 -29 0
-7 32 0
-30 32 0
-7 -30 33 0
-31 33 0
-7 -31 0
-8 34 0
-32 34 0
-8 -32 35 0
-33 35 0
-8 -33 0
-9 -35 0
