p cnf 43 98
-10 2 3 0
-10 -2 -3 0
10 -2 3 0
10 2 -3 0
-10 0
-11 1 2 0
-11 -1 -2 0
11 -1 2 0
11 1 -2 0
-12 11 4 0
-12 -11 -4 0
12 -11 4 0
12 11 -4 0
-13 12 5 0
-13 -12 -5 0
13 -12 5 0
13 12 -5 0
-13 0
-14 5 6 0
-14 -5 -6 0
14 -5 6 0
14 5 -6 0
-15 14 8 0
-15 -14 -8 0
15 -14 8 0
15 14 -8 0
-16 15 9 0
-16 -15 -9 0
16 -15 9 0
16 15 -9 0
-16 0
-17 7 8 0
-17 -7 -8 0
17 -7 8 0
17 7 -8 0
-17 0
-18 1 4 0
-18 -1 -4 0
18 -1 4 0
18 1 -4 0
-19 18 7 0
-19 -18 -7 0
19 -18 7 0
19 18 -7 0
19 0
-1 20 0
-21 0
-22 0
-2 23 0
-20 23 0
-2 -20 24 0
-21 24 0
-2 -21 25 0
-22 25 0
-2 -22 0
-3 26 0
-23 26 0
-3 -23 27 0
-24 27 0
-3 -24 28 0
-25 28 0
-3 -25 0
-4 29 0
-26 29 0
-4 -26 30 0
-27 30 0
-4 -27 31 0
-28 31 0
-4 -28 0
-5 32 0
-29 32 0
-5 -29 33 0
-30 33 0
-5 -30 34 0
-31 34 0
-5 -31 0
-6 35 0
-32 35 0
-6 -32 36 0
-33 36 0
-6 -33 37 0
-34 37 0
-6 -34 0
-7 38 0
-35 38 0
-7 -35 39 0
-36 39 0
-7 -36 40 0
-37 40 0
-7 -37 0
-8 41 0
-38 41 0
-8 -38 42 0
-39 42 0
-8 -39 43 0
-40 43 0
-8 -40 0
-9 -43 0
