p cnf 30 76
-8 4 5 0
-8 -4 -5 0
8 -4 5 0
8 4 -5 0
-9 8 6 0
-9 -8 -6 0
9 -8 6 0
9 8 -6 0
-10 9 7 0
-10 -9 -7 0
10 -9 7 0
10 9 -7 0
-10 0
-11 2 3 0
-11 -2 -3 0
11 -2 3 0
11 2 -3 0
-12 11 6 0
-12 -11 -6 0
12 -11 6 0
12 11 -6 0
-13 12 7 0
-13 -12 -7 0
13 -12 7 0
13 12 -7 0
-13 0
-14 1 3 0
-14 -1 -3 0
14 -1 3 0
14 1 -3 0
-15 14 5 0
-15 -14 -5 0
15 -14 5 0
15 14 -5 0
-16 15 7 0
-16 -15 -7 0
16 -15 7 0
16 15 -7 0
-16 0
-17 1 2 0
-17 -1 -2 0
17 -1 2 0
17 1 -2 0
-18 17 3 0
-18 -17 -3 0
18 -17 3 0
18 17 -3 0
18 0
-1 19 0
-20 0
-2 21 0
-19 21 0
-2 -19 22 0
-20 22 0
-2 -20 0
-3 23 0
-21 23 0
-3 -21 24 0
-22 24 0
-3 -22 0
-4 25 0
-23 25 0
-4 -23 26 0
-24 26 0
-4 -24 0
-5 27 0
-25 27 0
-5 -25 28 0
-26 28 0
-5 -26 0
-6 29 0
-27 29 0
-6 -27 30 0
-28 30 0
-6 -28 0
-7 -30 0
