p cnf 36 87
-8 4 5 0
-8 -4 -5 0
8 -4 5 0
8 4 -5 0
-9 8 6 0
-9 -8 -6 0
9 -8 6 0
9 8 -6 0
-10 9 7 0
-10 -9 -7 0
10 -9 7 0
10 9 -7 0
-10 0
-11 2 3 0
-11 -2 -3 0
11 -2 3 0
11 2 -3 0
-12 11 6 0
-12 -11 -6 0
12 -11 6 0
12 11 -6 0
-13 12 7 0
-13 -12 -7 0
13 -12 7 0
13 12 -7 0
-13 0
-14 1 3 0
-14 -1 -3 0
14 -1 3 0
14 1 -3 0
-15 14 5 0
-15 -14 -5 0
15 -14 5 0
15 14 -5 0
-16 15 7 0
-16 -15 -7 0
16 -15 7 0
16 15 -7 0
-16 0
-17 1 2 0
-17 -1 -2 0
17 -1 2 0
17 1 -2 0
-18 17 3 0
-18 -17 -3 0
18 -17 3 0
18 17 -3 0
18 0
-1 19 0
-20 0
-21 0
-2 22 0
-19 22 0
-2 -19 23 0
-20 23 0
-2 -20 24 0
-21 24 0
-2 -21 0
-3 25 0
-22 25 0
-3 -22 26 0
-23 26 0
-3 -23 27 0
-24 27 0
-3 -24 0
-4 28 0
-25 28 0
-4 -25 29 0
-26 29 0
-4 -26 30 0
-27 30 0
-4 -27 0
-5 31 0
-28 31 0
-5 -28 32 0
-29 32 0
-5 -29 33 0
-30 33 0
-5 -30 0
-6 34 0
-31 34 0
-6 -31 35 0
-32 35 0
-6 -32 36 0
-33 36 0
-6 -33 0
-7 -36 0
