29 116
0 2
0 5
0 6
0 14
0 15
0 23
0 24
0 27
1 3
1 6
1 7
1 15
1 16
1 24
1 25
1 28
2 4
2 7
2 8
2 16
2 17
2 25
2 26
3 5
3 8
3 9
3 17
3 18
3 26
3 27
4 6
4 9
4 10
4 18
4 19
4 27
4 28
5 7
5 10
5 11
5 19
5 20
5 28
6 8
6 11
6 12
6 20
6 21
7 9
7 12
7 13
7 21
7 22
8 10
8 13
8 14
8 22
8 23
9 11
9 14
9 15
9 23
9 24
10 12
10 15
10 16
10 24
10 25
11 13
11 16
11 17
11 25
11 26
12 14
12 17
12 18
12 26
12 27
13 15
13 18
13 19
13 27
13 28
14 16
14 19
14 20
14 28
15 17
15 20
15 21
16 18
16 21
16 22
17 19
17 22
17 23
18 20
18 23
18 24
19 21
19 24
19 25
20 22
20 25
20 26
21 23
21 26
21 27
22 24
22 27
22 28
23 25
23 28
24 26
25 27
26 28
