51 277
0 1
0 4
0 6
0 9
0 13
0 16
0 18
0 21
0 26
0 29
0 31
0 34
0 38
0 41
0 43
0 46
1 2
1 5
1 7
1 12
1 14
1 17
1 19
1 25
1 27
1 30
1 32
1 37
1 39
1 42
1 44
2 3
2 6
2 8
2 13
2 15
2 18
2 20
2 26
2 28
2 31
2 33
2 38
2 40
2 43
2 45
3 4
3 7
3 9
3 14
3 16
3 19
3 21
3 27
3 29
3 32
3 34
3 39
3 41
3 44
3 46
4 5
4 8
4 12
4 15
4 17
4 20
4 25
4 28
4 30
4 33
4 37
4 40
4 42
4 45
5 10
5 11
5 13
5 16
5 22
5 23
5 26
5 29
5 35
5 36
5 38
5 41
5 47
5 48
6 10
6 11
6 12
6 14
6 22
6 23
6 25
6 27
6 35
6 36
6 37
6 39
6 47
6 48
7 8
7 11
7 13
7 15
7 20
7 23
7 26
7 28
7 33
7 36
7 38
7 40
7 45
7 48
8 10
8 14
8 16
8 19
8 22
8 27
8 29
8 32
8 35
8 39
8 41
8 44
8 47
9 10
9 11
9 12
9 15
9 22
9 23
9 25
9 28
9 35
9 36
9 37
9 40
9 47
9 48
10 17
10 18
10 20
10 21
10 30
10 31
10 33
10 34
10 42
10 43
10 45
10 46
11 17
11 18
11 19
11 21
11 30
11 31
11 32
11 34
11 42
11 43
11 44
11 46
12 24
12 26
12 29
12 31
12 34
12 49
13 24
13 25
13 27
13 30
13 32
13 49
14 24
14 26
14 28
14 31
14 33
14 49
15 24
15 27
15 29
15 32
15 34
15 49
16 24
16 25
16 28
16 30
16 33
16 49
17 24
17 26
17 29
17 35
17 36
17 49
18 24
18 25
18 27
18 35
18 36
18 49
19 24
19 26
19 28
19 33
19 36
19 49
20 24
20 27
20 29
20 32
20 35
20 49
21 24
21 25
21 28
21 35
21 36
21 49
22 24
22 30
22 31
22 33
22 34
22 49
23 24
23 30
23 31
23 32
23 34
23 49
24 37
24 38
24 39
24 40
24 41
24 42
24 43
24 44
24 45
24 46
24 47
24 48
25 50
26 50
27 50
28 50
29 50
30 50
31 50
32 50
33 50
34 50
35 50
36 50
37 50
38 50
39 50
40 50
41 50
42 50
43 50
44 50
45 50
46 50
47 50
48 50
49 50
