33 136
0 1
0 2
0 4
0 8
0 15
0 17
0 18
0 20
0 24
0 31
1 3
1 5
1 9
1 14
1 16
1 19
1 21
1 25
1 30
2 3
2 6
2 10
2 13
2 16
2 19
2 22
2 26
2 29
3 7
3 11
3 12
3 17
3 18
3 23
3 27
3 28
4 5
4 6
4 11
4 12
4 16
4 21
4 22
4 27
4 28
5 7
5 10
5 13
5 17
5 20
5 23
5 26
5 29
6 7
6 9
6 14
6 18
6 20
6 23
6 25
6 30
7 8
7 15
7 19
7 21
7 22
7 24
7 31
8 9
8 10
8 12
8 16
8 23
8 25
8 26
8 28
9 11
9 13
9 17
9 22
9 24
9 27
9 29
10 11
10 14
10 18
10 21
10 24
10 27
10 30
11 15
11 19
11 20
11 25
11 26
11 31
12 13
12 14
12 19
12 20
12 24
12 29
12 30
13 15
13 18
13 21
13 25
13 28
13 31
14 15
14 17
14 22
14 26
14 28
14 31
15 16
15 23
15 27
15 29
15 30
16 32
17 32
18 32
19 32
20 32
21 32
22 32
23 32
24 32
25 32
26 32
27 32
28 32
29 32
30 32
31 32
