47 236
0 1
0 4
0 6
0 9
0 12
0 15
0 17
0 20
0 24
0 27
0 29
0 32
0 35
0 38
0 40
0 43
1 2
1 5
1 7
1 11
1 13
1 16
1 18
1 23
1 25
1 28
1 30
1 34
1 36
1 39
1 41
2 3
2 6
2 8
2 12
2 14
2 17
2 19
2 24
2 26
2 29
2 31
2 35
2 37
2 40
2 42
3 4
3 7
3 9
3 13
3 15
3 18
3 20
3 25
3 27
3 30
3 32
3 36
3 38
3 41
3 43
4 5
4 8
4 11
4 14
4 16
4 19
4 23
4 26
4 28
4 31
4 34
4 37
4 39
4 42
5 10
5 12
5 15
5 21
5 24
5 27
5 33
5 35
5 38
5 44
6 10
6 11
6 13
6 21
6 23
6 25
6 33
6 34
6 36
6 44
7 10
7 12
7 14
7 21
7 24
7 26
7 33
7 35
7 37
7 44
8 10
8 13
8 15
8 21
8 25
8 27
8 33
8 36
8 38
8 44
9 10
9 11
9 14
9 21
9 23
9 26
9 33
9 34
9 37
9 44
10 16
10 17
10 18
10 19
10 20
10 28
10 29
10 30
10 31
10 32
10 39
10 40
10 41
10 42
10 43
11 22
11 24
11 27
11 29
11 32
11 45
12 22
12 23
12 25
12 28
12 30
12 45
13 22
13 24
13 26
13 29
13 31
13 45
14 22
14 25
14 27
14 30
14 32
14 45
15 22
15 23
15 26
15 28
15 31
15 45
16 22
16 24
16 27
16 33
16 45
17 22
17 23
17 25
17 33
17 45
18 22
18 24
18 26
18 33
18 45
19 22
19 25
19 27
19 33
19 45
20 22
20 23
20 26
20 33
20 45
21 22
21 28
21 29
21 30
21 31
21 32
21 45
22 34
22 35
22 36
22 37
22 38
22 39
22 40
22 41
22 42
22 43
22 44
23 46
24 46
25 46
26 46
27 46
28 46
29 46
30 46
31 46
32 46
33 46
34 46
35 46
36 46
37 46
38 46
39 46
40 46
41 46
42 46
43 46
44 46
45 46
