p cnf 153 353
-26 2 3 0
-26 -2 -3 0
26 -2 3 0
26 2 -3 0
-26 0
-27 4 5 0
-27 -4 -5 0
27 -4 5 0
27 4 -5 0
-27 0
-28 1 2 0
-28 -1 -2 0
28 -1 2 0
28 1 -2 0
-29 28 6 0
-29 -28 -6 0
29 -28 6 0
29 28 -6 0
-30 29 7 0
-30 -29 -7 0
30 -29 7 0
30 29 -7 0
-30 0
-31 3 4 0
-31 -3 -4 0
31 -3 4 0
31 3 -4 0
-32 31 8 0
-32 -31 -8 0
32 -31 8 0
32 31 -8 0
-33 32 9 0
-33 -32 -9 0
33 -32 9 0
33 32 -9 0
-33 0
-34 7 8 0
-34 -7 -8 0
34 -7 8 0
34 7 -8 0
-35 34 12 0
-35 -34 -12 0
35 -34 12 0
35 34 -12 0
-36 35 13 0
-36 -35 -13 0
36 -35 13 0
36 35 -13 0
-36 0
-37 9 10 0
-37 -9 -10 0
37 -9 10 0
37 9 -10 0
-38 37 14 0
-38 -37 -14 0
38 -37 14 0
38 37 -14 0
-39 38 15 0
-39 -38 -15 0
39 -38 15 0
39 38 -15 0
-39 0
-40 11 12 0
-40 -11 -12 0
40 -11 12 0
40 11 -12 0
-41 40 16 0
-41 -40 -16 0
41 -40 16 0
41 40 -16 0
-42 41 17 0
-42 -41 -17 0
42 -41 17 0
42 41 -17 0
-42 0
-43 13 14 0
-43 -13 -14 0
43 -13 14 0
43 13 -14 0
-44 43 18 0
-44 -43 -18 0
44 -43 18 0
44 43 -18 0
-45 44 19 0
-45 -44 -19 0
45 -44 19 0
45 44 -19 0
-45 0
-46 17 18 0
-46 -17 -18 0
46 -17 18 0
46 17 -18 0
-47 46 22 0
-47 -46 -22 0
47 -46 22 0
47 46 -22 0
-48 47 23 0
-48 -47 -23 0
48 -47 23 0
48 47 -23 0
-48 0
-49 19 20 0
-49 -19 -20 0
49 -19 20 0
49 19 -20 0
-50 49 24 0
-50 -49 -24 0
50 -49 24 0
50 49 -24 0
-51 50 25 0
-51 -50 -25 0
51 -50 25 0
51 50 -25 0
-51 0
-52 21 22 0
-52 -21 -22 0
52 -21 22 0
52 21 -22 0
-52 0
-53 23 24 0
-53 -23 -24 0
53 -23 24 0
53 23 -24 0
-53 0
-54 1 6 0
-54 -1 -6 0
54 -1 6 0
54 1 -6 0
-55 54 11 0
-55 -54 -11 0
55 -54 11 0
55 54 -11 0
-56 55 16 0
-56 -55 -16 0
56 -55 16 0
56 55 -16 0
-57 56 21 0
-57 -56 -21 0
57 -56 21 0
57 56 -21 0
57 0
-1 58 0
-59 0
-60 0
-61 0
-2 62 0
-58 62 0
-2 -58 63 0
-59 63 0
-2 -59 64 0
-60 64 0
-2 -60 65 0
-61 65 0
-2 -61 0
-3 66 0
-62 66 0
-3 -62 67 0
-63 67 0
-3 -63 68 0
-64 68 0
-3 -64 69 0
-65 69 0
-3 -65 0
-4 70 0
-66 70 0
-4 -66 71 0
-67 71 0
-4 -67 72 0
-68 72 0
-4 -68 73 0
-69 73 0
-4 -69 0
-5 74 0
-70 74 0
-5 -70 75 0
-71 75 0
-5 -71 76 0
-72 76 0
-5 -72 77 0
-73 77 0
-5 -73 0
-6 78 0
-74 78 0
-6 -74 79 0
-75 79 0
-6 -75 80 0
-76 80 0
-6 -76 81 0
-77 81 0
-6 -77 0
-7 82 0
-78 82 0
-7 -78 83 0
-79 83 0
-7 -79 84 0
-80 84 0
-7 -80 85 0
-81 85 0
-7 -81 0
-8 86 0
-82 86 0
-8 -82 87 0
-83 87 0
-8 -83 88 0
-84 88 0
-8 -84 89 0
-85 89 0
-8 -85 0
-9 90 0
-86 90 0
-9 -86 91 0
-87 91 0
-9 -87 92 0
-88 92 0
-9 -88 93 0
-89 93 0
-9 -89 0
-10 94 0
-90 94 0
-10 -90 95 0
-91 95 0
-10 -91 96 0
-92 96 0
-10 -92 97 0
-93 97 0
-10 -93 0
-11 98 0
-94 98 0
-11 -94 99 0
-95 99 0
-11 -95 100 0
-96 100 0
-11 -96 101 0
-97 101 0
-11 -97 0
-12 102 0
-98 102 0
-12 -98 103 0
-99 103 0
-12 -99 104 0
-100 104 0
-12 -100 105 0
-101 105 0
-12 -101 0
-13 106 0
-102 106 0
-13 -102 107 0
-103 107 0
-13 -103 108 0
-104 108 0
-13 -104 109 0
-105 109 0
-13 -105 0
-14 110 0
-106 110 0
-14 -106 111 0
-107 111 0
-14 -107 112 0
-108 112 0
-14 -108 113 0
-109 113 0
-14 -109 0
-15 114 0
-110 114 0
-15 -110 115 0
-111 115 0
-15 -111 116 0
-112 116 0
-15 -112 117 0
-113 117 0
-15 -113 0
-16 118 0
-114 118 0
-16 -114 119 0
-115 119 0
-16 -115 120 0
-116 120 0
-16 -116 121 0
-117 121 0
-16 -117 0
-17 122 0
-118 122 0
-17 -118 123 0
-119 123 0
-17 -119 124 0
-120 124 0
-17 -120 125 0
-121 125 0
-17 -121 0
-18 126 0
-122 126 0
-18 -122 127 0
-123 127 0
-18 -123 128 0
-124 128 0
-18 -124 129 0
-125 129 0
-18 -125 0
-19 130 0
-126 130 0
-19 -126 131 0
-127 131 0
-19 -127 132 0
-128 132 0
-19 -128 133 0
-129 133 0
-19 -129 0
-20 134 0
-130 134 0
-20 -130 135 0
-131 135 0
-20 -131 136 0
-132 136 0
-20 -132 137 0
-133 137 0
-20 -133 0
-21 138 0
-134 138 0
-21 -134 139 0
-135 139 0
-21 -135 140 0
-136 140 0
-21 -136 141 0
-137 141 0
-21 -137 0
-22 142 0
-138 142 0
-22 -138 143 0
-139 143 0
-22 -139 144 0
-140 144 0
-22 -140 145 0
-141 145 0
-22 -141 0
-23 146 0
-142 146 0
-23 -142 147 0
-143 147 0
-23 -143 148 0
-144 148 0
-23 -144 149 0
-145 149 0
-23 -145 0
-24 150 0
-146 150 0
-24 -146 151 0
-147 151 0
-24 -147 152 0
-148 152 0
-24 -148 153 0
-149 153 0
-24 -149 0
-25 -153 0
