p cnf 177 400
-26 2 3 0
-26 -2 -3 0
26 -2 3 0
26 2 -3 0
-26 0
-27 4 5 0
-27 -4 -5 0
27 -4 5 0
27 4 -5 0
-27 0
-28 1 2 0
-28 -1 -2 0
28 -1 2 0
28 1 -2 0
-29 28 6 0
-29 -28 -6 0
29 -28 6 0
29 28 -6 0
-30 29 7 0
-30 -29 -7 0
30 -29 7 0
30 29 -7 0
-30 0
-31 3 4 0
-31 -3 -4 0
31 -3 4 0
31 3 -4 0
-32 31 8 0
-32 -31 -8 0
32 -31 8 0
32 31 -8 0
-33 32 9 0
-33 -32 -9 0
33 -32 9 0
33 32 -9 0
-33 0
-34 7 8 0
-34 -7 -8 0
34 -7 8 0
34 7 -8 0
-35 34 12 0
-35 -34 -12 0
35 -34 12 0
35 34 -12 0
-36 35 13 0
-36 -35 -13 0
36 -35 13 0
36 35 -13 0
-36 0
-37 9 10 0
-37 -9 -10 0
37 -9 10 0
37 9 -10 0
-38 37 14 0
-38 -37 -14 0
38 -37 14 0
38 37 -14 0
-39 38 15 0
-39 -38 -15 0
39 -38 15 0
39 38 -15 0
-39 0
-40 11 12 0
-40 -11 -12 0
40 -11 12 0
40 11 -12 0
-41 40 16 0
-41 -40 -16 0
41 -40 16 0
41 40 -16 0
-42 41 17 0
-42 -41 -17 0
42 -41 17 0
42 41 -17 0
-42 0
-43 13 14 0
-43 -13 -14 0
43 -13 14 0
43 13 -14 0
-44 43 18 0
-44 -43 -18 0
44 -43 18 0
44 43 -18 0
-45 44 19 0
-45 -44 -19 0
45 -44 19 0
45 44 -19 0
-45 0
-46 17 18 0
-46 -17 -18 0
46 -17 18 0
46 17 -18 0
-47 46 22 0
-47 -46 -22 0
47 -46 22 0
47 46 -22 0
-48 47 23 0
-48 -47 -23 0
48 -47 23 0
48 47 -23 0
-48 0
-49 19 20 0
-49 -19 -20 0
49 -19 20 0
49 19 -20 0
-50 49 24 0
-50 -49 -24 0
50 -49 24 0
50 49 -24 0
-51 50 25 0
-51 -50 -25 0
51 -50 25 0
51 50 -25 0
-51 0
-52 21 22 0
-52 -21 -22 0
52 -21 22 0
52 21 -22 0
-52 0
-53 23 24 0
-53 -23 -24 0
53 -23 24 0
53 23 -24 0
-53 0
-54 1 6 0
-54 -1 -6 0
54 -1 6 0
54 1 -6 0
-55 54 11 0
-55 -54 -11 0
55 -54 11 0
55 54 -11 0
-56 55 16 0
-56 -55 -16 0
56 -55 16 0
56 55 -16 0
-57 56 21 0
-57 -56 -21 0
57 -56 21 0
57 56 -21 0
57 0
-1 58 0
-59 0
-60 0
-61 0
-62 0
-2 63 0
-58 63 0
-2 -58 64 0
-59 64 0
-2 -59 65 0
-60 65 0
-2 -60 66 0
-61 66 0
-2 -61 67 0
-62 67 0
-2 -62 0
-3 68 0
-63 68 0
-3 -63 69 0
-64 69 0
-3 -64 70 0
-65 70 0
-3 -65 71 0
-66 71 0
-3 -66 72 0
-67 72 0
-3 -67 0
-4 73 0
-68 73 0
-4 -68 74 0
-69 74 0
-4 -69 75 0
-70 75 0
-4 -70 76 0
-71 76 0
-4 -71 77 0
-72 77 0
-4 -72 0
-5 78 0
-73 78 0
-5 -73 79 0
-74 79 0
-5 -74 80 0
-75 80 0
-5 -75 81 0
-76 81 0
-5 -76 82 0
-77 82 0
-5 -77 0
-6 83 0
-78 83 0
-6 -78 84 0
-79 84 0
-6 -79 85 0
-80 85 0
-6 -80 86 0
-81 86 0
-6 -81 87 0
-82 87 0
-6 -82 0
-7 88 0
-83 88 0
-7 -83 89 0
-84 89 0
-7 -84 90 0
-85 90 0
-7 -85 91 0
-86 91 0
-7 -86 92 0
-87 92 0
-7 -87 0
-8 93 0
-88 93 0
-8 -88 94 0
-89 94 0
-8 -89 95 0
-90 95 0
-8 -90 96 0
-91 96 0
-8 -91 97 0
-92 97 0
-8 -92 0
-9 98 0
-93 98 0
-9 -93 99 0
-94 99 0
-9 -94 100 0
-95 100 0
-9 -95 101 0
-96 101 0
-9 -96 102 0
-97 102 0
-9 -97 0
-10 103 0
-98 103 0
-10 -98 104 0
-99 104 0
-10 -99 105 0
-100 105 0
-10 -100 106 0
-101 106 0
-10 -101 107 0
-102 107 0
-10 -102 0
-11 108 0
-103 108 0
-11 -103 109 0
-104 109 0
-11 -104 110 0
-105 110 0
-11 -105 111 0
-106 111 0
-11 -106 112 0
-107 112 0
-11 -107 0
-12 113 0
-108 113 0
-12 -108 114 0
-109 114 0
-12 -109 115 0
-110 115 0
-12 -110 116 0
-111 116 0
-12 -111 117 0
-112 117 0
-12 -112 0
-13 118 0
-113 118 0
-13 -113 119 0
-114 119 0
-13 -114 120 0
-115 120 0
-13 -115 121 0
-116 121 0
-13 -116 122 0
-117 122 0
-13 -117 0
-14 123 0
-118 123 0
-14 -118 124 0
-119 124 0
-14 -119 125 0
-120 125 0
-14 -120 126 0
-121 126 0
-14 -121 127 0
-122 127 0
-14 -122 0
-15 128 0
-123 128 0
-15 -123 129 0
-124 129 0
-15 -124 130 0
-125 130 0
-15 -125 131 0
-126 131 0
-15 -126 132 0
-127 132 0
-15 -127 0
-16 133 0
-128 133 0
-16 -128 134 0
-129 134 0
-16 -129 135 0
-130 135 0
-16 -130 136 0
-131 136 0
-16 -131 137 0
-132 137 0
-16 -132 0
-17 138 0
-133 138 0
-17 -133 139 0
-134 139 0
-17 -134 140 0
-135 140 0
-17 -135 141 0
-136 141 0
-17 -136 142 0
-137 142 0
-17 -137 0
-18 143 0
-138 143 0
-18 -138 144 0
-139 144 0
-18 -139 145 0
-140 145 0
-18 -140 146 0
-141 146 0
-18 -141 147 0
-142 147 0
-18 -142 0
-19 148 0
-143 148 0
-19 -143 149 0
-144 149 0
-19 -144 150 0
-145 150 0
-19 -145 151 0
-146 151 0
-19 -146 152 0
-147 152 0
-19 -147 0
-20 153 0
-148 153 0
-20 -148 154 0
-149 154 0
-20 -149 155 0
-150 155 0
-20 -150 156 0
-151 156 0
-20 -151 157 0
-152 157 0
-20 -152 0
-21 158 0
-153 158 0
-21 -153 159 0
-154 159 0
-21 -154 160 0
-155 160 0
-21 -155 161 0
-156 161 0
-21 -156 162 0
-157 162 0
-21 -157 0
-22 163 0
-158 163 0
-22 -158 164 0
-159 164 0
-22 -159 165 0
-160 165 0
-22 -160 166 0
-161 166 0
-22 -161 167 0
-162 167 0
-22 -162 0
-23 168 0
-163 168 0
-23 -163 169 0
-164 169 0
-23 -164 170 0
-165 170 0
-23 -165 171 0
-166 171 0
-23 -166 172 0
-167 172 0
-23 -167 0
-24 173 0
-168 173 0
-24 -168 174 0
-169 174 0
-24 -169 175 0
-170 175 0
-24 -170 176 0
-171 176 0
-24 -171 177 0
-172 177 0
-24 -172 0
-25 -177 0
