p cnf 238 624
-24 1 2 0
-24 -1 -2 0
24 -1 2 0
24 1 -2 0
-25 24 3 0
-25 -24 -3 0
25 -24 3 0
25 24 -3 0
-26 25 4 0
-26 -25 -4 0
26 -25 4 0
26 25 -4 0
-27 26 5 0
-27 -26 -5 0
27 -26 5 0
27 26 -5 0
-28 27 8 0
-28 -27 -8 0
28 -27 8 0
28 27 -8 0
-29 28 11 0
-29 -28 -11 0
29 -28 11 0
29 28 -11 0
-30 29 13 0
-30 -29 -13 0
30 -29 13 0
30 29 -13 0
-30 0
-31 2 3 0
-31 -2 -3 0
31 -2 3 0
31 2 -3 0
-32 31 4 0
-32 -31 -4 0
32 -31 4 0
32 31 -4 0
-33 32 5 0
-33 -32 -5 0
33 -32 5 0
33 32 -5 0
-34 33 6 0
-34 -33 -6 0
34 -33 6 0
34 33 -6 0
-35 34 9 0
-35 -34 -9 0
35 -34 9 0
35 34 -9 0
-36 35 12 0
-36 -35 -12 0
36 -35 12 0
36 35 -12 0
-37 36 14 0
-37 -36 -14 0
37 -36 14 0
37 36 -14 0
-37 0
-38 1 2 0
-38 -1 -2 0
38 -1 2 0
38 1 -2 0
-39 38 6 0
-39 -38 -6 0
39 -38 6 0
39 38 -6 0
-40 39 7 0
-40 -39 -7 0
40 -39 7 0
40 39 -7 0
-41 40 8 0
-41 -40 -8 0
41 -40 8 0
41 40 -8 0
-42 41 10 0
-42 -41 -10 0
42 -41 10 0
42 41 -10 0
-43 42 11 0
-43 -42 -11 0
43 -42 11 0
43 42 -11 0
-44 43 15 0
-44 -43 -15 0
44 -43 15 0
44 43 -15 0
-44 0
-45 2 3 0
-45 -2 -3 0
45 -2 3 0
45 2 -3 0
-46 45 7 0
-46 -45 -7 0
46 -45 7 0
46 45 -7 0
-47 46 8 0
-47 -46 -8 0
47 -46 8 0
47 46 -8 0
-48 47 9 0
-48 -47 -9 0
48 -47 9 0
48 47 -9 0
-49 48 11 0
-49 -48 -11 0
49 -48 11 0
49 48 -11 0
-50 49 12 0
-50 -49 -12 0
50 -49 12 0
50 49 -12 0
-51 50 16 0
-51 -50 -16 0
51 -50 16 0
51 50 -16 0
-51 0
-52 1 2 0
-52 -1 -2 0
52 -1 2 0
52 1 -2 0
-53 52 5 0
-53 -52 -5 0
53 -52 5 0
53 52 -5 0
-54 53 9 0
-54 -53 -9 0
54 -53 9 0
54 53 -9 0
-55 54 10 0
-55 -54 -10 0
55 -54 10 0
55 54 -10 0
-56 55 11 0
-56 -55 -11 0
56 -55 11 0
56 55 -11 0
-57 56 12 0
-57 -56 -12 0
57 -56 12 0
57 56 -12 0
-58 57 17 0
-58 -57 -17 0
58 -57 17 0
58 57 -17 0
-58 0
-59 1 4 0
-59 -1 -4 0
59 -1 4 0
59 1 -4 0
-60 59 5 0
-60 -59 -5 0
60 -59 5 0
60 59 -5 0
-61 60 6 0
-61 -60 -6 0
61 -60 6 0
61 60 -6 0
-62 61 8 0
-62 -61 -8 0
62 -61 8 0
62 61 -8 0
-63 62 10 0
-63 -62 -10 0
63 -62 10 0
63 62 -10 0
-64 63 12 0
-64 -63 -12 0
64 -63 12 0
64 63 -12 0
-65 64 18 0
-65 -64 -18 0
65 -64 18 0
65 64 -18 0
-65 0
-66 1 3 0
-66 -1 -3 0
66 -1 3 0
66 1 -3 0
-67 66 4 0
-67 -66 -4 0
67 -66 4 0
67 66 -4 0
-68 67 6 0
-68 -67 -6 0
68 -67 6 0
68 67 -6 0
-69 68 7 0
-69 -68 -7 0
69 -68 7 0
69 68 -7 0
-70 69 8 0
-70 -69 -8 0
70 -69 8 0
70 69 -8 0
-71 70 9 0
-71 -70 -9 0
71 -70 9 0
71 70 -9 0
-72 71 19 0
-72 -71 -19 0
72 -71 19 0
72 71 -19 0
-72 0
-73 2 4 0
-73 -2 -4 0
73 -2 4 0
73 2 -4 0
-74 73 5 0
-74 -73 -5 0
74 -73 5 0
74 73 -5 0
-75 74 7 0
-75 -74 -7 0
75 -74 7 0
75 74 -7 0
-76 75 8 0
-76 -75 -8 0
76 -75 8 0
76 75 -8 0
-77 76 9 0
-77 -76 -9 0
77 -76 9 0
77 76 -9 0
-78 77 10 0
-78 -77 -10 0
78 -77 10 0
78 77 -10 0
-79 78 20 0
-79 -78 -20 0
79 -78 20 0
79 78 -20 0
-79 0
-80 3 5 0
-80 -3 -5 0
80 -3 5 0
80 3 -5 0
-81 80 6 0
-81 -80 -6 0
81 -80 6 0
81 80 -6 0
-82 81 8 0
-82 -81 -8 0
82 -81 8 0
82 81 -8 0
-83 82 9 0
-83 -82 -9 0
83 -82 9 0
83 82 -9 0
-84 83 10 0
-84 -83 -10 0
84 -83 10 0
84 83 -10 0
-85 84 11 0
-85 -84 -11 0
85 -84 11 0
85 84 -11 0
-86 85 21 0
-86 -85 -21 0
86 -85 21 0
86 85 -21 0
-86 0
-87 4 6 0
-87 -4 -6 0
87 -4 6 0
87 4 -6 0
-88 87 7 0
-88 -87 -7 0
88 -87 7 0
88 87 -7 0
-89 88 9 0
-89 -88 -9 0
89 -88 9 0
89 88 -9 0
-90 89 10 0
-90 -89 -10 0
90 -89 10 0
90 89 -10 0
-91 90 11 0
-91 -90 -11 0
91 -90 11 0
91 90 -11 0
-92 91 12 0
-92 -91 -12 0
92 -91 12 0
92 91 -12 0
-93 92 22 0
-93 -92 -22 0
93 -92 22 0
93 92 -22 0
-93 0
-94 1 2 0
-94 -1 -2 0
94 -1 2 0
94 1 -2 0
-95 94 3 0
-95 -94 -3 0
95 -94 3 0
95 94 -3 0
-96 95 4 0
-96 -95 -4 0
96 -95 4 0
96 95 -4 0
-97 96 7 0
-97 -96 -7 0
97 -96 7 0
97 96 -7 0
-98 97 10 0
-98 -97 -10 0
98 -97 10 0
98 97 -10 0
-99 98 12 0
-99 -98 -12 0
99 -98 12 0
99 98 -12 0
-100 99 23 0
-100 -99 -23 0
100 -99 23 0
100 99 -23 0
-100 0
-101 1 3 0
-101 -1 -3 0
101 -1 3 0
101 1 -3 0
-102 101 5 0
-102 -101 -5 0
102 -101 5 0
102 101 -5 0
-103 102 6 0
-103 -102 -6 0
103 -102 6 0
103 102 -6 0
-104 103 7 0
-104 -103 -7 0
104 -103 7 0
104 103 -7 0
-105 104 11 0
-105 -104 -11 0
105 -104 11 0
105 104 -11 0
-106 105 12 0
-106 -105 -12 0
106 -105 12 0
106 105 -12 0
106 0
-1 107 0
-108 0
-109 0
-110 0
-111 0
-112 0
-2 113 0
-107 113 0
-2 -107 114 0
-108 114 0
-2 -108 115 0
-109 115 0
-2 -109 116 0
-110 116 0
-2 -110 117 0
-111 117 0
-2 -111 118 0
-112 118 0
-2 -112 0
-3 119 0
-113 119 0
-3 -113 120 0
-114 120 0
-3 -114 121 0
-115 121 0
-3 -115 122 0
-116 122 0
-3 -116 123 0
-117 123 0
-3 -117 124 0
-118 124 0
-3 -118 0
-4 125 0
-119 125 0
-4 -119 126 0
-120 126 0
-4 -120 127 0
-121 127 0
-4 -121 128 0
-122 128 0
-4 -122 129 0
-123 129 0
-4 -123 130 0
-124 130 0
-4 -124 0
-5 131 0
-125 131 0
-5 -125 132 0
-126 132 0
-5 -126 133 0
-127 133 0
-5 -127 134 0
-128 134 0
-5 -128 135 0
-129 135 0
-5 -129 136 0
-130 136 0
-5 -130 0
-6 137 0
-131 137 0
-6 -131 138 0
-132 138 0
-6 -132 139 0
-133 139 0
-6 -133 140 0
-134 140 0
-6 -134 141 0
-135 141 0
-6 -135 142 0
-136 142 0
-6 -136 0
-7 143 0
-137 143 0
-7 -137 144 0
-138 144 0
-7 -138 145 0
-139 145 0
-7 -139 146 0
-140 146 0
-7 -140 147 0
-141 147 0
-7 -141 148 0
-142 148 0
-7 -142 0
-8 149 0
-143 149 0
-8 -143 150 0
-144 150 0
-8 -144 151 0
-145 151 0
-8 -145 152 0
-146 152 0
-8 -146 153 0
-147 153 0
-8 -147 154 0
-148 154 0
-8 -148 0
-9 155 0
-149 155 0
-9 -149 156 0
-150 156 0
-9 -150 157 0
-151 157 0
-9 -151 158 0
-152 158 0
-9 -152 159 0
-153 159 0
-9 -153 160 0
-154 160 0
-9 -154 0
-10 161 0
-155 161 0
-10 -155 162 0
-156 162 0
-10 -156 163 0
-157 163 0
-10 -157 164 0
-158 164 0
-10 -158 165 0
-159 165 0
-10 -159 166 0
-160 166 0
-10 -160 0
-11 167 0
-161 167 0
-11 -161 168 0
-162 168 0
-11 -162 169 0
-163 169 0
-11 -163 170 0
-164 170 0
-11 -164 171 0
-165 171 0
-11 -165 172 0
-166 172 0
-11 -166 0
-12 173 0
-167 173 0
-12 -167 174 0
-168 174 0
-12 -168 175 0
-169 175 0
-12 -169 176 0
-170 176 0
-12 -170 177 0
-171 177 0
-12 -171 178 0
-172 178 0
-12 -172 0
-13 179 0
-173 179 0
-13 -173 180 0
-174 180 0
-13 -174 181 0
-175 181 0
-13 -175 182 0
-176 182 0
-13 -176 183 0
-177 183 0
-13 -177 184 0
-178 184 0
-13 -178 0
-14 185 0
-179 185 0
-14 -179 186 0
-180 186 0
-14 -180 187 0
-181 187 0
-14 -181 188 0
-182 188 0
-14 -182 189 0
-183 189 0
-14 -183 190 0
-184 190 0
-14 -184 0
-15 191 0
-185 191 0
-15 -185 192 0
-186 192 0
-15 -186 193 0
-187 193 0
-15 -187 194 0
-188 194 0
-15 -188 195 0
-189 195 0
-15 -189 196 0
-190 196 0
-15 -190 0
-16 197 0
-191 197 0
-16 -191 198 0
-192 198 0
-16 -192 199 0
-193 199 0
-16 -193 200 0
-194 200 0
-16 -194 201 0
-195 201 0
-16 -195 202 0
-196 202 0
-16 -196 0
-17 203 0
-197 203 0
-17 -197 204 0
-198 204 0
-17 -198 205 0
-199 205 0
-17 -199 206 0
-200 206 0
-17 -200 207 0
-201 207 0
-17 -201 208 0
-202 208 0
-17 -202 0
-18 209 0
-203 209 0
-18 -203 210 0
-204 210 0
-18 -204 211 0
-205 211 0
-18 -205 212 0
-206 212 0
-18 -206 213 0
-207 213 0
-18 -207 214 0
-208 214 0
-18 -208 0
-19 215 0
-209 215 0
-19 -209 216 0
-210 216 0
-19 -210 217 0
-211 217 0
-19 -211 218 0
-212 218 0
-19 -212 219 0
-213 219 0
-19 -213 220 0
-214 220 0
-19 -214 0
-20 221 0
-215 221 0
-20 -215 222 0
-216 222 0
-20 -216 223 0
-217 223 0
-20 -217 224 0
-218 224 0
-20 -218 225 0
-219 225 0
-20 -219 226 0
-220 226 0
-20 -220 0
-21 227 0
-221 227 0
-21 -221 228 0
-222 228 0
-21 -222 229 0
-223 229 0
-21 -223 230 0
-224 230 0
-21 -224 231 0
-225 231 0
-21 -225 232 0
-226 232 0
-21 -226 0
-22 233 0
-227 233 0
-22 -227 234 0
-228 234 0
-22 -228 235 0
-229 235 0
-22 -229 236 0
-230 236 0
-22 -230 237 0
-231 237 0
-22 -231 238 0
-232 238 0
-22 -232 0
-23 -238 0
