p cnf 260 667
-24 1 2 0
-24 -1 -2 0
24 -1 2 0
24 1 -2 0
-25 24 3 0
-25 -24 -3 0
25 -24 3 0
25 24 -3 0
-26 25 4 0
-26 -25 -4 0
26 -25 4 0
26 25 -4 0
-27 26 5 0
-27 -26 -5 0
27 -26 5 0
27 26 -5 0
-28 27 8 0
-28 -27 -8 0
28 -27 8 0
28 27 -8 0
-29 28 11 0
-29 -28 -11 0
29 -28 11 0
29 28 -11 0
-30 29 13 0
-30 -29 -13 0
30 -29 13 0
30 29 -13 0
-30 0
-31 2 3 0
-31 -2 -3 0
31 -2 3 0
31 2 -3 0
-32 31 4 0
-32 -31 -4 0
32 -31 4 0
32 31 -4 0
-33 32 5 0
-33 -32 -5 0
33 -32 5 0
33 32 -5 0
-34 33 6 0
-34 -33 -6 0
34 -33 6 0
34 33 -6 0
-35 34 9 0
-35 -34 -9 0
35 -34 9 0
35 34 -9 0
-36 35 12 0
-36 -35 -12 0
36 -35 12 0
36 35 -12 0
-37 36 14 0
-37 -36 -14 0
37 -36 14 0
37 36 -14 0
-37 0
-38 1 2 0
-38 -1 -2 0
38 -1 2 0
38 1 -2 0
-39 38 6 0
-39 -38 -6 0
39 -38 6 0
39 38 -6 0
-40 39 7 0
-40 -39 -7 0
40 -39 7 0
40 39 -7 0
-41 40 8 0
-41 -40 -8 0
41 -40 8 0
41 40 -8 0
-42 41 10 0
-42 -41 -10 0
42 -41 10 0
42 41 -10 0
-43 42 11 0
-43 -42 -11 0
43 -42 11 0
43 42 -11 0
-44 43 15 0
-44 -43 -15 0
44 -43 15 0
44 43 -15 0
-44 0
-45 2 3 0
-45 -2 -3 0
45 -2 3 0
45 2 -3 0
-46 45 7 0
-46 -45 -7 0
46 -45 7 0
46 45 -7 0
-47 46 8 0
-47 -46 -8 0
47 -46 8 0
47 46 -8 0
-48 47 9 0
-48 -47 -9 0
48 -47 9 0
48 47 -9 0
-49 48 11 0
-49 -48 -11 0
49 -48 11 0
49 48 -11 0
-50 49 12 0
-50 -49 -12 0
50 -49 12 0
50 49 -12 0
-51 50 16 0
-51 -50 -16 0
51 -50 16 0
51 50 -16 0
-51 0
-52 1 2 0
-52 -1 -2 0
52 -1 2 0
52 1 -2 0
-53 52 5 0
-53 -52 -5 0
53 -52 5 0
53 52 -5 0
-54 53 9 0
-54 -53 -9 0
54 -53 9 0
54 53 -9 0
-55 54 10 0
-55 -54 -10 0
55 -54 10 0
55 54 -10 0
-56 55 11 0
-56 -55 -11 0
56 -55 11 0
56 55 -11 0
-57 56 12 0
-57 -56 -12 0
57 -56 12 0
57 56 -12 0
-58 57 17 0
-58 -57 -17 0
58 -57 17 0
58 57 -17 0
-58 0
-59 1 4 0
-59 -1 -4 0
59 -1 4 0
59 1 -4 0
-60 59 5 0
-60 -59 -5 0
60 -59 5 0
60 59 -5 0
-61 60 6 0
-61 -60 -6 0
61 -60 6 0
61 60 -6 0
-62 61 8 0
-62 -61 -8 0
62 -61 8 0
62 61 -8 0
-63 62 10 0
-63 -62 -10 0
63 -62 10 0
63 62 -10 0
-64 63 12 0
-64 -63 -12 0
64 -63 12 0
64 63 -12 0
-65 64 18 0
-65 -64 -18 0
65 -64 18 0
65 64 -18 0
-65 0
-66 1 3 0
-66 -1 -3 0
66 -1 3 0
66 1 -3 0
-67 66 4 0
-67 -66 -4 0
67 -66 4 0
67 66 -4 0
-68 67 6 0
-68 -67 -6 0
68 -67 6 0
68 67 -6 0
-69 68 7 0
-69 -68 -7 0
69 -68 7 0
69 68 -7 0
-70 69 8 0
-70 -69 -8 0
70 -69 8 0
70 69 -8 0
-71 70 9 0
-71 -70 -9 0
71 -70 9 0
71 70 -9 0
-72 71 19 0
-72 -71 -19 0
72 -71 19 0
72 71 -19 0
-72 0
-73 2 4 0
-73 -2 -4 0
73 -2 4 0
73 2 -4 0
-74 73 5 0
-74 -73 -5 0
74 -73 5 0
74 73 -5 0
-75 74 7 0
-75 -74 -7 0
75 -74 7 0
75 74 -7 0
-76 75 8 0
-76 -75 -8 0
76 -75 8 0
76 75 -8 0
-77 76 9 0
-77 -76 -9 0
77 -76 9 0
77 76 -9 0
-78 77 10 0
-78 -77 -10 0
78 -77 10 0
78 77 -10 0
-79 78 20 0
-79 -78 -20 0
79 -78 20 0
79 78 -20 0
-79 0
-80 3 5 0
-80 -3 -5 0
80 -3 5 0
80 3 -5 0
-81 80 6 0
-81 -80 -6 0
81 -80 6 0
81 80 -6 0
-82 81 8 0
-82 -81 -8 0
82 -81 8 0
82 81 -8 0
-83 82 9 0
-83 -82 -9 0
83 -82 9 0
83 82 -9 0
-84 83 10 0
-84 -83 -10 0
84 -83 10 0
84 83 -10 0
-85 84 11 0
-85 -84 -11 0
85 -84 11 0
85 84 -11 0
-86 85 21 0
-86 -85 -21 0
86 -85 21 0
86 85 -21 0
-86 0
-87 4 6 0
-87 -4 -6 0
87 -4 6 0
87 4 -6 0
-88 87 7 0
-88 -87 -7 0
88 -87 7 0
88 87 -7 0
-89 88 9 0
-89 -88 -9 0
89 -88 9 0
89 88 -9 0
-90 89 10 0
-90 -89 -10 0
90 -89 10 0
90 89 -10 0
-91 90 11 0
-91 -90 -11 0
91 -90 11 0
91 90 -11 0
-92 91 12 0
-92 -91 -12 0
92 -91 12 0
92 91 -12 0
-93 92 22 0
-93 -92 -22 0
93 -92 22 0
93 92 -22 0
-93 0
-94 1 2 0
-94 -1 -2 0
94 -1 2 0
94 1 -2 0
-95 94 3 0
-95 -94 -3 0
95 -94 3 0
95 94 -3 0
-96 95 4 0
-96 -95 -4 0
96 -95 4 0
96 95 -4 0
-97 96 7 0
-97 -96 -7 0
97 -96 7 0
97 96 -7 0
-98 97 10 0
-98 -97 -10 0
98 -97 10 0
98 97 -10 0
-99 98 12 0
-99 -98 -12 0
99 -98 12 0
99 98 -12 0
-100 99 23 0
-100 -99 -23 0
100 -99 23 0
100 99 -23 0
-100 0
-101 1 3 0
-101 -1 -3 0
101 -1 3 0
101 1 -3 0
-102 101 5 0
-102 -101 -5 0
102 -101 5 0
102 101 -5 0
-103 102 6 0
-103 -102 -6 0
103 -102 6 0
103 102 -6 0
-104 103 7 0
-104 -103 -7 0
104 -103 7 0
104 103 -7 0
-105 104 11 0
-105 -104 -11 0
105 -104 11 0
105 104 -11 0
-106 105 12 0
-106 -105 -12 0
106 -105 12 0
106 105 -12 0
106 0
-1 107 0
-108 0
-109 0
-110 0
-111 0
-112 0
-113 0
-2 114 0
-107 114 0
-2 -107 115 0
-108 115 0
-2 -108 116 0
-109 116 0
-2 -109 117 0
-110 117 0
-2 -110 118 0
-111 118 0
-2 -111 119 0
-112 119 0
-2 -112 120 0
-113 120 0
-2 -113 0
-3 121 0
-114 121 0
-3 -114 122 0
-115 122 0
-3 -115 123 0
-116 123 0
-3 -116 124 0
-117 124 0
-3 -117 125 0
-118 125 0
-3 -118 126 0
-119 126 0
-3 -119 127 0
-120 127 0
-3 -120 0
-4 128 0
-121 128 0
-4 -121 129 0
-122 129 0
-4 -122 130 0
-123 130 0
-4 -123 131 0
-124 131 0
-4 -124 132 0
-125 132 0
-4 -125 133 0
-126 133 0
-4 -126 134 0
-127 134 0
-4 -127 0
-5 135 0
-128 135 0
-5 -128 136 0
-129 136 0
-5 -129 137 0
-130 137 0
-5 -130 138 0
-131 138 0
-5 -131 139 0
-132 139 0
-5 -132 140 0
-133 140 0
-5 -133 141 0
-134 141 0
-5 -134 0
-6 142 0
-135 142 0
-6 -135 143 0
-136 143 0
-6 -136 144 0
-137 144 0
-6 -137 145 0
-138 145 0
-6 -138 146 0
-139 146 0
-6 -139 147 0
-140 147 0
-6 -140 148 0
-141 148 0
-6 -141 0
-7 149 0
-142 149 0
-7 -142 150 0
-143 150 0
-7 -143 151 0
-144 151 0
-7 -144 152 0
-145 152 0
-7 -145 153 0
-146 153 0
-7 -146 154 0
-147 154 0
-7 -147 155 0
-148 155 0
-7 -148 0
-8 156 0
-149 156 0
-8 -149 157 0
-150 157 0
-8 -150 158 0
-151 158 0
-8 -151 159 0
-152 159 0
-8 -152 160 0
-153 160 0
-8 -153 161 0
-154 161 0
-8 -154 162 0
-155 162 0
-8 -155 0
-9 163 0
-156 163 0
-9 -156 164 0
-157 164 0
-9 -157 165 0
-158 165 0
-9 -158 166 0
-159 166 0
-9 -159 167 0
-160 167 0
-9 -160 168 0
-161 168 0
-9 -161 169 0
-162 169 0
-9 -162 0
-10 170 0
-163 170 0
-10 -163 171 0
-164 171 0
-10 -164 172 0
-165 172 0
-10 -165 173 0
-166 173 0
-10 -166 174 0
-167 174 0
-10 -167 175 0
-168 175 0
-10 -168 176 0
-169 176 0
-10 -169 0
-11 177 0
-170 177 0
-11 -170 178 0
-171 178 0
-11 -171 179 0
-172 179 0
-11 -172 180 0
-173 180 0
-11 -173 181 0
-174 181 0
-11 -174 182 0
-175 182 0
-11 -175 183 0
-176 183 0
-11 -176 0
-12 184 0
-177 184 0
-12 -177 185 0
-178 185 0
-12 -178 186 0
-179 186 0
-12 -179 187 0
-180 187 0
-12 -180 188 0
-181 188 0
-12 -181 189 0
-182 189 0
-12 -182 190 0
-183 190 0
-12 -183 0
-13 191 0
-184 191 0
-13 -184 192 0
-185 192 0
-13 -185 193 0
-186 193 0
-13 -186 194 0
-187 194 0
-13 -187 195 0
-188 195 0
-13 -188 196 0
-189 196 0
-13 -189 197 0
-190 197 0
-13 -190 0
-14 198 0
-191 198 0
-14 -191 199 0
-192 199 0
-14 -192 200 0
-193 200 0
-14 -193 201 0
-194 201 0
-14 -194 202 0
-195 202 0
-14 -195 203 0
-196 203 0
-14 -196 204 0
-197 204 0
-14 -197 0
-15 205 0
-198 205 0
-15 -198 206 0
-199 206 0
-15 -199 207 0
-200 207 0
-15 -200 208 0
-201 208 0
-15 -201 209 0
-202 209 0
-15 -202 210 0
-203 210 0
-15 -203 211 0
-204 211 0
-15 -204 0
-16 212 0
-205 212 0
-16 -205 213 0
-206 213 0
-16 -206 214 0
-207 214 0
-16 -207 215 0
-208 215 0
-16 -208 216 0
-209 216 0
-16 -209 217 0
-210 217 0
-16 -210 218 0
-211 218 0
-16 -211 0
-17 219 0
-212 219 0
-17 -212 220 0
-213 220 0
-17 -213 221 0
-214 221 0
-17 -214 222 0
-215 222 0
-17 -215 223 0
-216 223 0
-17 -216 224 0
-217 224 0
-17 -217 225 0
-218 225 0
-17 -218 0
-18 226 0
-219 226 0
-18 -219 227 0
-220 227 0
-18 -220 228 0
-221 228 0
-18 -221 229 0
-222 229 0
-18 -222 230 0
-223 230 0
-18 -223 231 0
-224 231 0
-18 -224 232 0
-225 232 0
-18 -225 0
-19 233 0
-226 233 0
-19 -226 234 0
-227 234 0
-19 -227 235 0
-228 235 0
-19 -228 236 0
-229 236 0
-19 -229 237 0
-230 237 0
-19 -230 238 0
-231 238 0
-19 -231 239 0
-232 239 0
-19 -232 0
-20 240 0
-233 240 0
-20 -233 241 0
-234 241 0
-20 -234 242 0
-235 242 0
-20 -235 243 0
-236 243 0
-20 -236 244 0
-237 244 0
-20 -237 245 0
-238 245 0
-20 -238 246 0
-239 246 0
-20 -239 0
-21 247 0
-240 247 0
-21 -240 248 0
-241 248 0
-21 -241 249 0
-242 249 0
-21 -242 250 0
-243 250 0
-21 -243 251 0
-244 251 0
-21 -244 252 0
-245 252 0
-21 -245 253 0
-246 253 0
-21 -246 0
-22 254 0
-247 254 0
-22 -247 255 0
-248 255 0
-22 -248 256 0
-249 256 0
-22 -249 257 0
-250 257 0
-22 -250 258 0
-251 258 0
-22 -251 259 0
-252 259 0
-22 -252 260 0
-253 260 0
-22 -253 0
-23 -260 0
