p cnf 403 907
-50 1 8 0
-50 -1 -8 0
50 -1 8 0
50 1 -8 0
-50 0
-51 2 3 0
-51 -2 -3 0
51 -2 3 0
51 2 -3 0
-52 51 9 0
-52 -51 -9 0
52 -51 9 0
52 51 -9 0
-53 52 10 0
-53 -52 -10 0
53 -52 10 0
53 52 -10 0
-53 0
-54 4 5 0
-54 -4 -5 0
54 -4 5 0
54 4 -5 0
-55 54 11 0
-55 -54 -11 0
55 -54 11 0
55 54 -11 0
-56 55 12 0
-56 -55 -12 0
56 -55 12 0
56 55 -12 0
-56 0
-57 6 7 0
-57 -6 -7 0
57 -6 7 0
57 6 -7 0
-58 57 13 0
-58 -57 -13 0
58 -57 13 0
58 57 -13 0
-59 58 14 0
-59 -58 -14 0
59 -58 14 0
59 58 -14 0
-59 0
-60 8 9 0
-60 -8 -9 0
60 -8 9 0
60 8 -9 0
-61 60 15 0
-61 -60 -15 0
61 -60 15 0
61 60 -15 0
-62 61 16 0
-62 -61 -16 0
62 -61 16 0
62 61 -16 0
-62 0
-63 10 11 0
-63 -10 -11 0
63 -10 11 0
63 10 -11 0
-64 63 17 0
-64 -63 -17 0
64 -63 17 0
64 63 -17 0
-65 64 18 0
-65 -64 -18 0
65 -64 18 0
65 64 -18 0
-65 0
-66 12 13 0
-66 -12 -13 0
66 -12 13 0
66 12 -13 0
-67 66 19 0
-67 -66 -19 0
67 -66 19 0
67 66 -19 0
-68 67 20 0
-68 -67 -20 0
68 -67 20 0
68 67 -20 0
-68 0
-69 14 21 0
-69 -14 -21 0
69 -14 21 0
69 14 -21 0
-69 0
-70 15 22 0
-70 -15 -22 0
70 -15 22 0
70 15 -22 0
-70 0
-71 16 17 0
-71 -16 -17 0
71 -16 17 0
71 16 -17 0
-72 71 23 0
-72 -71 -23 0
72 -71 23 0
72 71 -23 0
-73 72 24 0
-73 -72 -24 0
73 -72 24 0
73 72 -24 0
-73 0
-74 18 19 0
-74 -18 -19 0
74 -18 19 0
74 18 -19 0
-75 74 25 0
-75 -74 -25 0
75 -74 25 0
75 74 -25 0
-76 75 26 0
-76 -75 -26 0
76 -75 26 0
76 75 -26 0
-76 0
-77 20 21 0
-77 -20 -21 0
77 -20 21 0
77 20 -21 0
-78 77 27 0
-78 -77 -27 0
78 -77 27 0
78 77 -27 0
-79 78 28 0
-79 -78 -28 0
79 -78 28 0
79 78 -28 0
-79 0
-80 22 23 0
-80 -22 -23 0
80 -22 23 0
80 22 -23 0
-81 80 29 0
-81 -80 -29 0
81 -80 29 0
81 80 -29 0
-82 81 30 0
-82 -81 -30 0
82 -81 30 0
82 81 -30 0
-82 0
-83 24 25 0
-83 -24 -25 0
83 -24 25 0
83 24 -25 0
-84 83 31 0
-84 -83 -31 0
84 -83 31 0
84 83 -31 0
-85 84 32 0
-85 -84 -32 0
85 -84 32 0
85 84 -32 0
-85 0
-86 26 27 0
-86 -26 -27 0
86 -26 27 0
86 26 -27 0
-87 86 33 0
-87 -86 -33 0
87 -86 33 0
87 86 -33 0
-88 87 34 0
-88 -87 -34 0
88 -87 34 0
88 87 -34 0
-88 0
-89 28 35 0
-89 -28 -35 0
89 -28 35 0
89 28 -35 0
-89 0
-90 29 36 0
-90 -29 -36 0
90 -29 36 0
90 29 -36 0
-90 0
-91 30 31 0
-91 -30 -31 0
91 -30 31 0
91 30 -31 0
-92 91 37 0
-92 -91 -37 0
92 -91 37 0
92 91 -37 0
-93 92 38 0
-93 -92 -38 0
93 -92 38 0
93 92 -38 0
-93 0
-94 32 33 0
-94 -32 -33 0
94 -32 33 0
94 32 -33 0
-95 94 39 0
-95 -94 -39 0
95 -94 39 0
95 94 -39 0
-96 95 40 0
-96 -95 -40 0
96 -95 40 0
96 95 -40 0
-96 0
-97 34 35 0
-97 -34 -35 0
97 -34 35 0
97 34 -35 0
-98 97 41 0
-98 -97 -41 0
98 -97 41 0
98 97 -41 0
-99 98 42 0
-99 -98 -42 0
99 -98 42 0
99 98 -42 0
-99 0
-100 36 37 0
-100 -36 -37 0
100 -36 37 0
100 36 -37 0
-101 100 43 0
-101 -100 -43 0
101 -100 43 0
101 100 -43 0
-102 101 44 0
-102 -101 -44 0
102 -101 44 0
102 101 -44 0
-102 0
-103 38 39 0
-103 -38 -39 0
103 -38 39 0
103 38 -39 0
-104 103 45 0
-104 -103 -45 0
104 -103 45 0
104 103 -45 0
-105 104 46 0
-105 -104 -46 0
105 -104 46 0
105 104 -46 0
-105 0
-106 40 41 0
-106 -40 -41 0
106 -40 41 0
106 40 -41 0
-107 106 47 0
-107 -106 -47 0
107 -106 47 0
107 106 -47 0
-108 107 48 0
-108 -107 -48 0
108 -107 48 0
108 107 -48 0
-108 0
-109 42 49 0
-109 -42 -49 0
109 -42 49 0
109 42 -49 0
-109 0
-110 1 2 0
-110 -1 -2 0
110 -1 2 0
110 1 -2 0
-111 110 3 0
-111 -110 -3 0
111 -110 3 0
111 110 -3 0
-112 111 4 0
-112 -111 -4 0
112 -111 4 0
112 111 -4 0
-113 112 5 0
-113 -112 -5 0
113 -112 5 0
113 112 -5 0
-114 113 6 0
-114 -113 -6 0
114 -113 6 0
114 113 -6 0
-115 114 7 0
-115 -114 -7 0
115 -114 7 0
115 114 -7 0
115 0
-1 116 0
-117 0
-118 0
-119 0
-120 0
-121 0
-2 122 0
-116 122 0
-2 -116 123 0
-117 123 0
-2 -117 124 0
-118 124 0
-2 -118 125 0
-119 125 0
-2 -119 126 0
-120 126 0
-2 -120 127 0
-121 127 0
-2 -121 0
-3 128 0
-122 128 0
-3 -122 129 0
-123 129 0
-3 -123 130 0
-124 130 0
-3 -124 131 0
-125 131 0
-3 -125 132 0
-126 132 0
-3 -126 133 0
-127 133 0
-3 -127 0
-4 134 0
-128 134 0
-4 -128 135 0
-129 135 0
-4 -129 136 0
-130 136 0
-4 -130 137 0
-131 137 0
-4 -131 138 0
-132 138 0
-4 -132 139 0
-133 139 0
-4 -133 0
-5 140 0
-134 140 0
-5 -134 141 0
-135 141 0
-5 -135 142 0
-136 142 0
-5 -136 143 0
-137 143 0
-5 -137 144 0
-138 144 0
-5 -138 145 0
-139 145 0
-5 -139 0
-6 146 0
-140 146 0
-6 -140 147 0
-141 147 0
-6 -141 148 0
-142 148 0
-6 -142 149 0
-143 149 0
-6 -143 150 0
-144 150 0
-6 -144 151 0
-145 151 0
-6 -145 0
-7 152 0
-146 152 0
-7 -146 153 0
-147 153 0
-7 -147 154 0
-148 154 0
-7 -148 155 0
-149 155 0
-7 -149 156 0
-150 156 0
-7 -150 157 0
-151 157 0
-7 -151 0
-8 158 0
-152 158 0
-8 -152 159 0
-153 159 0
-8 -153 160 0
-154 160 0
-8 -154 161 0
-155 161 0
-8 -155 162 0
-156 162 0
-8 -156 163 0
-157 163 0
-8 -157 0
-9 164 0
-158 164 0
-9 -158 165 0
-159 165 0
-9 -159 166 0
-160 166 0
-9 -160 167 0
-161 167 0
-9 -161 168 0
-162 168 0
-9 -162 169 0
-163 169 0
-9 -163 0
-10 170 0
-164 170 0
-10 -164 171 0
-165 171 0
-10 -165 172 0
-166 172 0
-10 -166 173 0
-167 173 0
-10 -167 174 0
-168 174 0
-10 -168 175 0
-169 175 0
-10 -169 0
-11 176 0
-170 176 0
-11 -170 177 0
-171 177 0
-11 -171 178 0
-172 178 0
-11 -172 179 0
-173 179 0
-11 -173 180 0
-174 180 0
-11 -174 181 0
-175 181 0
-11 -175 0
-12 182 0
-176 182 0
-12 -176 183 0
-177 183 0
-12 -177 184 0
-178 184 0
-12 -178 185 0
-179 185 0
-12 -179 186 0
-180 186 0
-12 -180 187 0
-181 187 0
-12 -181 0
-13 188 0
-182 188 0
-13 -182 189 0
-183 189 0
-13 -183 190 0
-184 190 0
-13 -184 191 0
-185 191 0
-13 -185 192 0
-186 192 0
-13 -186 193 0
-187 193 0
-13 -187 0
-14 194 0
-188 194 0
-14 -188 195 0
-189 195 0
-14 -189 196 0
-190 196 0
-14 -190 197 0
-191 197 0
-14 -191 198 0
-192 198 0
-14 -192 199 0
-193 199 0
-14 -193 0
-15 200 0
-194 200 0
-15 -194 201 0
-195 201 0
-15 -195 202 0
-196 202 0
-15 -196 203 0
-197 203 0
-15 -197 204 0
-198 204 0
-15 -198 205 0
-199 205 0
-15 -199 0
-16 206 0
-200 206 0
-16 -200 207 0
-201 207 0
-16 -201 208 0
-202 208 0
-16 -202 209 0
-203 209 0
-16 -203 210 0
-204 210 0
-16 -204 211 0
-205 211 0
-16 -205 0
-17 212 0
-206 212 0
-17 -206 213 0
-207 213 0
-17 -207 214 0
-208 214 0
-17 -208 215 0
-209 215 0
-17 -209 216 0
-210 216 0
-17 -210 217 0
-211 217 0
-17 -211 0
-18 218 0
-212 218 0
-18 -212 219 0
-213 219 0
-18 -213 220 0
-214 220 0
-18 -214 221 0
-215 221 0
-18 -215 222 0
-216 222 0
-18 -216 223 0
-217 223 0
-18 -217 0
-19 224 0
-218 224 0
-19 -218 225 0
-219 225 0
-19 -219 226 0
-220 226 0
-19 -220 227 0
-221 227 0
-19 -221 228 0
-222 228 0
-19 -222 229 0
-223 229 0
-19 -223 0
-20 230 0
-224 230 0
-20 -224 231 0
-225 231 0
-20 -225 232 0
-226 232 0
-20 -226 233 0
-227 233 0
-20 -227 234 0
-228 234 0
-20 -228 235 0
-229 235 0
-20 -229 0
-21 236 0
-230 236 0
-21 -230 237 0
-231 237 0
-21 -231 238 0
-232 238 0
-21 -232 239 0
-233 239 0
-21 -233 240 0
-234 240 0
-21 -234 241 0
-235 241 0
-21 -235 0
-22 242 0
-236 242 0
-22 -236 243 0
-237 243 0
-22 -237 244 0
-238 244 0
-22 -238 245 0
-239 245 0
-22 -239 246 0
-240 246 0
-22 -240 247 0
-241 247 0
-22 -241 0
-23 248 0
-242 248 0
-23 -242 249 0
-243 249 0
-23 -243 250 0
-244 250 0
-23 -244 251 0
-245 251 0
-23 -245 252 0
-246 252 0
-23 -246 253 0
-247 253 0
-23 -247 0
-24 254 0
-248 254 0
-24 -248 255 0
-249 255 0
-24 -249 256 0
-250 256 0
-24 -250 257 0
-251 257 0
-24 -251 258 0
-252 258 0
-24 -252 259 0
-253 259 0
-24 -253 0
-25 260 0
-254 260 0
-25 -254 261 0
-255 261 0
-25 -255 262 0
-256 262 0
-25 -256 263 0
-257 263 0
-25 -257 264 0
-258 264 0
-25 -258 265 0
-259 265 0
-25 -259 0
-26 266 0
-260 266 0
-26 -260 267 0
-261 267 0
-26 -261 268 0
-262 268 0
-26 -262 269 0
-263 269 0
-26 -263 270 0
-264 270 0
-26 -264 271 0
-265 271 0
-26 -265 0
-27 272 0
-266 272 0
-27 -266 273 0
-267 273 0
-27 -267 274 0
-268 274 0
-27 -268 275 0
-269 275 0
-27 -269 276 0
-270 276 0
-27 -270 277 0
-271 277 0
-27 -271 0
-28 278 0
-272 278 0
-28 -272 279 0
-273 279 0
-28 -273 280 0
-274 280 0
-28 -274 281 0
-275 281 0
-28 -275 282 0
-276 282 0
-28 -276 283 0
-277 283 0
-28 -277 0
-29 284 0
-278 284 0
-29 -278 285 0
-279 285 0
-29 -279 286 0
-280 286 0
-29 -280 287 0
-281 287 0
-29 -281 288 0
-282 288 0
-29 -282 289 0
-283 289 0
-29 -283 0
-30 290 0
-284 290 0
-30 -284 291 0
-285 291 0
-30 -285 292 0
-286 292 0
-30 -286 293 0
-287 293 0
-30 -287 294 0
-288 294 0
-30 -288 295 0
-289 295 0
-30 -289 0
-31 296 0
-290 296 0
-31 -290 297 0
-291 297 0
-31 -291 298 0
-292 298 0
-31 -292 299 0
-293 299 0
-31 -293 300 0
-294 300 0
-31 -294 301 0
-295 301 0
-31 -295 0
-32 302 0
-296 302 0
-32 -296 303 0
-297 303 0
-32 -297 304 0
-298 304 0
-32 -298 305 0
-299 305 0
-32 -299 306 0
-300 306 0
-32 -300 307 0
-301 307 0
-32 -301 0
-33 308 0
-302 308 0
-33 -302 309 0
-303 309 0
-33 -303 310 0
-304 310 0
-33 -304 311 0
-305 311 0
-33 -305 312 0
-306 312 0
-33 -306 313 0
-307 313 0
-33 -307 0
-34 314 0
-308 314 0
-34 -308 315 0
-309 315 0
-34 -309 316 0
-310 316 0
-34 -310 317 0
-311 317 0
-34 -311 318 0
-312 318 0
-34 -312 319 0
-313 319 0
-34 -313 0
-35 320 0
-314 320 0
-35 -314 321 0
-315 321 0
-35 -315 322 0
-316 322 0
-35 -316 323 0
-317 323 0
-35 -317 324 0
-318 324 0
-35 -318 325 0
-319 325 0
-35 -319 0
-36 326 0
-320 326 0
-36 -320 327 0
-321 327 0
-36 -321 328 0
-322 328 0
-36 -322 329 0
-323 329 0
-36 -323 330 0
-324 330 0
-36 -324 331 0
-325 331 0
-36 -325 0
-37 332 0
-326 332 0
-37 -326 333 0
-327 333 0
-37 -327 334 0
-328 334 0
-37 -328 335 0
-329 335 0
-37 -329 336 0
-330 336 0
-37 -330 337 0
-331 337 0
-37 -331 0
-38 338 0
-332 338 0
-38 -332 339 0
-333 339 0
-38 -333 340 0
-334 340 0
-38 -334 341 0
-335 341 0
-38 -335 342 0
-336 342 0
-38 -336 343 0
-337 343 0
-38 -337 0
-39 344 0
-338 344 0
-39 -338 345 0
-339 345 0
-39 -339 346 0
-340 346 0
-39 -340 347 0
-341 347 0
-39 -341 348 0
-342 348 0
-39 -342 349 0
-343 349 0
-39 -343 0
-40 350 0
-344 350 0
-40 -344 351 0
-345 351 0
-40 -345 352 0
-346 352 0
-40 -346 353 0
-347 353 0
-40 -347 354 0
-348 354 0
-40 -348 355 0
-349 355 0
-40 -349 0
-41 356 0
-350 356 0
-41 -350 357 0
-351 357 0
-41 -351 358 0
-352 358 0
-41 -352 359 0
-353 359 0
-41 -353 360 0
-354 360 0
-41 -354 361 0
-355 361 0
-41 -355 0
-42 362 0
-356 362 0
-42 -356 363 0
-357 363 0
-42 -357 364 0
-358 364 0
-42 -358 365 0
-359 365 0
-42 -359 366 0
-360 366 0
-42 -360 367 0
-361 367 0
-42 -361 0
-43 368 0
-362 368 0
-43 -362 369 0
-363 369 0
-43 -363 370 0
-364 370 0
-43 -364 371 0
-365 371 0
-43 -365 372 0
-366 372 0
-43 -366 373 0
-367 373 0
-43 -367 0
-44 374 0
-368 374 0
-44 -368 375 0
-369 375 0
-44 -369 376 0
-370 376 0
-44 -370 377 0
-371 377 0
-44 -371 378 0
-372 378 0
-44 -372 379 0
-373 379 0
-44 -373 0
-45 380 0
-374 380 0
-45 -374 381 0
-375 381 0
-45 -375 382 0
-376 382 0
-45 -376 383 0
-377 383 0
-45 -377 384 0
-378 384 0
-45 -378 385 0
-379 385 0
-45 -379 0
-46 386 0
-380 386 0
-46 -380 387 0
-381 387 0
-46 -381 388 0
-382 388 0
-46 -382 389 0
-383 389 0
-46 -383 390 0
-384 390 0
-46 -384 391 0
-385 391 0
-46 -385 0
-47 392 0
-386 392 0
-47 -386 393 0
-387 393 0
-47 -387 394 0
-388 394 0
-47 -388 395 0
-389 395 0
-47 -389 396 0
-390 396 0
-47 -390 397 0
-391 397 0
-47 -391 0
-48 398 0
-392 398 0
-48 -392 399 0
-393 399 0
-48 -393 400 0
-394 400 0
-48 -394 401 0
-395 401 0
-48 -395 402 0
-396 402 0
-48 -396 403 0
-397 403 0
-48 -397 0
-49 -403 0
