p cnf 451 1002
-50 1 8 0
-50 -1 -8 0
50 -1 8 0
50 1 -8 0
-50 0
-51 2 3 0
-51 -2 -3 0
51 -2 3 0
51 2 -3 0
-52 51 9 0
-52 -51 -9 0
52 -51 9 0
52 51 -9 0
-53 52 10 0
-53 -52 -10 0
53 -52 10 0
53 52 -10 0
-53 0
-54 4 5 0
-54 -4 -5 0
54 -4 5 0
54 4 -5 0
-55 54 11 0
-55 -54 -11 0
55 -54 11 0
55 54 -11 0
-56 55 12 0
-56 -55 -12 0
56 -55 12 0
56 55 -12 0
-56 0
-57 6 7 0
-57 -6 -7 0
57 -6 7 0
57 6 -7 0
-58 57 13 0
-58 -57 -13 0
58 -57 13 0
58 57 -13 0
-59 58 14 0
-59 -58 -14 0
59 -58 14 0
59 58 -14 0
-59 0
-60 8 9 0
-60 -8 -9 0
60 -8 9 0
60 8 -9 0
-61 60 15 0
-61 -60 -15 0
61 -60 15 0
61 60 -15 0
-62 61 16 0
-62 -61 -16 0
62 -61 16 0
62 61 -16 0
-62 0
-63 10 11 0
-63 -10 -11 0
63 -10 11 0
63 10 -11 0
-64 63 17 0
-64 -63 -17 0
64 -63 17 0
64 63 -17 0
-65 64 18 0
-65 -64 -18 0
65 -64 18 0
65 64 -18 0
-65 0
-66 12 13 0
-66 -12 -13 0
66 -12 13 0
66 12 -13 0
-67 66 19 0
-67 -66 -19 0
67 -66 19 0
67 66 -19 0
-68 67 20 0
-68 -67 -20 0
68 -67 20 0
68 67 -20 0
-68 0
-69 14 21 0
-69 -14 -21 0
69 -14 21 0
69 14 -21 0
-69 0
-70 15 22 0
-70 -15 -22 0
70 -15 22 0
70 15 -22 0
-70 0
-71 16 17 0
-71 -16 -17 0
71 -16 17 0
71 16 -17 0
-72 71 23 0
-72 -71 -23 0
72 -71 23 0
72 71 -23 0
-73 72 24 0
-73 -72 -24 0
73 -72 24 0
73 72 -24 0
-73 0
-74 18 19 0
-74 -18 -19 0
74 -18 19 0
74 18 -19 0
-75 74 25 0
-75 -74 -25 0
75 -74 25 0
75 74 -25 0
-76 75 26 0
-76 -75 -26 0
76 -75 26 0
76 75 -26 0
-76 0
-77 20 21 0
-77 -20 -21 0
77 -20 21 0
77 20 -21 0
-78 77 27 0
-78 -77 -27 0
78 -77 27 0
78 77 -27 0
-79 78 28 0
-79 -78 -28 0
79 -78 28 0
79 78 -28 0
-79 0
-80 22 23 0
-80 -22 -23 0
80 -22 23 0
80 22 -23 0
-81 80 29 0
-81 -80 -29 0
81 -80 29 0
81 80 -29 0
-82 81 30 0
-82 -81 -30 0
82 -81 30 0
82 81 -30 0
-82 0
-83 24 25 0
-83 -24 -25 0
83 -24 25 0
83 24 -25 0
-84 83 31 0
-84 -83 -31 0
84 -83 31 0
84 83 -31 0
-85 84 32 0
-85 -84 -32 0
85 -84 32 0
85 84 -32 0
-85 0
-86 26 27 0
-86 -26 -27 0
86 -26 27 0
86 26 -27 0
-87 86 33 0
-87 -86 -33 0
87 -86 33 0
87 86 -33 0
-88 87 34 0
-88 -87 -34 0
88 -87 34 0
88 87 -34 0
-88 0
-89 28 35 0
-89 -28 -35 0
89 -28 35 0
89 28 -35 0
-89 0
-90 29 36 0
-90 -29 -36 0
90 -29 36 0
90 29 -36 0
-90 0
-91 30 31 0
-91 -30 -31 0
91 -30 31 0
91 30 -31 0
-92 91 37 0
-92 -91 -37 0
92 -91 37 0
92 91 -37 0
-93 92 38 0
-93 -92 -38 0
93 -92 38 0
93 92 -38 0
-93 0
-94 32 33 0
-94 -32 -33 0
94 -32 33 0
94 32 -33 0
-95 94 39 0
-95 -94 -39 0
95 -94 39 0
95 94 -39 0
-96 95 40 0
-96 -95 -40 0
96 -95 40 0
96 95 -40 0
-96 0
-97 34 35 0
-97 -34 -35 0
97 -34 35 0
97 34 -35 0
-98 97 41 0
-98 -97 -41 0
98 -97 41 0
98 97 -41 0
-99 98 42 0
-99 -98 -42 0
99 -98 42 0
99 98 -42 0
-99 0
-100 36 37 0
-100 -36 -37 0
100 -36 37 0
100 36 -37 0
-101 100 43 0
-101 -100 -43 0
101 -100 43 0
101 100 -43 0
-102 101 44 0
-102 -101 -44 0
102 -101 44 0
102 101 -44 0
-102 0
-103 38 39 0
-103 -38 -39 0
103 -38 39 0
103 38 -39 0
-104 103 45 0
-104 -103 -45 0
104 -103 45 0
104 103 -45 0
-105 104 46 0
-105 -104 -46 0
105 -104 46 0
105 104 -46 0
-105 0
-106 40 41 0
-106 -40 -41 0
106 -40 41 0
106 40 -41 0
-107 106 47 0
-107 -106 -47 0
107 -106 47 0
107 106 -47 0
-108 107 48 0
-108 -107 -48 0
108 -107 48 0
108 107 -48 0
-108 0
-109 42 49 0
-109 -42 -49 0
109 -42 49 0
109 42 -49 0
-109 0
-110 1 2 0
-110 -1 -2 0
110 -1 2 0
110 1 -2 0
-111 110 3 0
-111 -110 -3 0
111 -110 3 0
111 110 -3 0
-112 111 4 0
-112 -111 -4 0
112 -111 4 0
112 111 -4 0
-113 112 5 0
-113 -112 -5 0
113 -112 5 0
113 112 -5 0
-114 113 6 0
-114 -113 -6 0
114 -113 6 0
114 113 -6 0
-115 114 7 0
-115 -114 -7 0
115 -114 7 0
115 114 -7 0
115 0
-1 116 0
-117 0
-118 0
-119 0
-120 0
-121 0
-122 0
-2 123 0
-116 123 0
-2 -116 124 0
-117 124 0
-2 -117 125 0
-118 125 0
-2 -118 126 0
-119 126 0
-2 -119 127 0
-120 127 0
-2 -120 128 0
-121 128 0
-2 -121 129 0
-122 129 0
-2 -122 0
-3 130 0
-123 130 0
-3 -123 131 0
-124 131 0
-3 -124 132 0
-125 132 0
-3 -125 133 0
-126 133 0
-3 -126 134 0
-127 134 0
-3 -127 135 0
-128 135 0
-3 -128 136 0
-129 136 0
-3 -129 0
-4 137 0
-130 137 0
-4 -130 138 0
-131 138 0
-4 -131 139 0
-132 139 0
-4 -132 140 0
-133 140 0
-4 -133 141 0
-134 141 0
-4 -134 142 0
-135 142 0
-4 -135 143 0
-136 143 0
-4 -136 0
-5 144 0
-137 144 0
-5 -137 145 0
-138 145 0
-5 -138 146 0
-139 146 0
-5 -139 147 0
-140 147 0
-5 -140 148 0
-141 148 0
-5 -141 149 0
-142 149 0
-5 -142 150 0
-143 150 0
-5 -143 0
-6 151 0
-144 151 0
-6 -144 152 0
-145 152 0
-6 -145 153 0
-146 153 0
-6 -146 154 0
-147 154 0
-6 -147 155 0
-148 155 0
-6 -148 156 0
-149 156 0
-6 -149 157 0
-150 157 0
-6 -150 0
-7 158 0
-151 158 0
-7 -151 159 0
-152 159 0
-7 -152 160 0
-153 160 0
-7 -153 161 0
-154 161 0
-7 -154 162 0
-155 162 0
-7 -155 163 0
-156 163 0
-7 -156 164 0
-157 164 0
-7 -157 0
-8 165 0
-158 165 0
-8 -158 166 0
-159 166 0
-8 -159 167 0
-160 167 0
-8 -160 168 0
-161 168 0
-8 -161 169 0
-162 169 0
-8 -162 170 0
-163 170 0
-8 -163 171 0
-164 171 0
-8 -164 0
-9 172 0
-165 172 0
-9 -165 173 0
-166 173 0
-9 -166 174 0
-167 174 0
-9 -167 175 0
-168 175 0
-9 -168 176 0
-169 176 0
-9 -169 177 0
-170 177 0
-9 -170 178 0
-171 178 0
-9 -171 0
-10 179 0
-172 179 0
-10 -172 180 0
-173 180 0
-10 -173 181 0
-174 181 0
-10 -174 182 0
-175 182 0
-10 -175 183 0
-176 183 0
-10 -176 184 0
-177 184 0
-10 -177 185 0
-178 185 0
-10 -178 0
-11 186 0
-179 186 0
-11 -179 187 0
-180 187 0
-11 -180 188 0
-181 188 0
-11 -181 189 0
-182 189 0
-11 -182 190 0
-183 190 0
-11 -183 191 0
-184 191 0
-11 -184 192 0
-185 192 0
-11 -185 0
-12 193 0
-186 193 0
-12 -186 194 0
-187 194 0
-12 -187 195 0
-188 195 0
-12 -188 196 0
-189 196 0
-12 -189 197 0
-190 197 0
-12 -190 198 0
-191 198 0
-12 -191 199 0
-192 199 0
-12 -192 0
-13 200 0
-193 200 0
-13 -193 201 0
-194 201 0
-13 -194 202 0
-195 202 0
-13 -195 203 0
-196 203 0
-13 -196 204 0
-197 204 0
-13 -197 205 0
-198 205 0
-13 -198 206 0
-199 206 0
-13 -199 0
-14 207 0
-200 207 0
-14 -200 208 0
-201 208 0
-14 -201 209 0
-202 209 0
-14 -202 210 0
-203 210 0
-14 -203 211 0
-204 211 0
-14 -204 212 0
-205 212 0
-14 -205 213 0
-206 213 0
-14 -206 0
-15 214 0
-207 214 0
-15 -207 215 0
-208 215 0
-15 -208 216 0
-209 216 0
-15 -209 217 0
-210 217 0
-15 -210 218 0
-211 218 0
-15 -211 219 0
-212 219 0
-15 -212 220 0
-213 220 0
-15 -213 0
-16 221 0
-214 221 0
-16 -214 222 0
-215 222 0
-16 -215 223 0
-216 223 0
-16 -216 224 0
-217 224 0
-16 -217 225 0
-218 225 0
-16 -218 226 0
-219 226 0
-16 -219 227 0
-220 227 0
-16 -220 0
-17 228 0
-221 228 0
-17 -221 229 0
-222 229 0
-17 -222 230 0
-223 230 0
-17 -223 231 0
-224 231 0
-17 -224 232 0
-225 232 0
-17 -225 233 0
-226 233 0
-17 -226 234 0
-227 234 0
-17 -227 0
-18 235 0
-228 235 0
-18 -228 236 0
-229 236 0
-18 -229 237 0
-230 237 0
-18 -230 238 0
-231 238 0
-18 -231 239 0
-232 239 0
-18 -232 240 0
-233 240 0
-18 -233 241 0
-234 241 0
-18 -234 0
-19 242 0
-235 242 0
-19 -235 243 0
-236 243 0
-19 -236 244 0
-237 244 0
-19 -237 245 0
-238 245 0
-19 -238 246 0
-239 246 0
-19 -239 247 0
-240 247 0
-19 -240 248 0
-241 248 0
-19 -241 0
-20 249 0
-242 249 0
-20 -242 250 0
-243 250 0
-20 -243 251 0
-244 251 0
-20 -244 252 0
-245 252 0
-20 -245 253 0
-246 253 0
-20 -246 254 0
-247 254 0
-20 -247 255 0
-248 255 0
-20 -248 0
-21 256 0
-249 256 0
-21 -249 257 0
-250 257 0
-21 -250 258 0
-251 258 0
-21 -251 259 0
-252 259 0
-21 -252 260 0
-253 260 0
-21 -253 261 0
-254 261 0
-21 -254 262 0
-255 262 0
-21 -255 0
-22 263 0
-256 263 0
-22 -256 264 0
-257 264 0
-22 -257 265 0
-258 265 0
-22 -258 266 0
-259 266 0
-22 -259 267 0
-260 267 0
-22 -260 268 0
-261 268 0
-22 -261 269 0
-262 269 0
-22 -262 0
-23 270 0
-263 270 0
-23 -263 271 0
-264 271 0
-23 -264 272 0
-265 272 0
-23 -265 273 0
-266 273 0
-23 -266 274 0
-267 274 0
-23 -267 275 0
-268 275 0
-23 -268 276 0
-269 276 0
-23 -269 0
-24 277 0
-270 277 0
-24 -270 278 0
-271 278 0
-24 -271 279 0
-272 279 0
-24 -272 280 0
-273 280 0
-24 -273 281 0
-274 281 0
-24 -274 282 0
-275 282 0
-24 -275 283 0
-276 283 0
-24 -276 0
-25 284 0
-277 284 0
-25 -277 285 0
-278 285 0
-25 -278 286 0
-279 286 0
-25 -279 287 0
-280 287 0
-25 -280 288 0
-281 288 0
-25 -281 289 0
-282 289 0
-25 -282 290 0
-283 290 0
-25 -283 0
-26 291 0
-284 291 0
-26 -284 292 0
-285 292 0
-26 -285 293 0
-286 293 0
-26 -286 294 0
-287 294 0
-26 -287 295 0
-288 295 0
-26 -288 296 0
-289 296 0
-26 -289 297 0
-290 297 0
-26 -290 0
-27 298 0
-291 298 0
-27 -291 299 0
-292 299 0
-27 -292 300 0
-293 300 0
-27 -293 301 0
-294 301 0
-27 -294 302 0
-295 302 0
-27 -295 303 0
-296 303 0
-27 -296 304 0
-297 304 0
-27 -297 0
-28 305 0
-298 305 0
-28 -298 306 0
-299 306 0
-28 -299 307 0
-300 307 0
-28 -300 308 0
-301 308 0
-28 -301 309 0
-302 309 0
-28 -302 310 0
-303 310 0
-28 -303 311 0
-304 311 0
-28 -304 0
-29 312 0
-305 312 0
-29 -305 313 0
-306 313 0
-29 -306 314 0
-307 314 0
-29 -307 315 0
-308 315 0
-29 -308 316 0
-309 316 0
-29 -309 317 0
-310 317 0
-29 -310 318 0
-311 318 0
-29 -311 0
-30 319 0
-312 319 0
-30 -312 320 0
-313 320 0
-30 -313 321 0
-314 321 0
-30 -314 322 0
-315 322 0
-30 -315 323 0
-316 323 0
-30 -316 324 0
-317 324 0
-30 -317 325 0
-318 325 0
-30 -318 0
-31 326 0
-319 326 0
-31 -319 327 0
-320 327 0
-31 -320 328 0
-321 328 0
-31 -321 329 0
-322 329 0
-31 -322 330 0
-323 330 0
-31 -323 331 0
-324 331 0
-31 -324 332 0
-325 332 0
-31 -325 0
-32 333 0
-326 333 0
-32 -326 334 0
-327 334 0
-32 -327 335 0
-328 335 0
-32 -328 336 0
-329 336 0
-32 -329 337 0
-330 337 0
-32 -330 338 0
-331 338 0
-32 -331 339 0
-332 339 0
-32 -332 0
-33 340 0
-333 340 0
-33 -333 341 0
-334 341 0
-33 -334 342 0
-335 342 0
-33 -335 343 0
-336 343 0
-33 -336 344 0
-337 344 0
-33 -337 345 0
-338 345 0
-33 -338 346 0
-339 346 0
-33 -339 0
-34 347 0
-340 347 0
-34 -340 348 0
-341 348 0
-34 -341 349 0
-342 349 0
-34 -342 350 0
-343 350 0
-34 -343 351 0
-344 351 0
-34 -344 352 0
-345 352 0
-34 -345 353 0
-346 353 0
-34 -346 0
-35 354 0
-347 354 0
-35 -347 355 0
-348 355 0
-35 -348 356 0
-349 356 0
-35 -349 357 0
-350 357 0
-35 -350 358 0
-351 358 0
-35 -351 359 0
-352 359 0
-35 -352 360 0
-353 360 0
-35 -353 0
-36 361 0
-354 361 0
-36 -354 362 0
-355 362 0
-36 -355 363 0
-356 363 0
-36 -356 364 0
-357 364 0
-36 -357 365 0
-358 365 0
-36 -358 366 0
-359 366 0
-36 -359 367 0
-360 367 0
-36 -360 0
-37 368 0
-361 368 0
-37 -361 369 0
-362 369 0
-37 -362 370 0
-363 370 0
-37 -363 371 0
-364 371 0
-37 -364 372 0
-365 372 0
-37 -365 373 0
-366 373 0
-37 -366 374 0
-367 374 0
-37 -367 0
-38 375 0
-368 375 0
-38 -368 376 0
-369 376 0
-38 -369 377 0
-370 377 0
-38 -370 378 0
-371 378 0
-38 -371 379 0
-372 379 0
-38 -372 380 0
-373 380 0
-38 -373 381 0
-374 381 0
-38 -374 0
-39 382 0
-375 382 0
-39 -375 383 0
-376 383 0
-39 -376 384 0
-377 384 0
-39 -377 385 0
-378 385 0
-39 -378 386 0
-379 386 0
-39 -379 387 0
-380 387 0
-39 -380 388 0
-381 388 0
-39 -381 0
-40 389 0
-382 389 0
-40 -382 390 0
-383 390 0
-40 -383 391 0
-384 391 0
-40 -384 392 0
-385 392 0
-40 -385 393 0
-386 393 0
-40 -386 394 0
-387 394 0
-40 -387 395 0
-388 395 0
-40 -388 0
-41 396 0
-389 396 0
-41 -389 397 0
-390 397 0
-41 -390 398 0
-391 398 0
-41 -391 399 0
-392 399 0
-41 -392 400 0
-393 400 0
-41 -393 401 0
-394 401 0
-41 -394 402 0
-395 402 0
-41 -395 0
-42 403 0
-396 403 0
-42 -396 404 0
-397 404 0
-42 -397 405 0
-398 405 0
-42 -398 406 0
-399 406 0
-42 -399 407 0
-400 407 0
-42 -400 408 0
-401 408 0
-42 -401 409 0
-402 409 0
-42 -402 0
-43 410 0
-403 410 0
-43 -403 411 0
-404 411 0
-43 -404 412 0
-405 412 0
-43 -405 413 0
-406 413 0
-43 -406 414 0
-407 414 0
-43 -407 415 0
-408 415 0
-43 -408 416 0
-409 416 0
-43 -409 0
-44 417 0
-410 417 0
-44 -410 418 0
-411 418 0
-44 -411 419 0
-412 419 0
-44 -412 420 0
-413 420 0
-44 -413 421 0
-414 421 0
-44 -414 422 0
-415 422 0
-44 -415 423 0
-416 423 0
-44 -416 0
-45 424 0
-417 424 0
-45 -417 425 0
-418 425 0
-45 -418 426 0
-419 426 0
-45 -419 427 0
-420 427 0
-45 -420 428 0
-421 428 0
-45 -421 429 0
-422 429 0
-45 -422 430 0
-423 430 0
-45 -423 0
-46 431 0
-424 431 0
-46 -424 432 0
-425 432 0
-46 -425 433 0
-426 433 0
-46 -426 434 0
-427 434 0
-46 -427 435 0
-428 435 0
-46 -428 436 0
-429 436 0
-46 -429 437 0
-430 437 0
-46 -430 0
-47 438 0
-431 438 0
-47 -431 439 0
-432 439 0
-47 -432 440 0
-433 440 0
-47 -433 441 0
-434 441 0
-47 -434 442 0
-435 442 0
-47 -435 443 0
-436 443 0
-47 -436 444 0
-437 444 0
-47 -437 0
-48 445 0
-438 445 0
-48 -438 446 0
-439 446 0
-48 -439 447 0
-440 447 0
-48 -440 448 0
-441 448 0
-48 -441 449 0
-442 449 0
-48 -442 450 0
-443 450 0
-48 -443 451 0
-444 451 0
-48 -444 0
-49 -451 0
