p cnf 522 5363
-1 -2 -3 0
-1 -2 -4 0
-1 -2 -5 0
-1 -2 -6 0
-1 -2 -7 0
-1 -2 -8 0
-1 -3 -4 0
-1 -3 -5 0
-1 -3 -6 0
-1 -3 -7 0
-1 -3 -8 0
-1 -4 -5 0
-1 -4 -6 0
-1 -4 -7 0
-1 -4 -8 0
-1 -5 -6 0
-1 -5 -7 0
-1 -5 -8 0
-1 -6 -7 0
-1 -6 -8 0
-1 -7 -8 0
-2 -3 -4 0
-2 -3 -5 0
-2 -3 -6 0
-2 -3 -7 0
-2 -3 -8 0
-2 -4 -5 0
-2 -4 -6 0
-2 -4 -7 0
-2 -4 -8 0
-2 -5 -6 0
-2 -5 -7 0
-2 -5 -8 0
-2 -6 -7 0
-2 -6 -8 0
-2 -7 -8 0
-3 -4 -5 0
-3 -4 -6 0
-3 -4 -7 0
-3 -4 -8 0
-3 -5 -6 0
-3 -5 -7 0
-3 -5 -8 0
-3 -6 -7 0
-3 -6 -8 0
-3 -7 -8 0
-4 -5 -6 0
-4 -5 -7 0
-4 -5 -8 0
-4 -6 -7 0
-4 -6 -8 0
-4 -7 -8 0
-5 -6 -7 0
-5 -6 -8 0
-5 -7 -8 0
-6 -7 -8 0
-1 2 3 4 5 6 7 8 0
-2 1 3 4 5 6 7 8 0
-3 1 2 4 5 6 7 8 0
-4 1 2 3 5 6 7 8 0
-5 1 2 3 4 6 7 8 0
-6 1 2 3 4 5 7 8 0
-7 1 2 3 4 5 6 8 0
-8 1 2 3 4 5 6 7 0
-9 -10 -11 0
-9 -10 -12 0
-9 -10 -13 0
-9 -10 -14 0
-9 -10 -15 0
-9 -10 -16 0
-9 -11 -12 0
-9 -11 -13 0
-9 -11 -14 0
-9 -11 -15 0
-9 -11 -16 0
-9 -12 -13 0
-9 -12 -14 0
-9 -12 -15 0
-9 -12 -16 0
-9 -13 -14 0
-9 -13 -15 0
-9 -13 -16 0
-9 -14 -15 0
-9 -14 -16 0
-9 -15 -16 0
-10 -11 -12 0
-10 -11 -13 0
-10 -11 -14 0
-10 -11 -15 0
-10 -11 -16 0
-10 -12 -13 0
-10 -12 -14 0
-10 -12 -15 0
-10 -12 -16 0
-10 -13 -14 0
-10 -13 -15 0
-10 -13 -16 0
-10 -14 -15 0
-10 -14 -16 0
-10 -15 -16 0
-11 -12 -13 0
-11 -12 -14 0
-11 -12 -15 0
-11 -12 -16 0
-11 -13 -14 0
-11 -13 -15 0
-11 -13 -16 0
-11 -14 -15 0
-11 -14 -16 0
-11 -15 -16 0
-12 -13 -14 0
-12 -13 -15 0
-12 -13 -16 0
-12 -14 -15 0
-12 -14 -16 0
-12 -15 -16 0
-13 -14 -15 0
-13 -14 -16 0
-13 -15 -16 0
-14 -15 -16 0
-9 10 11 12 13 14 15 16 0
-10 9 11 12 13 14 15 16 0
-11 9 10 12 13 14 15 16 0
-12 9 10 11 13 14 15 16 0
-13 9 10 11 12 14 15 16 0
-14 9 10 11 12 13 15 16 0
-15 9 10 11 12 13 14 16 0
-16 9 10 11 12 13 14 15 0
-1 -17 -18 0
-1 -17 -19 0
-1 -17 -20 0
-1 -17 -21 0
-1 -17 -22 0
-1 -17 -23 0
-1 -18 -19 0
-1 -18 -20 0
-1 -18 -21 0
-1 -18 -22 0
-1 -18 -23 0
-1 -19 -20 0
-1 -19 -21 0
-1 -19 -22 0
-1 -19 -23 0
-1 -20 -21 0
-1 -20 -22 0
-1 -20 -23 0
-1 -21 -22 0
-1 -21 -23 0
-1 -22 -23 0
-17 -18 -19 0
-17 -18 -20 0
-17 -18 -21 0
-17 -18 -22 0
-17 -18 -23 0
-17 -19 -20 0
-17 -19 -21 0
-17 -19 -22 0
-17 -19 -23 0
-17 -20 -21 0
-17 -20 -22 0
-17 -20 -23 0
-17 -21 -22 0
-17 -21 -23 0
-17 -22 -23 0
-18 -19 -20 0
-18 -19 -21 0
-18 -19 -22 0
-18 -19 -23 0
-18 -20 -21 0
-18 -20 -22 0
-18 -20 -23 0
-18 -21 -22 0
-18 -21 -23 0
-18 -22 -23 0
-19 -20 -21 0
-19 -20 -22 0
-19 -20 -23 0
-19 -21 -22 0
-19 -21 -23 0
-19 -22 -23 0
-20 -21 -22 0
-20 -21 -23 0
-20 -22 -23 0
-21 -22 -23 0
-1 17 18 19 20 21 22 23 0
-17 1 18 19 20 21 22 23 0
-18 1 17 19 20 21 22 23 0
-19 1 17 18 20 21 22 23 0
-20 1 17 18 19 21 22 23 0
-21 1 17 18 19 20 22 23 0
-22 1 17 18 19 20 21 23 0
-23 1 17 18 19 20 21 22 0
-9 -24 -25 0
-9 -24 -26 0
-9 -24 -27 0
-9 -24 -28 0
-9 -24 -29 0
-9 -24 -30 0
-9 -25 -26 0
-9 -25 -27 0
-9 -25 -28 0
-9 -25 -29 0
-9 -25 -30 0
-9 -26 -27 0
-9 -26 -28 0
-9 -26 -29 0
-9 -26 -30 0
-9 -27 -28 0
-9 -27 -29 0
-9 -27 -30 0
-9 -28 -29 0
-9 -28 -30 0
-9 -29 -30 0
-24 -25 -26 0
-24 -25 -27 0
-24 -25 -28 0
-24 -25 -29 0
-24 -25 -30 0
-24 -26 -27 0
-24 -26 -28 0
-24 -26 -29 0
-24 -26 -30 0
-24 -27 -28 0
-24 -27 -29 0
-24 -27 -30 0
-24 -28 -29 0
-24 -28 -30 0
-24 -29 -30 0
-25 -26 -27 0
-25 -26 -28 0
-25 -26 -29 0
-25 -26 -30 0
-25 -27 -28 0
-25 -27 -29 0
-25 -27 -30 0
-25 -28 -29 0
-25 -28 -30 0
-25 -29 -30 0
-26 -27 -28 0
-26 -27 -29 0
-26 -27 -30 0
-26 -28 -29 0
-26 -28 -30 0
-26 -29 -30 0
-27 -28 -29 0
-27 -28 -30 0
-27 -29 -30 0
-28 -29 -30 0
-9 24 25 26 27 28 29 30 0
-24 9 25 26 27 28 29 30 0
-25 9 24 26 27 28 29 30 0
-26 9 24 25 27 28 29 30 0
-27 9 24 25 26 28 29 30 0
-28 9 24 25 26 27 29 30 0
-29 9 24 25 26 27 28 30 0
-30 9 24 25 26 27 28 29 0
-17 -31 -32 0
-17 -31 -33 0
-17 -31 -34 0
-17 -31 -35 0
-17 -31 -36 0
-17 -31 -37 0
-17 -32 -33 0
-17 -32 -34 0
-17 -32 -35 0
-17 -32 -36 0
-17 -32 -37 0
-17 -33 -34 0
-17 -33 -35 0
-17 -33 -36 0
-17 -33 -37 0
-17 -34 -35 0
-17 -34 -36 0
-17 -34 -37 0
-17 -35 -36 0
-17 -35 -37 0
-17 -36 -37 0
-31 -32 -33 0
-31 -32 -34 0
-31 -32 -35 0
-31 -32 -36 0
-31 -32 -37 0
-31 -33 -34 0
-31 -33 -35 0
-31 -33 -36 0
-31 -33 -37 0
-31 -34 -35 0
-31 -34 -36 0
-31 -34 -37 0
-31 -35 -36 0
-31 -35 -37 0
-31 -36 -37 0
-32 -33 -34 0
-32 -33 -35 0
-32 -33 -36 0
-32 -33 -37 0
-32 -34 -35 0
-32 -34 -36 0
-32 -34 -37 0
-32 -35 -36 0
-32 -35 -37 0
-32 -36 -37 0
-33 -34 -35 0
-33 -34 -36 0
-33 -34 -37 0
-33 -35 -36 0
-33 -35 -37 0
-33 -36 -37 0
-34 -35 -36 0
-34 -35 -37 0
-34 -36 -37 0
-35 -36 -37 0
-17 31 32 33 34 35 36 37 0
-31 17 32 33 34 35 36 37 0
-32 17 31 33 34 35 36 37 0
-33 17 31 32 34 35 36 37 0
-34 17 31 32 33 35 36 37 0
-35 17 31 32 33 34 36 37 0
-36 17 31 32 33 34 35 37 0
-37 17 31 32 33 34 35 36 0
-2 -24 -38 0
-2 -24 -39 0
-2 -24 -40 0
-2 -24 -41 0
-2 -24 -42 0
-2 -24 -43 0
-2 -38 -39 0
-2 -38 -40 0
-2 -38 -41 0
-2 -38 -42 0
-2 -38 -43 0
-2 -39 -40 0
-2 -39 -41 0
-2 -39 -42 0
-2 -39 -43 0
-2 -40 -41 0
-2 -40 -42 0
-2 -40 -43 0
-2 -41 -42 0
-2 -41 -43 0
-2 -42 -43 0
-24 -38 -39 0
-24 -38 -40 0
-24 -38 -41 0
-24 -38 -42 0
-24 -38 -43 0
-24 -39 -40 0
-24 -39 -41 0
-24 -39 -42 0
-24 -39 -43 0
-24 -40 -41 0
-24 -40 -42 0
-24 -40 -43 0
-24 -41 -42 0
-24 -41 -43 0
-24 -42 -43 0
-38 -39 -40 0
-38 -39 -41 0
-38 -39 -42 0
-38 -39 -43 0
-38 -40 -41 0
-38 -40 -42 0
-38 -40 -43 0
-38 -41 -42 0
-38 -41 -43 0
-38 -42 -43 0
-39 -40 -41 0
-39 -40 -42 0
-39 -40 -43 0
-39 -41 -42 0
-39 -41 -43 0
-39 -42 -43 0
-40 -41 -42 0
-40 -41 -43 0
-40 -42 -43 0
-41 -42 -43 0
-2 24 38 39 40 41 42 43 0
-24 2 38 39 40 41 42 43 0
-38 2 24 39 40 41 42 43 0
-39 2 24 38 40 41 42 43 0
-40 2 24 38 39 41 42 43 0
-41 2 24 38 39 40 42 43 0
-42 2 24 38 39 40 41 43 0
-43 2 24 38 39 40 41 42 0
-3 -10 -31 0
-3 -10 -44 0
-3 -10 -45 0
-3 -10 -46 0
-3 -10 -47 0
-3 -10 -48 0
-3 -31 -44 0
-3 -31 -45 0
-3 -31 -46 0
-3 -31 -47 0
-3 -31 -48 0
-3 -44 -45 0
-3 -44 -46 0
-3 -44 -47 0
-3 -44 -48 0
-3 -45 -46 0
-3 -45 -47 0
-3 -45 -48 0
-3 -46 -47 0
-3 -46 -48 0
-3 -47 -48 0
-10 -31 -44 0
-10 -31 -45 0
-10 -31 -46 0
-10 -31 -47 0
-10 -31 -48 0
-10 -44 -45 0
-10 -44 -46 0
-10 -44 -47 0
-10 -44 -48 0
-10 -45 -46 0
-10 -45 -47 0
-10 -45 -48 0
-10 -46 -47 0
-10 -46 -48 0
-10 -47 -48 0
-31 -44 -45 0
-31 -44 -46 0
-31 -44 -47 0
-31 -44 -48 0
-31 -45 -46 0
-31 -45 -47 0
-31 -45 -48 0
-31 -46 -47 0
-31 -46 -48 0
-31 -47 -48 0
-44 -45 -46 0
-44 -45 -47 0
-44 -45 -48 0
-44 -46 -47 0
-44 -46 -48 0
-44 -47 -48 0
-45 -46 -47 0
-45 -46 -48 0
-45 -47 -48 0
-46 -47 -48 0
-3 10 31 44 45 46 47 48 0
-10 3 31 44 45 46 47 48 0
-31 3 10 44 45 46 47 48 0
-44 3 10 31 45 46 47 48 0
-45 3 10 31 44 46 47 48 0
-46 3 10 31 44 45 47 48 0
-47 3 10 31 44 45 46 48 0
-48 3 10 31 44 45 46 47 0
-11 -18 -38 0
-11 -18 -49 0
-11 -18 -50 0
-11 -18 -51 0
-11 -18 -52 0
-11 -18 -53 0
-11 -38 -49 0
-11 -38 -50 0
-11 -38 -51 0
-11 -38 -52 0
-11 -38 -53 0
-11 -49 -50 0
-11 -49 -51 0
-11 -49 -52 0
-11 -49 -53 0
-11 -50 -51 0
-11 -50 -52 0
-11 -50 -53 0
-11 -51 -52 0
-11 -51 -53 0
-11 -52 -53 0
-18 -38 -49 0
-18 -38 -50 0
-18 -38 -51 0
-18 -38 -52 0
-18 -38 -53 0
-18 -49 -50 0
-18 -49 -51 0
-18 -49 -52 0
-18 -49 -53 0
-18 -50 -51 0
-18 -50 -52 0
-18 -50 -53 0
-18 -51 -52 0
-18 -51 -53 0
-18 -52 -53 0
-38 -49 -50 0
-38 -49 -51 0
-38 -49 -52 0
-38 -49 -53 0
-38 -50 -51 0
-38 -50 -52 0
-38 -50 -53 0
-38 -51 -52 0
-38 -51 -53 0
-38 -52 -53 0
-49 -50 -51 0
-49 -50 -52 0
-49 -50 -53 0
-49 -51 -52 0
-49 -51 -53 0
-49 -52 -53 0
-50 -51 -52 0
-50 -51 -53 0
-50 -52 -53 0
-51 -52 -53 0
-11 18 38 49 50 51 52 53 0
-18 11 38 49 50 51 52 53 0
-38 11 18 49 50 51 52 53 0
-49 11 18 38 50 51 52 53 0
-50 11 18 38 49 51 52 53 0
-51 11 18 38 49 50 52 53 0
-52 11 18 38 49 50 51 53 0
-53 11 18 38 49 50 51 52 0
-19 -25 -44 0
-19 -25 -54 0
-19 -25 -55 0
-19 -25 -56 0
-19 -25 -57 0
-19 -25 -58 0
-19 -44 -54 0
-19 -44 -55 0
-19 -44 -56 0
-19 -44 -57 0
-19 -44 -58 0
-19 -54 -55 0
-19 -54 -56 0
-19 -54 -57 0
-19 -54 -58 0
-19 -55 -56 0
-19 -55 -57 0
-19 -55 -58 0
-19 -56 -57 0
-19 -56 -58 0
-19 -57 -58 0
-25 -44 -54 0
-25 -44 -55 0
-25 -44 -56 0
-25 -44 -57 0
-25 -44 -58 0
-25 -54 -55 0
-25 -54 -56 0
-25 -54 -57 0
-25 -54 -58 0
-25 -55 -56 0
-25 -55 -57 0
-25 -55 -58 0
-25 -56 -57 0
-25 -56 -58 0
-25 -57 -58 0
-44 -54 -55 0
-44 -54 -56 0
-44 -54 -57 0
-44 -54 -58 0
-44 -55 -56 0
-44 -55 -57 0
-44 -55 -58 0
-44 -56 -57 0
-44 -56 -58 0
-44 -57 -58 0
-54 -55 -56 0
-54 -55 -57 0
-54 -55 -58 0
-54 -56 -57 0
-54 -56 -58 0
-54 -57 -58 0
-55 -56 -57 0
-55 -56 -58 0
-55 -57 -58 0
-56 -57 -58 0
-19 25 44 54 55 56 57 58 0
-25 19 44 54 55 56 57 58 0
-44 19 25 54 55 56 57 58 0
-54 19 25 44 55 56 57 58 0
-55 19 25 44 54 56 57 58 0
-56 19 25 44 54 55 57 58 0
-57 19 25 44 54 55 56 58 0
-58 19 25 44 54 55 56 57 0
-26 -32 -49 0
-26 -32 -59 0
-26 -32 -60 0
-26 -32 -61 0
-26 -32 -62 0
-26 -32 -63 0
-26 -49 -59 0
-26 -49 -60 0
-26 -49 -61 0
-26 -49 -62 0
-26 -49 -63 0
-26 -59 -60 0
-26 -59 -61 0
-26 -59 -62 0
-26 -59 -63 0
-26 -60 -61 0
-26 -60 -62 0
-26 -60 -63 0
-26 -61 -62 0
-26 -61 -63 0
-26 -62 -63 0
-32 -49 -59 0
-32 -49 -60 0
-32 -49 -61 0
-32 -49 -62 0
-32 -49 -63 0
-32 -59 -60 0
-32 -59 -61 0
-32 -59 -62 0
-32 -59 -63 0
-32 -60 -61 0
-32 -60 -62 0
-32 -60 -63 0
-32 -61 -62 0
-32 -61 -63 0
-32 -62 -63 0
-49 -59 -60 0
-49 -59 -61 0
-49 -59 -62 0
-49 -59 -63 0
-49 -60 -61 0
-49 -60 -62 0
-49 -60 -63 0
-49 -61 -62 0
-49 -61 -63 0
-49 -62 -63 0
-59 -60 -61 0
-59 -60 -62 0
-59 -60 -63 0
-59 -61 -62 0
-59 -61 -63 0
-59 -62 -63 0
-60 -61 -62 0
-60 -61 -63 0
-60 -62 -63 0
-61 -62 -63 0
-26 32 49 59 60 61 62 63 0
-32 26 49 59 60 61 62 63 0
-49 26 32 59 60 61 62 63 0
-59 26 32 49 60 61 62 63 0
-60 26 32 49 59 61 62 63 0
-61 26 32 49 59 60 62 63 0
-62 26 32 49 59 60 61 63 0
-63 26 32 49 59 60 61 62 0
-33 -39 -54 0
-33 -39 -64 0
-33 -39 -65 0
-33 -39 -66 0
-33 -39 -67 0
-33 -39 -68 0
-33 -54 -64 0
-33 -54 -65 0
-33 -54 -66 0
-33 -54 -67 0
-33 -54 -68 0
-33 -64 -65 0
-33 -64 -66 0
-33 -64 -67 0
-33 -64 -68 0
-33 -65 -66 0
-33 -65 -67 0
-33 -65 -68 0
-33 -66 -67 0
-33 -66 -68 0
-33 -67 -68 0
-39 -54 -64 0
-39 -54 -65 0
-39 -54 -66 0
-39 -54 -67 0
-39 -54 -68 0
-39 -64 -65 0
-39 -64 -66 0
-39 -64 -67 0
-39 -64 -68 0
-39 -65 -66 0
-39 -65 -67 0
-39 -65 -68 0
-39 -66 -67 0
-39 -66 -68 0
-39 -67 -68 0
-54 -64 -65 0
-54 -64 -66 0
-54 -64 -67 0
-54 -64 -68 0
-54 -65 -66 0
-54 -65 -67 0
-54 -65 -68 0
-54 -66 -67 0
-54 -66 -68 0
-54 -67 -68 0
-64 -65 -66 0
-64 -65 -67 0
-64 -65 -68 0
-64 -66 -67 0
-64 -66 -68 0
-64 -67 -68 0
-65 -66 -67 0
-65 -66 -68 0
-65 -67 -68 0
-66 -67 -68 0
-33 39 54 64 65 66 67 68 0
-39 33 54 64 65 66 67 68 0
-54 33 39 64 65 66 67 68 0
-64 33 39 54 65 66 67 68 0
-65 33 39 54 64 66 67 68 0
-66 33 39 54 64 65 67 68 0
-67 33 39 54 64 65 66 68 0
-68 33 39 54 64 65 66 67 0
-40 -45 -59 0
-40 -45 -69 0
-40 -45 -70 0
-40 -45 -71 0
-40 -45 -72 0
-40 -45 -73 0
-40 -59 -69 0
-40 -59 -70 0
-40 -59 -71 0
-40 -59 -72 0
-40 -59 -73 0
-40 -69 -70 0
-40 -69 -71 0
-40 -69 -72 0
-40 -69 -73 0
-40 -70 -71 0
-40 -70 -72 0
-40 -70 -73 0
-40 -71 -72 0
-40 -71 -73 0
-40 -72 -73 0
-45 -59 -69 0
-45 -59 -70 0
-45 -59 -71 0
-45 -59 -72 0
-45 -59 -73 0
-45 -69 -70 0
-45 -69 -71 0
-45 -69 -72 0
-45 -69 -73 0
-45 -70 -71 0
-45 -70 -72 0
-45 -70 -73 0
-45 -71 -72 0
-45 -71 -73 0
-45 -72 -73 0
-59 -69 -70 0
-59 -69 -71 0
-59 -69 -72 0
-59 -69 -73 0
-59 -70 -71 0
-59 -70 -72 0
-59 -70 -73 0
-59 -71 -72 0
-59 -71 -73 0
-59 -72 -73 0
-69 -70 -71 0
-69 -70 -72 0
-69 -70 -73 0
-69 -71 -72 0
-69 -71 -73 0
-69 -72 -73 0
-70 -71 -72 0
-70 -71 -73 0
-70 -72 -73 0
-71 -72 -73 0
-40 45 59 69 70 71 72 73 0
-45 40 59 69 70 71 72 73 0
-59 40 45 69 70 71 72 73 0
-69 40 45 59 70 71 72 73 0
-70 40 45 59 69 71 72 73 0
-71 40 45 59 69 70 72 73 0
-72 40 45 59 69 70 71 73 0
-73 40 45 59 69 70 71 72 0
-46 -50 -64 0
-46 -50 -74 0
-46 -50 -75 0
-46 -50 -76 0
-46 -50 -77 0
-46 -50 -78 0
-46 -64 -74 0
-46 -64 -75 0
-46 -64 -76 0
-46 -64 -77 0
-46 -64 -78 0
-46 -74 -75 0
-46 -74 -76 0
-46 -74 -77 0
-46 -74 -78 0
-46 -75 -76 0
-46 -75 -77 0
-46 -75 -78 0
-46 -76 -77 0
-46 -76 -78 0
-46 -77 -78 0
-50 -64 -74 0
-50 -64 -75 0
-50 -64 -76 0
-50 -64 -77 0
-50 -64 -78 0
-50 -74 -75 0
-50 -74 -76 0
-50 -74 -77 0
-50 -74 -78 0
-50 -75 -76 0
-50 -75 -77 0
-50 -75 -78 0
-50 -76 -77 0
-50 -76 -78 0
-50 -77 -78 0
-64 -74 -75 0
-64 -74 -76 0
-64 -74 -77 0
-64 -74 -78 0
-64 -75 -76 0
-64 -75 -77 0
-64 -75 -78 0
-64 -76 -77 0
-64 -76 -78 0
-64 -77 -78 0
-74 -75 -76 0
-74 -75 -77 0
-74 -75 -78 0
-74 -76 -77 0
-74 -76 -78 0
-74 -77 -78 0
-75 -76 -77 0
-75 -76 -78 0
-75 -77 -78 0
-76 -77 -78 0
-46 50 64 74 75 76 77 78 0
-50 46 64 74 75 76 77 78 0
-64 46 50 74 75 76 77 78 0
-74 46 50 64 75 76 77 78 0
-75 46 50 64 74 76 77 78 0
-76 46 50 64 74 75 77 78 0
-77 46 50 64 74 75 76 78 0
-78 46 50 64 74 75 76 77 0
-51 -55 -69 0
-51 -55 -79 0
-51 -55 -80 0
-51 -55 -81 0
-51 -55 -82 0
-51 -55 -83 0
-51 -69 -79 0
-51 -69 -80 0
-51 -69 -81 0
-51 -69 -82 0
-51 -69 -83 0
-51 -79 -80 0
-51 -79 -81 0
-51 -79 -82 0
-51 -79 -83 0
-51 -80 -81 0
-51 -80 -82 0
-51 -80 -83 0
-51 -81 -82 0
-51 -81 -83 0
-51 -82 -83 0
-55 -69 -79 0
-55 -69 -80 0
-55 -69 -81 0
-55 -69 -82 0
-55 -69 -83 0
-55 -79 -80 0
-55 -79 -81 0
-55 -79 -82 0
-55 -79 -83 0
-55 -80 -81 0
-55 -80 -82 0
-55 -80 -83 0
-55 -81 -82 0
-55 -81 -83 0
-55 -82 -83 0
-69 -79 -80 0
-69 -79 -81 0
-69 -79 -82 0
-69 -79 -83 0
-69 -80 -81 0
-69 -80 -82 0
-69 -80 -83 0
-69 -81 -82 0
-69 -81 -83 0
-69 -82 -83 0
-79 -80 -81 0
-79 -80 -82 0
-79 -80 -83 0
-79 -81 -82 0
-79 -81 -83 0
-79 -82 -83 0
-80 -81 -82 0
-80 -81 -83 0
-80 -82 -83 0
-81 -82 -83 0
-51 55 69 79 80 81 82 83 0
-55 51 69 79 80 81 82 83 0
-69 51 55 79 80 81 82 83 0
-79 51 55 69 80 81 82 83 0
-80 51 55 69 79 81 82 83 0
-81 51 55 69 79 80 82 83 0
-82 51 55 69 79 80 81 83 0
-83 51 55 69 79 80 81 82 0
-4 -56 -60 0
-4 -56 -74 0
-4 -56 -84 0
-4 -56 -85 0
-4 -56 -86 0
-4 -56 -87 0
-4 -60 -74 0
-4 -60 -84 0
-4 -60 -85 0
-4 -60 -86 0
-4 -60 -87 0
-4 -74 -84 0
-4 -74 -85 0
-4 -74 -86 0
-4 -74 -87 0
-4 -84 -85 0
-4 -84 -86 0
-4 -84 -87 0
-4 -85 -86 0
-4 -85 -87 0
-4 -86 -87 0
-56 -60 -74 0
-56 -60 -84 0
-56 -60 -85 0
-56 -60 -86 0
-56 -60 -87 0
-56 -74 -84 0
-56 -74 -85 0
-56 -74 -86 0
-56 -74 -87 0
-56 -84 -85 0
-56 -84 -86 0
-56 -84 -87 0
-56 -85 -86 0
-56 -85 -87 0
-56 -86 -87 0
-60 -74 -84 0
-60 -74 -85 0
-60 -74 -86 0
-60 -74 -87 0
-60 -84 -85 0
-60 -84 -86 0
-60 -84 -87 0
-60 -85 -86 0
-60 -85 -87 0
-60 -86 -87 0
-74 -84 -85 0
-74 -84 -86 0
-74 -84 -87 0
-74 -85 -86 0
-74 -85 -87 0
-74 -86 -87 0
-84 -85 -86 0
-84 -85 -87 0
-84 -86 -87 0
-85 -86 -87 0
-4 56 60 74 84 85 86 87 0
-56 4 60 74 84 85 86 87 0
-60 4 56 74 84 85 86 87 0
-74 4 56 60 84 85 86 87 0
-84 4 56 60 74 85 86 87 0
-85 4 56 60 74 84 86 87 0
-86 4 56 60 74 84 85 87 0
-87 4 56 60 74 84 85 86 0
-5 -12 -61 0
-5 -12 -65 0
-5 -12 -79 0
-5 -12 -88 0
-5 -12 -89 0
-5 -12 -90 0
-5 -61 -65 0
-5 -61 -79 0
-5 -61 -88 0
-5 -61 -89 0
-5 -61 -90 0
-5 -65 -79 0
-5 -65 -88 0
-5 -65 -89 0
-5 -65 -90 0
-5 -79 -88 0
-5 -79 -89 0
-5 -79 -90 0
-5 -88 -89 0
-5 -88 -90 0
-5 -89 -90 0
-12 -61 -65 0
-12 -61 -79 0
-12 -61 -88 0
-12 -61 -89 0
-12 -61 -90 0
-12 -65 -79 0
-12 -65 -88 0
-12 -65 -89 0
-12 -65 -90 0
-12 -79 -88 0
-12 -79 -89 0
-12 -79 -90 0
-12 -88 -89 0
-12 -88 -90 0
-12 -89 -90 0
-61 -65 -79 0
-61 -65 -88 0
-61 -65 -89 0
-61 -65 -90 0
-61 -79 -88 0
-61 -79 -89 0
-61 -79 -90 0
-61 -88 -89 0
-61 -88 -90 0
-61 -89 -90 0
-65 -79 -88 0
-65 -79 -89 0
-65 -79 -90 0
-65 -88 -89 0
-65 -88 -90 0
-65 -89 -90 0
-79 -88 -89 0
-79 -88 -90 0
-79 -89 -90 0
-88 -89 -90 0
-5 12 61 65 79 88 89 90 0
-12 5 61 65 79 88 89 90 0
-61 5 12 65 79 88 89 90 0
-65 5 12 61 79 88 89 90 0
-79 5 12 61 65 88 89 90 0
-88 5 12 61 65 79 89 90 0
-89 5 12 61 65 79 88 90 0
-90 5 12 61 65 79 88 89 0
-13 -20 -66 0
-13 -20 -70 0
-13 -20 -84 0
-13 -20 -91 0
-13 -20 -92 0
-13 -20 -93 0
-13 -66 -70 0
-13 -66 -84 0
-13 -66 -91 0
-13 -66 -92 0
-13 -66 -93 0
-13 -70 -84 0
-13 -70 -91 0
-13 -70 -92 0
-13 -70 -93 0
-13 -84 -91 0
-13 -84 -92 0
-13 -84 -93 0
-13 -91 -92 0
-13 -91 -93 0
-13 -92 -93 0
-20 -66 -70 0
-20 -66 -84 0
-20 -66 -91 0
-20 -66 -92 0
-20 -66 -93 0
-20 -70 -84 0
-20 -70 -91 0
-20 -70 -92 0
-20 -70 -93 0
-20 -84 -91 0
-20 -84 -92 0
-20 -84 -93 0
-20 -91 -92 0
-20 -91 -93 0
-20 -92 -93 0
-66 -70 -84 0
-66 -70 -91 0
-66 -70 -92 0
-66 -70 -93 0
-66 -84 -91 0
-66 -84 -92 0
-66 -84 -93 0
-66 -91 -92 0
-66 -91 -93 0
-66 -92 -93 0
-70 -84 -91 0
-70 -84 -92 0
-70 -84 -93 0
-70 -91 -92 0
-70 -91 -93 0
-70 -92 -93 0
-84 -91 -92 0
-84 -91 -93 0
-84 -92 -93 0
-91 -92 -93 0
-13 20 66 70 84 91 92 93 0
-20 13 66 70 84 91 92 93 0
-66 13 20 70 84 91 92 93 0
-70 13 20 66 84 91 92 93 0
-84 13 20 66 70 91 92 93 0
-91 13 20 66 70 84 92 93 0
-92 13 20 66 70 84 91 93 0
-93 13 20 66 70 84 91 92 0
-21 -27 -71 0
-21 -27 -75 0
-21 -27 -88 0
-21 -27 -94 0
-21 -27 -95 0
-21 -27 -96 0
-21 -71 -75 0
-21 -71 -88 0
-21 -71 -94 0
-21 -71 -95 0
-21 -71 -96 0
-21 -75 -88 0
-21 -75 -94 0
-21 -75 -95 0
-21 -75 -96 0
-21 -88 -94 0
-21 -88 -95 0
-21 -88 -96 0
-21 -94 -95 0
-21 -94 -96 0
-21 -95 -96 0
-27 -71 -75 0
-27 -71 -88 0
-27 -71 -94 0
-27 -71 -95 0
-27 -71 -96 0
-27 -75 -88 0
-27 -75 -94 0
-27 -75 -95 0
-27 -75 -96 0
-27 -88 -94 0
-27 -88 -95 0
-27 -88 -96 0
-27 -94 -95 0
-27 -94 -96 0
-27 -95 -96 0
-71 -75 -88 0
-71 -75 -94 0
-71 -75 -95 0
-71 -75 -96 0
-71 -88 -94 0
-71 -88 -95 0
-71 -88 -96 0
-71 -94 -95 0
-71 -94 -96 0
-71 -95 -96 0
-75 -88 -94 0
-75 -88 -95 0
-75 -88 -96 0
-75 -94 -95 0
-75 -94 -96 0
-75 -95 -96 0
-88 -94 -95 0
-88 -94 -96 0
-88 -95 -96 0
-94 -95 -96 0
-21 27 71 75 88 94 95 96 0
-27 21 71 75 88 94 95 96 0
-71 21 27 75 88 94 95 96 0
-75 21 27 71 88 94 95 96 0
-88 21 27 71 75 94 95 96 0
-94 21 27 71 75 88 95 96 0
-95 21 27 71 75 88 94 96 0
-96 21 27 71 75 88 94 95 0
-28 -34 -76 0
-28 -34 -80 0
-28 -34 -91 0
-28 -34 -97 0
-28 -34 -98 0
-28 -34 -99 0
-28 -76 -80 0
-28 -76 -91 0
-28 -76 -97 0
-28 -76 -98 0
-28 -76 -99 0
-28 -80 -91 0
-28 -80 -97 0
-28 -80 -98 0
-28 -80 -99 0
-28 -91 -97 0
-28 -91 -98 0
-28 -91 -99 0
-28 -97 -98 0
-28 -97 -99 0
-28 -98 -99 0
-34 -76 -80 0
-34 -76 -91 0
-34 -76 -97 0
-34 -76 -98 0
-34 -76 -99 0
-34 -80 -91 0
-34 -80 -97 0
-34 -80 -98 0
-34 -80 -99 0
-34 -91 -97 0
-34 -91 -98 0
-34 -91 -99 0
-34 -97 -98 0
-34 -97 -99 0
-34 -98 -99 0
-76 -80 -91 0
-76 -80 -97 0
-76 -80 -98 0
-76 -80 -99 0
-76 -91 -97 0
-76 -91 -98 0
-76 -91 -99 0
-76 -97 -98 0
-76 -97 -99 0
-76 -98 -99 0
-80 -91 -97 0
-80 -91 -98 0
-80 -91 -99 0
-80 -97 -98 0
-80 -97 -99 0
-80 -98 -99 0
-91 -97 -98 0
-91 -97 -99 0
-91 -98 -99 0
-97 -98 -99 0
-28 34 76 80 91 97 98 99 0
-34 28 76 80 91 97 98 99 0
-76 28 34 80 91 97 98 99 0
-80 28 34 76 91 97 98 99 0
-91 28 34 76 80 97 98 99 0
-97 28 34 76 80 91 98 99 0
-98 28 34 76 80 91 97 99 0
-99 28 34 76 80 91 97 98 0
-35 -41 -81 0
-35 -41 -85 0
-35 -41 -94 0
-35 -41 -100 0
-35 -41 -101 0
-35 -41 -102 0
-35 -81 -85 0
-35 -81 -94 0
-35 -81 -100 0
-35 -81 -101 0
-35 -81 -102 0
-35 -85 -94 0
-35 -85 -100 0
-35 -85 -101 0
-35 -85 -102 0
-35 -94 -100 0
-35 -94 -101 0
-35 -94 -102 0
-35 -100 -101 0
-35 -100 -102 0
-35 -101 -102 0
-41 -81 -85 0
-41 -81 -94 0
-41 -81 -100 0
-41 -81 -101 0
-41 -81 -102 0
-41 -85 -94 0
-41 -85 -100 0
-41 -85 -101 0
-41 -85 -102 0
-41 -94 -100 0
-41 -94 -101 0
-41 -94 -102 0
-41 -100 -101 0
-41 -100 -102 0
-41 -101 -102 0
-81 -85 -94 0
-81 -85 -100 0
-81 -85 -101 0
-81 -85 -102 0
-81 -94 -100 0
-81 -94 -101 0
-81 -94 -102 0
-81 -100 -101 0
-81 -100 -102 0
-81 -101 -102 0
-85 -94 -100 0
-85 -94 -101 0
-85 -94 -102 0
-85 -100 -101 0
-85 -100 -102 0
-85 -101 -102 0
-94 -100 -101 0
-94 -100 -102 0
-94 -101 -102 0
-100 -101 -102 0
-35 41 81 85 94 100 101 102 0
-41 35 81 85 94 100 101 102 0
-81 35 41 85 94 100 101 102 0
-85 35 41 81 94 100 101 102 0
-94 35 41 81 85 100 101 102 0
-100 35 41 81 85 94 101 102 0
-101 35 41 81 85 94 100 102 0
-102 35 41 81 85 94 100 101 0
-42 -47 -86 0
-42 -47 -89 0
-42 -47 -97 0
-42 -47 -103 0
-42 -47 -104 0
-42 -47 -105 0
-42 -86 -89 0
-42 -86 -97 0
-42 -86 -103 0
-42 -86 -104 0
-42 -86 -105 0
-42 -89 -97 0
-42 -89 -103 0
-42 -89 -104 0
-42 -89 -105 0
-42 -97 -103 0
-42 -97 -104 0
-42 -97 -105 0
-42 -103 -104 0
-42 -103 -105 0
-42 -104 -105 0
-47 -86 -89 0
-47 -86 -97 0
-47 -86 -103 0
-47 -86 -104 0
-47 -86 -105 0
-47 -89 -97 0
-47 -89 -103 0
-47 -89 -104 0
-47 -89 -105 0
-47 -97 -103 0
-47 -97 -104 0
-47 -97 -105 0
-47 -103 -104 0
-47 -103 -105 0
-47 -104 -105 0
-86 -89 -97 0
-86 -89 -103 0
-86 -89 -104 0
-86 -89 -105 0
-86 -97 -103 0
-86 -97 -104 0
-86 -97 -105 0
-86 -103 -104 0
-86 -103 -105 0
-86 -104 -105 0
-89 -97 -103 0
-89 -97 -104 0
-89 -97 -105 0
-89 -103 -104 0
-89 -103 -105 0
-89 -104 -105 0
-97 -103 -104 0
-97 -103 -105 0
-97 -104 -105 0
-103 -104 -105 0
-42 47 86 89 97 103 104 105 0
-47 42 86 89 97 103 104 105 0
-86 42 47 89 97 103 104 105 0
-89 42 47 86 97 103 104 105 0
-97 42 47 86 89 103 104 105 0
-103 42 47 86 89 97 104 105 0
-104 42 47 86 89 97 103 105 0
-105 42 47 86 89 97 103 104 0
-48 -52 -90 0
-48 -52 -92 0
-48 -52 -100 0
-48 -52 -106 0
-48 -52 -107 0
-48 -52 -108 0
-48 -90 -92 0
-48 -90 -100 0
-48 -90 -106 0
-48 -90 -107 0
-48 -90 -108 0
-48 -92 -100 0
-48 -92 -106 0
-48 -92 -107 0
-48 -92 -108 0
-48 -100 -106 0
-48 -100 -107 0
-48 -100 -108 0
-48 -106 -107 0
-48 -106 -108 0
-48 -107 -108 0
-52 -90 -92 0
-52 -90 -100 0
-52 -90 -106 0
-52 -90 -107 0
-52 -90 -108 0
-52 -92 -100 0
-52 -92 -106 0
-52 -92 -107 0
-52 -92 -108 0
-52 -100 -106 0
-52 -100 -107 0
-52 -100 -108 0
-52 -106 -107 0
-52 -106 -108 0
-52 -107 -108 0
-90 -92 -100 0
-90 -92 -106 0
-90 -92 -107 0
-90 -92 -108 0
-90 -100 -106 0
-90 -100 -107 0
-90 -100 -108 0
-90 -106 -107 0
-90 -106 -108 0
-90 -107 -108 0
-92 -100 -106 0
-92 -100 -107 0
-92 -100 -108 0
-92 -106 -107 0
-92 -106 -108 0
-92 -107 -108 0
-100 -106 -107 0
-100 -106 -108 0
-100 -107 -108 0
-106 -107 -108 0
-48 52 90 92 100 106 107 108 0
-52 48 90 92 100 106 107 108 0
-90 48 52 92 100 106 107 108 0
-92 48 52 90 100 106 107 108 0
-100 48 52 90 92 106 107 108 0
-106 48 52 90 92 100 107 108 0
-107 48 52 90 92 100 106 108 0
-108 48 52 90 92 100 106 107 0
-53 -57 -93 0
-53 -57 -95 0
-53 -57 -103 0
-53 -57 -109 0
-53 -57 -110 0
-53 -57 -111 0
-53 -93 -95 0
-53 -93 -103 0
-53 -93 -109 0
-53 -93 -110 0
-53 -93 -111 0
-53 -95 -103 0
-53 -95 -109 0
-53 -95 -110 0
-53 -95 -111 0
-53 -103 -109 0
-53 -103 -110 0
-53 -103 -111 0
-53 -109 -110 0
-53 -109 -111 0
-53 -110 -111 0
-57 -93 -95 0
-57 -93 -103 0
-57 -93 -109 0
-57 -93 -110 0
-57 -93 -111 0
-57 -95 -103 0
-57 -95 -109 0
-57 -95 -110 0
-57 -95 -111 0
-57 -103 -109 0
-57 -103 -110 0
-57 -103 -111 0
-57 -109 -110 0
-57 -109 -111 0
-57 -110 -111 0
-93 -95 -103 0
-93 -95 -109 0
-93 -95 -110 0
-93 -95 -111 0
-93 -103 -109 0
-93 -103 -110 0
-93 -103 -111 0
-93 -109 -110 0
-93 -109 -111 0
-93 -110 -111 0
-95 -103 -109 0
-95 -103 -110 0
-95 -103 -111 0
-95 -109 -110 0
-95 -109 -111 0
-95 -110 -111 0
-103 -109 -110 0
-103 -109 -111 0
-103 -110 -111 0
-109 -110 -111 0
-53 57 93 95 103 109 110 111 0
-57 53 93 95 103 109 110 111 0
-93 53 57 95 103 109 110 111 0
-95 53 57 93 103 109 110 111 0
-103 53 57 93 95 109 110 111 0
-109 53 57 93 95 103 110 111 0
-110 53 57 93 95 103 109 111 0
-111 53 57 93 95 103 109 110 0
-6 -58 -62 0
-6 -58 -96 0
-6 -58 -98 0
-6 -58 -106 0
-6 -58 -112 0
-6 -58 -113 0
-6 -62 -96 0
-6 -62 -98 0
-6 -62 -106 0
-6 -62 -112 0
-6 -62 -113 0
-6 -96 -98 0
-6 -96 -106 0
-6 -96 -112 0
-6 -96 -113 0
-6 -98 -106 0
-6 -98 -112 0
-6 -98 -113 0
-6 -106 -112 0
-6 -106 -113 0
-6 -112 -113 0
-58 -62 -96 0
-58 -62 -98 0
-58 -62 -106 0
-58 -62 -112 0
-58 -62 -113 0
-58 -96 -98 0
-58 -96 -106 0
-58 -96 -112 0
-58 -96 -113 0
-58 -98 -106 0
-58 -98 -112 0
-58 -98 -113 0
-58 -106 -112 0
-58 -106 -113 0
-58 -112 -113 0
-62 -96 -98 0
-62 -96 -106 0
-62 -96 -112 0
-62 -96 -113 0
-62 -98 -106 0
-62 -98 -112 0
-62 -98 -113 0
-62 -106 -112 0
-62 -106 -113 0
-62 -112 -113 0
-96 -98 -106 0
-96 -98 -112 0
-96 -98 -113 0
-96 -106 -112 0
-96 -106 -113 0
-96 -112 -113 0
-98 -106 -112 0
-98 -106 -113 0
-98 -112 -113 0
-106 -112 -113 0
-6 58 62 96 98 106 112 113 0
-58 6 62 96 98 106 112 113 0
-62 6 58 96 98 106 112 113 0
-96 6 58 62 98 106 112 113 0
-98 6 58 62 96 106 112 113 0
-106 6 58 62 96 98 112 113 0
-112 6 58 62 96 98 106 113 0
-113 6 58 62 96 98 106 112 0
-7 -14 -63 0
-7 -14 -67 0
-7 -14 -99 0
-7 -14 -101 0
-7 -14 -109 0
-7 -14 -114 0
-7 -63 -67 0
-7 -63 -99 0
-7 -63 -101 0
-7 -63 -109 0
-7 -63 -114 0
-7 -67 -99 0
-7 -67 -101 0
-7 -67 -109 0
-7 -67 -114 0
-7 -99 -101 0
-7 -99 -109 0
-7 -99 -114 0
-7 -101 -109 0
-7 -101 -114 0
-7 -109 -114 0
-14 -63 -67 0
-14 -63 -99 0
-14 -63 -101 0
-14 -63 -109 0
-14 -63 -114 0
-14 -67 -99 0
-14 -67 -101 0
-14 -67 -109 0
-14 -67 -114 0
-14 -99 -101 0
-14 -99 -109 0
-14 -99 -114 0
-14 -101 -109 0
-14 -101 -114 0
-14 -109 -114 0
-63 -67 -99 0
-63 -67 -101 0
-63 -67 -109 0
-63 -67 -114 0
-63 -99 -101 0
-63 -99 -109 0
-63 -99 -114 0
-63 -101 -109 0
-63 -101 -114 0
-63 -109 -114 0
-67 -99 -101 0
-67 -99 -109 0
-67 -99 -114 0
-67 -101 -109 0
-67 -101 -114 0
-67 -109 -114 0
-99 -101 -109 0
-99 -101 -114 0
-99 -109 -114 0
-101 -109 -114 0
-7 14 63 67 99 101 109 114 0
-14 7 63 67 99 101 109 114 0
-63 7 14 67 99 101 109 114 0
-67 7 14 63 99 101 109 114 0
-99 7 14 63 67 101 109 114 0
-101 7 14 63 67 99 109 114 0
-109 7 14 63 67 99 101 114 0
-114 7 14 63 67 99 101 109 0
-15 -22 -68 0
-15 -22 -72 0
-15 -22 -102 0
-15 -22 -104 0
-15 -22 -112 0
-15 -22 -115 0
-15 -68 -72 0
-15 -68 -102 0
-15 -68 -104 0
-15 -68 -112 0
-15 -68 -115 0
-15 -72 -102 0
-15 -72 -104 0
-15 -72 -112 0
-15 -72 -115 0
-15 -102 -104 0
-15 -102 -112 0
-15 -102 -115 0
-15 -104 -112 0
-15 -104 -115 0
-15 -112 -115 0
-22 -68 -72 0
-22 -68 -102 0
-22 -68 -104 0
-22 -68 -112 0
-22 -68 -115 0
-22 -72 -102 0
-22 -72 -104 0
-22 -72 -112 0
-22 -72 -115 0
-22 -102 -104 0
-22 -102 -112 0
-22 -102 -115 0
-22 -104 -112 0
-22 -104 -115 0
-22 -112 -115 0
-68 -72 -102 0
-68 -72 -104 0
-68 -72 -112 0
-68 -72 -115 0
-68 -102 -104 0
-68 -102 -112 0
-68 -102 -115 0
-68 -104 -112 0
-68 -104 -115 0
-68 -112 -115 0
-72 -102 -104 0
-72 -102 -112 0
-72 -102 -115 0
-72 -104 -112 0
-72 -104 -115 0
-72 -112 -115 0
-102 -104 -112 0
-102 -104 -115 0
-102 -112 -115 0
-104 -112 -115 0
-15 22 68 72 102 104 112 115 0
-22 15 68 72 102 104 112 115 0
-68 15 22 72 102 104 112 115 0
-72 15 22 68 102 104 112 115 0
-102 15 22 68 72 104 112 115 0
-104 15 22 68 72 102 112 115 0
-112 15 22 68 72 102 104 115 0
-115 15 22 68 72 102 104 112 0
-23 -29 -73 0
-23 -29 -77 0
-23 -29 -105 0
-23 -29 -107 0
-23 -29 -114 0
-23 -29 -116 0
-23 -73 -77 0
-23 -73 -105 0
-23 -73 -107 0
-23 -73 -114 0
-23 -73 -116 0
-23 -77 -105 0
-23 -77 -107 0
-23 -77 -114 0
-23 -77 -116 0
-23 -105 -107 0
-23 -105 -114 0
-23 -105 -116 0
-23 -107 -114 0
-23 -107 -116 0
-23 -114 -116 0
-29 -73 -77 0
-29 -73 -105 0
-29 -73 -107 0
-29 -73 -114 0
-29 -73 -116 0
-29 -77 -105 0
-29 -77 -107 0
-29 -77 -114 0
-29 -77 -116 0
-29 -105 -107 0
-29 -105 -114 0
-29 -105 -116 0
-29 -107 -114 0
-29 -107 -116 0
-29 -114 -116 0
-73 -77 -105 0
-73 -77 -107 0
-73 -77 -114 0
-73 -77 -116 0
-73 -105 -107 0
-73 -105 -114 0
-73 -105 -116 0
-73 -107 -114 0
-73 -107 -116 0
-73 -114 -116 0
-77 -105 -107 0
-77 -105 -114 0
-77 -105 -116 0
-77 -107 -114 0
-77 -107 -116 0
-77 -114 -116 0
-105 -107 -114 0
-105 -107 -116 0
-105 -114 -116 0
-107 -114 -116 0
-23 29 73 77 105 107 114 116 0
-29 23 73 77 105 107 114 116 0
-73 23 29 77 105 107 114 116 0
-77 23 29 73 105 107 114 116 0
-105 23 29 73 77 107 114 116 0
-107 23 29 73 77 105 114 116 0
-114 23 29 73 77 105 107 116 0
-116 23 29 73 77 105 107 114 0
-8 -30 -36 0
-8 -30 -78 0
-8 -30 -82 0
-8 -30 -108 0
-8 -30 -110 0
-8 -30 -115 0
-8 -36 -78 0
-8 -36 -82 0
-8 -36 -108 0
-8 -36 -110 0
-8 -36 -115 0
-8 -78 -82 0
-8 -78 -108 0
-8 -78 -110 0
-8 -78 -115 0
-8 -82 -108 0
-8 -82 -110 0
-8 -82 -115 0
-8 -108 -110 0
-8 -108 -115 0
-8 -110 -115 0
-30 -36 -78 0
-30 -36 -82 0
-30 -36 -108 0
-30 -36 -110 0
-30 -36 -115 0
-30 -78 -82 0
-30 -78 -108 0
-30 -78 -110 0
-30 -78 -115 0
-30 -82 -108 0
-30 -82 -110 0
-30 -82 -115 0
-30 -108 -110 0
-30 -108 -115 0
-30 -110 -115 0
-36 -78 -82 0
-36 -78 -108 0
-36 -78 -110 0
-36 -78 -115 0
-36 -82 -108 0
-36 -82 -110 0
-36 -82 -115 0
-36 -108 -110 0
-36 -108 -115 0
-36 -110 -115 0
-78 -82 -108 0
-78 -82 -110 0
-78 -82 -115 0
-78 -108 -110 0
-78 -108 -115 0
-78 -110 -115 0
-82 -108 -110 0
-82 -108 -115 0
-82 -110 -115 0
-108 -110 -115 0
-8 30 36 78 82 108 110 115 0
-30 8 36 78 82 108 110 115 0
-36 8 30 78 82 108 110 115 0
-78 8 30 36 82 108 110 115 0
-82 8 30 36 78 108 110 115 0
-108 8 30 36 78 82 110 115 0
-110 8 30 36 78 82 108 115 0
-115 8 30 36 78 82 108 110 0
-16 -37 -43 0
-16 -37 -83 0
-16 -37 -87 0
-16 -37 -111 0
-16 -37 -113 0
-16 -37 -116 0
-16 -43 -83 0
-16 -43 -87 0
-16 -43 -111 0
-16 -43 -113 0
-16 -43 -116 0
-16 -83 -87 0
-16 -83 -111 0
-16 -83 -113 0
-16 -83 -116 0
-16 -87 -111 0
-16 -87 -113 0
-16 -87 -116 0
-16 -111 -113 0
-16 -111 -116 0
-16 -113 -116 0
-37 -43 -83 0
-37 -43 -87 0
-37 -43 -111 0
-37 -43 -113 0
-37 -43 -116 0
-37 -83 -87 0
-37 -83 -111 0
-37 -83 -113 0
-37 -83 -116 0
-37 -87 -111 0
-37 -87 -113 0
-37 -87 -116 0
-37 -111 -113 0
-37 -111 -116 0
-37 -113 -116 0
-43 -83 -87 0
-43 -83 -111 0
-43 -83 -113 0
-43 -83 -116 0
-43 -87 -111 0
-43 -87 -113 0
-43 -87 -116 0
-43 -111 -113 0
-43 -111 -116 0
-43 -113 -116 0
-83 -87 -111 0
-83 -87 -113 0
-83 -87 -116 0
-83 -111 -113 0
-83 -111 -116 0
-83 -113 -116 0
-87 -111 -113 0
-87 -111 -116 0
-87 -113 -116 0
-111 -113 -116 0
-16 37 43 83 87 111 113 116 0
-37 16 43 83 87 111 113 116 0
-43 16 37 83 87 111 113 116 0
-83 16 37 43 87 111 113 116 0
-87 16 37 43 83 111 113 116 0
-111 16 37 43 83 87 113 116 0
-113 16 37 43 83 87 111 116 0
-116 16 37 43 83 87 111 113 0
-1 233 0
-1 235 0
-2 233 0
-2 238 0
-3 233 0
-3 239 0
-4 233 0
-4 247 0
-5 233 0
-5 248 0
-6 233 0
-6 256 0
-7 233 0
-7 257 0
-8 233 0
-8 260 0
-9 234 0
-9 236 0
-10 234 0
-10 239 0
-11 234 0
-11 240 0
-12 234 0
-12 248 0
-13 234 0
-13 249 0
-14 234 0
-14 257 0
-15 234 0
-15 258 0
-16 234 0
-16 261 0
-17 235 0
-17 237 0
-18 235 0
-18 240 0
-19 235 0
-19 241 0
-20 235 0
-20 249 0
-21 235 0
-21 250 0
-22 235 0
-22 258 0
-23 235 0
-23 259 0
-24 236 0
-24 238 0
-25 236 0
-25 241 0
-26 236 0
-26 242 0
-27 236 0
-27 250 0
-28 236 0
-28 251 0
-29 236 0
-29 259 0
-30 236 0
-30 260 0
-31 237 0
-31 239 0
-32 237 0
-32 242 0
-33 237 0
-33 243 0
-34 237 0
-34 251 0
-35 237 0
-35 252 0
-36 237 0
-36 260 0
-37 237 0
-37 261 0
-38 238 0
-38 240 0
-39 238 0
-39 243 0
-40 238 0
-40 244 0
-41 238 0
-41 252 0
-42 238 0
-42 253 0
-43 238 0
-43 261 0
-44 239 0
-44 241 0
-45 239 0
-45 244 0
-46 239 0
-46 245 0
-47 239 0
-47 253 0
-48 239 0
-48 254 0
-49 240 0
-49 242 0
-50 240 0
-50 245 0
-51 240 0
-51 246 0
-52 240 0
-52 254 0
-53 240 0
-53 255 0
-54 241 0
-54 243 0
-55 241 0
-55 246 0
-56 241 0
-56 247 0
-57 241 0
-57 255 0
-58 241 0
-58 256 0
-59 242 0
-59 244 0
-60 242 0
-60 247 0
-61 242 0
-61 248 0
-62 242 0
-62 256 0
-63 242 0
-63 257 0
-64 243 0
-64 245 0
-65 243 0
-65 248 0
-66 243 0
-66 249 0
-67 243 0
-67 257 0
-68 243 0
-68 258 0
-69 244 0
-69 246 0
-70 244 0
-70 249 0
-71 244 0
-71 250 0
-72 244 0
-72 258 0
-73 244 0
-73 259 0
-74 245 0
-74 247 0
-75 245 0
-75 250 0
-76 245 0
-76 251 0
-77 245 0
-77 259 0
-78 245 0
-78 260 0
-79 246 0
-79 248 0
-80 246 0
-80 251 0
-81 246 0
-81 252 0
-82 246 0
-82 260 0
-83 246 0
-83 261 0
-84 247 0
-84 249 0
-85 247 0
-85 252 0
-86 247 0
-86 253 0
-87 247 0
-87 261 0
-88 248 0
-88 250 0
-89 248 0
-89 253 0
-90 248 0
-90 254 0
-91 249 0
-91 251 0
-92 249 0
-92 254 0
-93 249 0
-93 255 0
-94 250 0
-94 252 0
-95 250 0
-95 255 0
-96 250 0
-96 256 0
-97 251 0
-97 253 0
-98 251 0
-98 256 0
-99 251 0
-99 257 0
-100 252 0
-100 254 0
-101 252 0
-101 257 0
-102 252 0
-102 258 0
-103 253 0
-103 255 0
-104 253 0
-104 258 0
-105 253 0
-105 259 0
-106 254 0
-106 256 0
-107 254 0
-107 259 0
-108 254 0
-108 260 0
-109 255 0
-109 257 0
-110 255 0
-110 260 0
-111 255 0
-111 261 0
-112 256 0
-112 258 0
-113 256 0
-113 261 0
-114 257 0
-114 259 0
-115 258 0
-115 260 0
-116 259 0
-116 261 0
-291 1 0
291 -1 0
-292 291 2 0
-292 -291 -2 0
292 -291 2 0
292 291 -2 0
-293 292 3 0
-293 -292 -3 0
293 -292 3 0
293 292 -3 0
-294 293 4 0
-294 -293 -4 0
294 -293 4 0
294 293 -4 0
-295 294 5 0
-295 -294 -5 0
295 -294 5 0
295 294 -5 0
-296 295 6 0
-296 -295 -6 0
296 -295 6 0
296 295 -6 0
-297 296 7 0
-297 -296 -7 0
297 -296 7 0
297 296 -7 0
-298 297 8 0
-298 -297 -8 0
298 -297 8 0
298 297 -8 0
-299 298 9 0
-299 -298 -9 0
299 -298 9 0
299 298 -9 0
-300 299 10 0
-300 -299 -10 0
300 -299 10 0
300 299 -10 0
-301 300 11 0
-301 -300 -11 0
301 -300 11 0
301 300 -11 0
-302 301 12 0
-302 -301 -12 0
302 -301 12 0
302 301 -12 0
-303 302 13 0
-303 -302 -13 0
303 -302 13 0
303 302 -13 0
-304 303 14 0
-304 -303 -14 0
304 -303 14 0
304 303 -14 0
-305 304 15 0
-305 -304 -15 0
305 -304 15 0
305 304 -15 0
-306 305 16 0
-306 -305 -16 0
306 -305 16 0
306 305 -16 0
-307 306 17 0
-307 -306 -17 0
307 -306 17 0
307 306 -17 0
-308 307 18 0
-308 -307 -18 0
308 -307 18 0
308 307 -18 0
-309 308 19 0
-309 -308 -19 0
309 -308 19 0
309 308 -19 0
-310 309 20 0
-310 -309 -20 0
310 -309 20 0
310 309 -20 0
-311 310 21 0
-311 -310 -21 0
311 -310 21 0
311 310 -21 0
-312 311 22 0
-312 -311 -22 0
312 -311 22 0
312 311 -22 0
-313 312 23 0
-313 -312 -23 0
313 -312 23 0
313 312 -23 0
-314 313 24 0
-314 -313 -24 0
314 -313 24 0
314 313 -24 0
-315 314 25 0
-315 -314 -25 0
315 -314 25 0
315 314 -25 0
-316 315 26 0
-316 -315 -26 0
316 -315 26 0
316 315 -26 0
-317 316 27 0
-317 -316 -27 0
317 -316 27 0
317 316 -27 0
-318 317 28 0
-318 -317 -28 0
318 -317 28 0
318 317 -28 0
-319 318 29 0
-319 -318 -29 0
319 -318 29 0
319 318 -29 0
-320 319 30 0
-320 -319 -30 0
320 -319 30 0
320 319 -30 0
-321 320 31 0
-321 -320 -31 0
321 -320 31 0
321 320 -31 0
-322 321 32 0
-322 -321 -32 0
322 -321 32 0
322 321 -32 0
-323 322 33 0
-323 -322 -33 0
323 -322 33 0
323 322 -33 0
-324 323 34 0
-324 -323 -34 0
324 -323 34 0
324 323 -34 0
-325 324 35 0
-325 -324 -35 0
325 -324 35 0
325 324 -35 0
-326 325 36 0
-326 -325 -36 0
326 -325 36 0
326 325 -36 0
-327 326 37 0
-327 -326 -37 0
327 -326 37 0
327 326 -37 0
-328 327 38 0
-328 -327 -38 0
328 -327 38 0
328 327 -38 0
-329 328 39 0
-329 -328 -39 0
329 -328 39 0
329 328 -39 0
-330 329 40 0
-330 -329 -40 0
330 -329 40 0
330 329 -40 0
-331 330 41 0
-331 -330 -41 0
331 -330 41 0
331 330 -41 0
-332 331 42 0
-332 -331 -42 0
332 -331 42 0
332 331 -42 0
-333 332 43 0
-333 -332 -43 0
333 -332 43 0
333 332 -43 0
-334 333 44 0
-334 -333 -44 0
334 -333 44 0
334 333 -44 0
-335 334 45 0
-335 -334 -45 0
335 -334 45 0
335 334 -45 0
-336 335 46 0
-336 -335 -46 0
336 -335 46 0
336 335 -46 0
-337 336 47 0
-337 -336 -47 0
337 -336 47 0
337 336 -47 0
-338 337 48 0
-338 -337 -48 0
338 -337 48 0
338 337 -48 0
-339 338 49 0
-339 -338 -49 0
339 -338 49 0
339 338 -49 0
-340 339 50 0
-340 -339 -50 0
340 -339 50 0
340 339 -50 0
-341 340 51 0
-341 -340 -51 0
341 -340 51 0
341 340 -51 0
-342 341 52 0
-342 -341 -52 0
342 -341 52 0
342 341 -52 0
-343 342 53 0
-343 -342 -53 0
343 -342 53 0
343 342 -53 0
-344 343 54 0
-344 -343 -54 0
344 -343 54 0
344 343 -54 0
-345 344 55 0
-345 -344 -55 0
345 -344 55 0
345 344 -55 0
-346 345 56 0
-346 -345 -56 0
346 -345 56 0
346 345 -56 0
-347 346 57 0
-347 -346 -57 0
347 -346 57 0
347 346 -57 0
-348 347 58 0
-348 -347 -58 0
348 -347 58 0
348 347 -58 0
-349 348 59 0
-349 -348 -59 0
349 -348 59 0
349 348 -59 0
-350 349 60 0
-350 -349 -60 0
350 -349 60 0
350 349 -60 0
-351 350 61 0
-351 -350 -61 0
351 -350 61 0
351 350 -61 0
-352 351 62 0
-352 -351 -62 0
352 -351 62 0
352 351 -62 0
-353 352 63 0
-353 -352 -63 0
353 -352 63 0
353 352 -63 0
-354 353 64 0
-354 -353 -64 0
354 -353 64 0
354 353 -64 0
-355 354 65 0
-355 -354 -65 0
355 -354 65 0
355 354 -65 0
-356 355 66 0
-356 -355 -66 0
356 -355 66 0
356 355 -66 0
-357 356 67 0
-357 -356 -67 0
357 -356 67 0
357 356 -67 0
-358 357 68 0
-358 -357 -68 0
358 -357 68 0
358 357 -68 0
-359 358 69 0
-359 -358 -69 0
359 -358 69 0
359 358 -69 0
-360 359 70 0
-360 -359 -70 0
360 -359 70 0
360 359 -70 0
-361 360 71 0
-361 -360 -71 0
361 -360 71 0
361 360 -71 0
-362 361 72 0
-362 -361 -72 0
362 -361 72 0
362 361 -72 0
-363 362 73 0
-363 -362 -73 0
363 -362 73 0
363 362 -73 0
-364 363 74 0
-364 -363 -74 0
364 -363 74 0
364 363 -74 0
-365 364 75 0
-365 -364 -75 0
365 -364 75 0
365 364 -75 0
-366 365 76 0
-366 -365 -76 0
366 -365 76 0
366 365 -76 0
-367 366 77 0
-367 -366 -77 0
367 -366 77 0
367 366 -77 0
-368 367 78 0
-368 -367 -78 0
368 -367 78 0
368 367 -78 0
-369 368 79 0
-369 -368 -79 0
369 -368 79 0
369 368 -79 0
-370 369 80 0
-370 -369 -80 0
370 -369 80 0
370 369 -80 0
-371 370 81 0
-371 -370 -81 0
371 -370 81 0
371 370 -81 0
-372 371 82 0
-372 -371 -82 0
372 -371 82 0
372 371 -82 0
-373 372 83 0
-373 -372 -83 0
373 -372 83 0
373 372 -83 0
-374 373 84 0
-374 -373 -84 0
374 -373 84 0
374 373 -84 0
-375 374 85 0
-375 -374 -85 0
375 -374 85 0
375 374 -85 0
-376 375 86 0
-376 -375 -86 0
376 -375 86 0
376 375 -86 0
-377 376 87 0
-377 -376 -87 0
377 -376 87 0
377 376 -87 0
-378 377 88 0
-378 -377 -88 0
378 -377 88 0
378 377 -88 0
-379 378 89 0
-379 -378 -89 0
379 -378 89 0
379 378 -89 0
-380 379 90 0
-380 -379 -90 0
380 -379 90 0
380 379 -90 0
-381 380 91 0
-381 -380 -91 0
381 -380 91 0
381 380 -91 0
-382 381 92 0
-382 -381 -92 0
382 -381 92 0
382 381 -92 0
-383 382 93 0
-383 -382 -93 0
383 -382 93 0
383 382 -93 0
-384 383 94 0
-384 -383 -94 0
384 -383 94 0
384 383 -94 0
-385 384 95 0
-385 -384 -95 0
385 -384 95 0
385 384 -95 0
-386 385 96 0
-386 -385 -96 0
386 -385 96 0
386 385 -96 0
-387 386 97 0
-387 -386 -97 0
387 -386 97 0
387 386 -97 0
-388 387 98 0
-388 -387 -98 0
388 -387 98 0
388 387 -98 0
-389 388 99 0
-389 -388 -99 0
389 -388 99 0
389 388 -99 0
-390 389 100 0
-390 -389 -100 0
390 -389 100 0
390 389 -100 0
-391 390 101 0
-391 -390 -101 0
391 -390 101 0
391 390 -101 0
-392 391 102 0
-392 -391 -102 0
392 -391 102 0
392 391 -102 0
-393 392 103 0
-393 -392 -103 0
393 -392 103 0
393 392 -103 0
-394 393 104 0
-394 -393 -104 0
394 -393 104 0
394 393 -104 0
-395 394 105 0
-395 -394 -105 0
395 -394 105 0
395 394 -105 0
-396 395 106 0
-396 -395 -106 0
396 -395 106 0
396 395 -106 0
-397 396 107 0
-397 -396 -107 0
397 -396 107 0
397 396 -107 0
-398 397 108 0
-398 -397 -108 0
398 -397 108 0
398 397 -108 0
-399 398 109 0
-399 -398 -109 0
399 -398 109 0
399 398 -109 0
-400 399 110 0
-400 -399 -110 0
400 -399 110 0
400 399 -110 0
-401 400 111 0
-401 -400 -111 0
401 -400 111 0
401 400 -111 0
-402 401 112 0
-402 -401 -112 0
402 -401 112 0
402 401 -112 0
-403 402 113 0
-403 -402 -113 0
403 -402 113 0
403 402 -113 0
-404 403 114 0
-404 -403 -114 0
404 -403 114 0
404 403 -114 0
-405 404 115 0
-405 -404 -115 0
405 -404 115 0
405 404 -115 0
-406 405 116 0
-406 -405 -116 0
406 -405 116 0
406 405 -116 0
406 0
-117 -118 -119 0
-117 -118 -120 0
-117 -118 -121 0
-117 -118 -122 0
-117 -118 -123 0
-117 -118 -124 0
-117 -119 -120 0
-117 -119 -121 0
-117 -119 -122 0
-117 -119 -123 0
-117 -119 -124 0
-117 -120 -121 0
-117 -120 -122 0
-117 -120 -123 0
-117 -120 -124 0
-117 -121 -122 0
-117 -121 -123 0
-117 -121 -124 0
-117 -122 -123 0
-117 -122 -124 0
-117 -123 -124 0
-118 -119 -120 0
-118 -119 -121 0
-118 -119 -122 0
-118 -119 -123 0
-118 -119 -124 0
-118 -120 -121 0
-118 -120 -122 0
-118 -120 -123 0
-118 -120 -124 0
-118 -121 -122 0
-118 -121 -123 0
-118 -121 -124 0
-118 -122 -123 0
-118 -122 -124 0
-118 -123 -124 0
-119 -120 -121 0
-119 -120 -122 0
-119 -120 -123 0
-119 -120 -124 0
-119 -121 -122 0
-119 -121 -123 0
-119 -121 -124 0
-119 -122 -123 0
-119 -122 -124 0
-119 -123 -124 0
-120 -121 -122 0
-120 -121 -123 0
-120 -121 -124 0
-120 -122 -123 0
-120 -122 -124 0
-120 -123 -124 0
-121 -122 -123 0
-121 -122 -124 0
-121 -123 -124 0
-122 -123 -124 0
-117 118 119 120 121 122 123 124 0
-118 117 119 120 121 122 123 124 0
-119 117 118 120 121 122 123 124 0
-120 117 118 119 121 122 123 124 0
-121 117 118 119 120 122 123 124 0
-122 117 118 119 120 121 123 124 0
-123 117 118 119 120 121 122 124 0
-124 117 118 119 120 121 122 123 0
-125 -126 -127 0
-125 -126 -128 0
-125 -126 -129 0
-125 -126 -130 0
-125 -126 -131 0
-125 -126 -132 0
-125 -127 -128 0
-125 -127 -129 0
-125 -127 -130 0
-125 -127 -131 0
-125 -127 -132 0
-125 -128 -129 0
-125 -128 -130 0
-125 -128 -131 0
-125 -128 -132 0
-125 -129 -130 0
-125 -129 -131 0
-125 -129 -132 0
-125 -130 -131 0
-125 -130 -132 0
-125 -131 -132 0
-126 -127 -128 0
-126 -127 -129 0
-126 -127 -130 0
-126 -127 -131 0
-126 -127 -132 0
-126 -128 -129 0
-126 -128 -130 0
-126 -128 -131 0
-126 -128 -132 0
-126 -129 -130 0
-126 -129 -131 0
-126 -129 -132 0
-126 -130 -131 0
-126 -130 -132 0
-126 -131 -132 0
-127 -128 -129 0
-127 -128 -130 0
-127 -128 -131 0
-127 -128 -132 0
-127 -129 -130 0
-127 -129 -131 0
-127 -129 -132 0
-127 -130 -131 0
-127 -130 -132 0
-127 -131 -132 0
-128 -129 -130 0
-128 -129 -131 0
-128 -129 -132 0
-128 -130 -131 0
-128 -130 -132 0
-128 -131 -132 0
-129 -130 -131 0
-129 -130 -132 0
-129 -131 -132 0
-130 -131 -132 0
-125 126 127 128 129 130 131 132 0
-126 125 127 128 129 130 131 132 0
-127 125 126 128 129 130 131 132 0
-128 125 126 127 129 130 131 132 0
-129 125 126 127 128 130 131 132 0
-130 125 126 127 128 129 131 132 0
-131 125 126 127 128 129 130 132 0
-132 125 126 127 128 129 130 131 0
-117 -133 -134 0
-117 -133 -135 0
-117 -133 -136 0
-117 -133 -137 0
-117 -133 -138 0
-117 -133 -139 0
-117 -134 -135 0
-117 -134 -136 0
-117 -134 -137 0
-117 -134 -138 0
-117 -134 -139 0
-117 -135 -136 0
-117 -135 -137 0
-117 -135 -138 0
-117 -135 -139 0
-117 -136 -137 0
-117 -136 -138 0
-117 -136 -139 0
-117 -137 -138 0
-117 -137 -139 0
-117 -138 -139 0
-133 -134 -135 0
-133 -134 -136 0
-133 -134 -137 0
-133 -134 -138 0
-133 -134 -139 0
-133 -135 -136 0
-133 -135 -137 0
-133 -135 -138 0
-133 -135 -139 0
-133 -136 -137 0
-133 -136 -138 0
-133 -136 -139 0
-133 -137 -138 0
-133 -137 -139 0
-133 -138 -139 0
-134 -135 -136 0
-134 -135 -137 0
-134 -135 -138 0
-134 -135 -139 0
-134 -136 -137 0
-134 -136 -138 0
-134 -136 -139 0
-134 -137 -138 0
-134 -137 -139 0
-134 -138 -139 0
-135 -136 -137 0
-135 -136 -138 0
-135 -136 -139 0
-135 -137 -138 0
-135 -137 -139 0
-135 -138 -139 0
-136 -137 -138 0
-136 -137 -139 0
-136 -138 -139 0
-137 -138 -139 0
-117 133 134 135 136 137 138 139 0
-133 117 134 135 136 137 138 139 0
-134 117 133 135 136 137 138 139 0
-135 117 133 134 136 137 138 139 0
-136 117 133 134 135 137 138 139 0
-137 117 133 134 135 136 138 139 0
-138 117 133 134 135 136 137 139 0
-139 117 133 134 135 136 137 138 0
-125 -140 -141 0
-125 -140 -142 0
-125 -140 -143 0
-125 -140 -144 0
-125 -140 -145 0
-125 -140 -146 0
-125 -141 -142 0
-125 -141 -143 0
-125 -141 -144 0
-125 -141 -145 0
-125 -141 -146 0
-125 -142 -143 0
-125 -142 -144 0
-125 -142 -145 0
-125 -142 -146 0
-125 -143 -144 0
-125 -143 -145 0
-125 -143 -146 0
-125 -144 -145 0
-125 -144 -146 0
-125 -145 -146 0
-140 -141 -142 0
-140 -141 -143 0
-140 -141 -144 0
-140 -141 -145 0
-140 -141 -146 0
-140 -142 -143 0
-140 -142 -144 0
-140 -142 -145 0
-140 -142 -146 0
-140 -143 -144 0
-140 -143 -145 0
-140 -143 -146 0
-140 -144 -145 0
-140 -144 -146 0
-140 -145 -146 0
-141 -142 -143 0
-141 -142 -144 0
-141 -142 -145 0
-141 -142 -146 0
-141 -143 -144 0
-141 -143 -145 0
-141 -143 -146 0
-141 -144 -145 0
-141 -144 -146 0
-141 -145 -146 0
-142 -143 -144 0
-142 -143 -145 0
-142 -143 -146 0
-142 -144 -145 0
-142 -144 -146 0
-142 -145 -146 0
-143 -144 -145 0
-143 -144 -146 0
-143 -145 -146 0
-144 -145 -146 0
-125 140 141 142 143 144 145 146 0
-140 125 141 142 143 144 145 146 0
-141 125 140 142 143 144 145 146 0
-142 125 140 141 143 144 145 146 0
-143 125 140 141 142 144 145 146 0
-144 125 140 141 142 143 145 146 0
-145 125 140 141 142 143 144 146 0
-146 125 140 141 142 143 144 145 0
-133 -147 -148 0
-133 -147 -149 0
-133 -147 -150 0
-133 -147 -151 0
-133 -147 -152 0
-133 -147 -153 0
-133 -148 -149 0
-133 -148 -150 0
-133 -148 -151 0
-133 -148 -152 0
-133 -148 -153 0
-133 -149 -150 0
-133 -149 -151 0
-133 -149 -152 0
-133 -149 -153 0
-133 -150 -151 0
-133 -150 -152 0
-133 -150 -153 0
-133 -151 -152 0
-133 -151 -153 0
-133 -152 -153 0
-147 -148 -149 0
-147 -148 -150 0
-147 -148 -151 0
-147 -148 -152 0
-147 -148 -153 0
-147 -149 -150 0
-147 -149 -151 0
-147 -149 -152 0
-147 -149 -153 0
-147 -150 -151 0
-147 -150 -152 0
-147 -150 -153 0
-147 -151 -152 0
-147 -151 -153 0
-147 -152 -153 0
-148 -149 -150 0
-148 -149 -151 0
-148 -149 -152 0
-148 -149 -153 0
-148 -150 -151 0
-148 -150 -152 0
-148 -150 -153 0
-148 -151 -152 0
-148 -151 -153 0
-148 -152 -153 0
-149 -150 -151 0
-149 -150 -152 0
-149 -150 -153 0
-149 -151 -152 0
-149 -151 -153 0
-149 -152 -153 0
-150 -151 -152 0
-150 -151 -153 0
-150 -152 -153 0
-151 -152 -153 0
-133 147 148 149 150 151 152 153 0
-147 133 148 149 150 151 152 153 0
-148 133 147 149 150 151 152 153 0
-149 133 147 148 150 151 152 153 0
-150 133 147 148 149 151 152 153 0
-151 133 147 148 149 150 152 153 0
-152 133 147 148 149 150 151 153 0
-153 133 147 148 149 150 151 152 0
-118 -140 -154 0
-118 -140 -155 0
-118 -140 -156 0
-118 -140 -157 0
-118 -140 -158 0
-118 -140 -159 0
-118 -154 -155 0
-118 -154 -156 0
-118 -154 -157 0
-118 -154 -158 0
-118 -154 -159 0
-118 -155 -156 0
-118 -155 -157 0
-118 -155 -158 0
-118 -155 -159 0
-118 -156 -157 0
-118 -156 -158 0
-118 -156 -159 0
-118 -157 -158 0
-118 -157 -159 0
-118 -158 -159 0
-140 -154 -155 0
-140 -154 -156 0
-140 -154 -157 0
-140 -154 -158 0
-140 -154 -159 0
-140 -155 -156 0
-140 -155 -157 0
-140 -155 -158 0
-140 -155 -159 0
-140 -156 -157 0
-140 -156 -158 0
-140 -156 -159 0
-140 -157 -158 0
-140 -157 -159 0
-140 -158 -159 0
-154 -155 -156 0
-154 -155 -157 0
-154 -155 -158 0
-154 -155 -159 0
-154 -156 -157 0
-154 -156 -158 0
-154 -156 -159 0
-154 -157 -158 0
-154 -157 -159 0
-154 -158 -159 0
-155 -156 -157 0
-155 -156 -158 0
-155 -156 -159 0
-155 -157 -158 0
-155 -157 -159 0
-155 -158 -159 0
-156 -157 -158 0
-156 -157 -159 0
-156 -158 -159 0
-157 -158 -159 0
-118 140 154 155 156 157 158 159 0
-140 118 154 155 156 157 158 159 0
-154 118 140 155 156 157 158 159 0
-155 118 140 154 156 157 158 159 0
-156 118 140 154 155 157 158 159 0
-157 118 140 154 155 156 158 159 0
-158 118 140 154 155 156 157 159 0
-159 118 140 154 155 156 157 158 0
-119 -126 -147 0
-119 -126 -160 0
-119 -126 -161 0
-119 -126 -162 0
-119 -126 -163 0
-119 -126 -164 0
-119 -147 -160 0
-119 -147 -161 0
-119 -147 -162 0
-119 -147 -163 0
-119 -147 -164 0
-119 -160 -161 0
-119 -160 -162 0
-119 -160 -163 0
-119 -160 -164 0
-119 -161 -162 0
-119 -161 -163 0
-119 -161 -164 0
-119 -162 -163 0
-119 -162 -164 0
-119 -163 -164 0
-126 -147 -160 0
-126 -147 -161 0
-126 -147 -162 0
-126 -147 -163 0
-126 -147 -164 0
-126 -160 -161 0
-126 -160 -162 0
-126 -160 -163 0
-126 -160 -164 0
-126 -161 -162 0
-126 -161 -163 0
-126 -161 -164 0
-126 -162 -163 0
-126 -162 -164 0
-126 -163 -164 0
-147 -160 -161 0
-147 -160 -162 0
-147 -160 -163 0
-147 -160 -164 0
-147 -161 -162 0
-147 -161 -163 0
-147 -161 -164 0
-147 -162 -163 0
-147 -162 -164 0
-147 -163 -164 0
-160 -161 -162 0
-160 -161 -163 0
-160 -161 -164 0
-160 -162 -163 0
-160 -162 -164 0
-160 -163 -164 0
-161 -162 -163 0
-161 -162 -164 0
-161 -163 -164 0
-162 -163 -164 0
-119 126 147 160 161 162 163 164 0
-126 119 147 160 161 162 163 164 0
-147 119 126 160 161 162 163 164 0
-160 119 126 147 161 162 163 164 0
-161 119 126 147 160 162 163 164 0
-162 119 126 147 160 161 163 164 0
-163 119 126 147 160 161 162 164 0
-164 119 126 147 160 161 162 163 0
-127 -134 -154 0
-127 -134 -165 0
-127 -134 -166 0
-127 -134 -167 0
-127 -134 -168 0
-127 -134 -169 0
-127 -154 -165 0
-127 -154 -166 0
-127 -154 -167 0
-127 -154 -168 0
-127 -154 -169 0
-127 -165 -166 0
-127 -165 -167 0
-127 -165 -168 0
-127 -165 -169 0
-127 -166 -167 0
-127 -166 -168 0
-127 -166 -169 0
-127 -167 -168 0
-127 -167 -169 0
-127 -168 -169 0
-134 -154 -165 0
-134 -154 -166 0
-134 -154 -167 0
-134 -154 -168 0
-134 -154 -169 0
-134 -165 -166 0
-134 -165 -167 0
-134 -165 -168 0
-134 -165 -169 0
-134 -166 -167 0
-134 -166 -168 0
-134 -166 -169 0
-134 -167 -168 0
-134 -167 -169 0
-134 -168 -169 0
-154 -165 -166 0
-154 -165 -167 0
-154 -165 -168 0
-154 -165 -169 0
-154 -166 -167 0
-154 -166 -168 0
-154 -166 -169 0
-154 -167 -168 0
-154 -167 -169 0
-154 -168 -169 0
-165 -166 -167 0
-165 -166 -168 0
-165 -166 -169 0
-165 -167 -168 0
-165 -167 -169 0
-165 -168 -169 0
-166 -167 -168 0
-166 -167 -169 0
-166 -168 -169 0
-167 -168 -169 0
-127 134 154 165 166 167 168 169 0
-134 127 154 165 166 167 168 169 0
-154 127 134 165 166 167 168 169 0
-165 127 134 154 166 167 168 169 0
-166 127 134 154 165 167 168 169 0
-167 127 134 154 165 166 168 169 0
-168 127 134 154 165 166 167 169 0
-169 127 134 154 165 166 167 168 0
-135 -141 -160 0
-135 -141 -170 0
-135 -141 -171 0
-135 -141 -172 0
-135 -141 -173 0
-135 -141 -174 0
-135 -160 -170 0
-135 -160 -171 0
-135 -160 -172 0
-135 -160 -173 0
-135 -160 -174 0
-135 -170 -171 0
-135 -170 -172 0
-135 -170 -173 0
-135 -170 -174 0
-135 -171 -172 0
-135 -171 -173 0
-135 -171 -174 0
-135 -172 -173 0
-135 -172 -174 0
-135 -173 -174 0
-141 -160 -170 0
-141 -160 -171 0
-141 -160 -172 0
-141 -160 -173 0
-141 -160 -174 0
-141 -170 -171 0
-141 -170 -172 0
-141 -170 -173 0
-141 -170 -174 0
-141 -171 -172 0
-141 -171 -173 0
-141 -171 -174 0
-141 -172 -173 0
-141 -172 -174 0
-141 -173 -174 0
-160 -170 -171 0
-160 -170 -172 0
-160 -170 -173 0
-160 -170 -174 0
-160 -171 -172 0
-160 -171 -173 0
-160 -171 -174 0
-160 -172 -173 0
-160 -172 -174 0
-160 -173 -174 0
-170 -171 -172 0
-170 -171 -173 0
-170 -171 -174 0
-170 -172 -173 0
-170 -172 -174 0
-170 -173 -174 0
-171 -172 -173 0
-171 -172 -174 0
-171 -173 -174 0
-172 -173 -174 0
-135 141 160 170 171 172 173 174 0
-141 135 160 170 171 172 173 174 0
-160 135 141 170 171 172 173 174 0
-170 135 141 160 171 172 173 174 0
-171 135 141 160 170 172 173 174 0
-172 135 141 160 170 171 173 174 0
-173 135 141 160 170 171 172 174 0
-174 135 141 160 170 171 172 173 0
-142 -148 -165 0
-142 -148 -175 0
-142 -148 -176 0
-142 -148 -177 0
-142 -148 -178 0
-142 -148 -179 0
-142 -165 -175 0
-142 -165 -176 0
-142 -165 -177 0
-142 -165 -178 0
-142 -165 -179 0
-142 -175 -176 0
-142 -175 -177 0
-142 -175 -178 0
-142 -175 -179 0
-142 -176 -177 0
-142 -176 -178 0
-142 -176 -179 0
-142 -177 -178 0
-142 -177 -179 0
-142 -178 -179 0
-148 -165 -175 0
-148 -165 -176 0
-148 -165 -177 0
-148 -165 -178 0
-148 -165 -179 0
-148 -175 -176 0
-148 -175 -177 0
-148 -175 -178 0
-148 -175 -179 0
-148 -176 -177 0
-148 -176 -178 0
-148 -176 -179 0
-148 -177 -178 0
-148 -177 -179 0
-148 -178 -179 0
-165 -175 -176 0
-165 -175 -177 0
-165 -175 -178 0
-165 -175 -179 0
-165 -176 -177 0
-165 -176 -178 0
-165 -176 -179 0
-165 -177 -178 0
-165 -177 -179 0
-165 -178 -179 0
-175 -176 -177 0
-175 -176 -178 0
-175 -176 -179 0
-175 -177 -178 0
-175 -177 -179 0
-175 -178 -179 0
-176 -177 -178 0
-176 -177 -179 0
-176 -178 -179 0
-177 -178 -179 0
-142 148 165 175 176 177 178 179 0
-148 142 165 175 176 177 178 179 0
-165 142 148 175 176 177 178 179 0
-175 142 148 165 176 177 178 179 0
-176 142 148 165 175 177 178 179 0
-177 142 148 165 175 176 178 179 0
-178 142 148 165 175 176 177 179 0
-179 142 148 165 175 176 177 178 0
-149 -155 -170 0
-149 -155 -180 0
-149 -155 -181 0
-149 -155 -182 0
-149 -155 -183 0
-149 -155 -184 0
-149 -170 -180 0
-149 -170 -181 0
-149 -170 -182 0
-149 -170 -183 0
-149 -170 -184 0
-149 -180 -181 0
-149 -180 -182 0
-149 -180 -183 0
-149 -180 -184 0
-149 -181 -182 0
-149 -181 -183 0
-149 -181 -184 0
-149 -182 -183 0
-149 -182 -184 0
-149 -183 -184 0
-155 -170 -180 0
-155 -170 -181 0
-155 -170 -182 0
-155 -170 -183 0
-155 -170 -184 0
-155 -180 -181 0
-155 -180 -182 0
-155 -180 -183 0
-155 -180 -184 0
-155 -181 -182 0
-155 -181 -183 0
-155 -181 -184 0
-155 -182 -183 0
-155 -182 -184 0
-155 -183 -184 0
-170 -180 -181 0
-170 -180 -182 0
-170 -180 -183 0
-170 -180 -184 0
-170 -181 -182 0
-170 -181 -183 0
-170 -181 -184 0
-170 -182 -183 0
-170 -182 -184 0
-170 -183 -184 0
-180 -181 -182 0
-180 -181 -183 0
-180 -181 -184 0
-180 -182 -183 0
-180 -182 -184 0
-180 -183 -184 0
-181 -182 -183 0
-181 -182 -184 0
-181 -183 -184 0
-182 -183 -184 0
-149 155 170 180 181 182 183 184 0
-155 149 170 180 181 182 183 184 0
-170 149 155 180 181 182 183 184 0
-180 149 155 170 181 182 183 184 0
-181 149 155 170 180 182 183 184 0
-182 149 155 170 180 181 183 184 0
-183 149 155 170 180 181 182 184 0
-184 149 155 170 180 181 182 183 0
-156 -161 -175 0
-156 -161 -185 0
-156 -161 -186 0
-156 -161 -187 0
-156 -161 -188 0
-156 -161 -189 0
-156 -175 -185 0
-156 -175 -186 0
-156 -175 -187 0
-156 -175 -188 0
-156 -175 -189 0
-156 -185 -186 0
-156 -185 -187 0
-156 -185 -188 0
-156 -185 -189 0
-156 -186 -187 0
-156 -186 -188 0
-156 -186 -189 0
-156 -187 -188 0
-156 -187 -189 0
-156 -188 -189 0
-161 -175 -185 0
-161 -175 -186 0
-161 -175 -187 0
-161 -175 -188 0
-161 -175 -189 0
-161 -185 -186 0
-161 -185 -187 0
-161 -185 -188 0
-161 -185 -189 0
-161 -186 -187 0
-161 -186 -188 0
-161 -186 -189 0
-161 -187 -188 0
-161 -187 -189 0
-161 -188 -189 0
-175 -185 -186 0
-175 -185 -187 0
-175 -185 -188 0
-175 -185 -189 0
-175 -186 -187 0
-175 -186 -188 0
-175 -186 -189 0
-175 -187 -188 0
-175 -187 -189 0
-175 -188 -189 0
-185 -186 -187 0
-185 -186 -188 0
-185 -186 -189 0
-185 -187 -188 0
-185 -187 -189 0
-185 -188 -189 0
-186 -187 -188 0
-186 -187 -189 0
-186 -188 -189 0
-187 -188 -189 0
-156 161 175 185 186 187 188 189 0
-161 156 175 185 186 187 188 189 0
-175 156 161 185 186 187 188 189 0
-185 156 161 175 186 187 188 189 0
-186 156 161 175 185 187 188 189 0
-187 156 161 175 185 186 188 189 0
-188 156 161 175 185 186 187 189 0
-189 156 161 175 185 186 187 188 0
-162 -166 -180 0
-162 -166 -190 0
-162 -166 -191 0
-162 -166 -192 0
-162 -166 -193 0
-162 -166 -194 0
-162 -180 -190 0
-162 -180 -191 0
-162 -180 -192 0
-162 -180 -193 0
-162 -180 -194 0
-162 -190 -191 0
-162 -190 -192 0
-162 -190 -193 0
-162 -190 -194 0
-162 -191 -192 0
-162 -191 -193 0
-162 -191 -194 0
-162 -192 -193 0
-162 -192 -194 0
-162 -193 -194 0
-166 -180 -190 0
-166 -180 -191 0
-166 -180 -192 0
-166 -180 -193 0
-166 -180 -194 0
-166 -190 -191 0
-166 -190 -192 0
-166 -190 -193 0
-166 -190 -194 0
-166 -191 -192 0
-166 -191 -193 0
-166 -191 -194 0
-166 -192 -193 0
-166 -192 -194 0
-166 -193 -194 0
-180 -190 -191 0
-180 -190 -192 0
-180 -190 -193 0
-180 -190 -194 0
-180 -191 -192 0
-180 -191 -193 0
-180 -191 -194 0
-180 -192 -193 0
-180 -192 -194 0
-180 -193 -194 0
-190 -191 -192 0
-190 -191 -193 0
-190 -191 -194 0
-190 -192 -193 0
-190 -192 -194 0
-190 -193 -194 0
-191 -192 -193 0
-191 -192 -194 0
-191 -193 -194 0
-192 -193 -194 0
-162 166 180 190 191 192 193 194 0
-166 162 180 190 191 192 193 194 0
-180 162 166 190 191 192 193 194 0
-190 162 166 180 191 192 193 194 0
-191 162 166 180 190 192 193 194 0
-192 162 166 180 190 191 193 194 0
-193 162 166 180 190 191 192 194 0
-194 162 166 180 190 191 192 193 0
-167 -171 -185 0
-167 -171 -195 0
-167 -171 -196 0
-167 -171 -197 0
-167 -171 -198 0
-167 -171 -199 0
-167 -185 -195 0
-167 -185 -196 0
-167 -185 -197 0
-167 -185 -198 0
-167 -185 -199 0
-167 -195 -196 0
-167 -195 -197 0
-167 -195 -198 0
-167 -195 -199 0
-167 -196 -197 0
-167 -196 -198 0
-167 -196 -199 0
-167 -197 -198 0
-167 -197 -199 0
-167 -198 -199 0
-171 -185 -195 0
-171 -185 -196 0
-171 -185 -197 0
-171 -185 -198 0
-171 -185 -199 0
-171 -195 -196 0
-171 -195 -197 0
-171 -195 -198 0
-171 -195 -199 0
-171 -196 -197 0
-171 -196 -198 0
-171 -196 -199 0
-171 -197 -198 0
-171 -197 -199 0
-171 -198 -199 0
-185 -195 -196 0
-185 -195 -197 0
-185 -195 -198 0
-185 -195 -199 0
-185 -196 -197 0
-185 -196 -198 0
-185 -196 -199 0
-185 -197 -198 0
-185 -197 -199 0
-185 -198 -199 0
-195 -196 -197 0
-195 -196 -198 0
-195 -196 -199 0
-195 -197 -198 0
-195 -197 -199 0
-195 -198 -199 0
-196 -197 -198 0
-196 -197 -199 0
-196 -198 -199 0
-197 -198 -199 0
-167 171 185 195 196 197 198 199 0
-171 167 185 195 196 197 198 199 0
-185 167 171 195 196 197 198 199 0
-195 167 171 185 196 197 198 199 0
-196 167 171 185 195 197 198 199 0
-197 167 171 185 195 196 198 199 0
-198 167 171 185 195 196 197 199 0
-199 167 171 185 195 196 197 198 0
-120 -172 -176 0
-120 -172 -190 0
-120 -172 -200 0
-120 -172 -201 0
-120 -172 -202 0
-120 -172 -203 0
-120 -176 -190 0
-120 -176 -200 0
-120 -176 -201 0
-120 -176 -202 0
-120 -176 -203 0
-120 -190 -200 0
-120 -190 -201 0
-120 -190 -202 0
-120 -190 -203 0
-120 -200 -201 0
-120 -200 -202 0
-120 -200 -203 0
-120 -201 -202 0
-120 -201 -203 0
-120 -202 -203 0
-172 -176 -190 0
-172 -176 -200 0
-172 -176 -201 0
-172 -176 -202 0
-172 -176 -203 0
-172 -190 -200 0
-172 -190 -201 0
-172 -190 -202 0
-172 -190 -203 0
-172 -200 -201 0
-172 -200 -202 0
-172 -200 -203 0
-172 -201 -202 0
-172 -201 -203 0
-172 -202 -203 0
-176 -190 -200 0
-176 -190 -201 0
-176 -190 -202 0
-176 -190 -203 0
-176 -200 -201 0
-176 -200 -202 0
-176 -200 -203 0
-176 -201 -202 0
-176 -201 -203 0
-176 -202 -203 0
-190 -200 -201 0
-190 -200 -202 0
-190 -200 -203 0
-190 -201 -202 0
-190 -201 -203 0
-190 -202 -203 0
-200 -201 -202 0
-200 -201 -203 0
-200 -202 -203 0
-201 -202 -203 0
-120 172 176 190 200 201 202 203 0
-172 120 176 190 200 201 202 203 0
-176 120 172 190 200 201 202 203 0
-190 120 172 176 200 201 202 203 0
-200 120 172 176 190 201 202 203 0
-201 120 172 176 190 200 202 203 0
-202 120 172 176 190 200 201 203 0
-203 120 172 176 190 200 201 202 0
-121 -128 -177 0
-121 -128 -181 0
-121 -128 -195 0
-121 -128 -204 0
-121 -128 -205 0
-121 -128 -206 0
-121 -177 -181 0
-121 -177 -195 0
-121 -177 -204 0
-121 -177 -205 0
-121 -177 -206 0
-121 -181 -195 0
-121 -181 -204 0
-121 -181 -205 0
-121 -181 -206 0
-121 -195 -204 0
-121 -195 -205 0
-121 -195 -206 0
-121 -204 -205 0
-121 -204 -206 0
-121 -205 -206 0
-128 -177 -181 0
-128 -177 -195 0
-128 -177 -204 0
-128 -177 -205 0
-128 -177 -206 0
-128 -181 -195 0
-128 -181 -204 0
-128 -181 -205 0
-128 -181 -206 0
-128 -195 -204 0
-128 -195 -205 0
-128 -195 -206 0
-128 -204 -205 0
-128 -204 -206 0
-128 -205 -206 0
-177 -181 -195 0
-177 -181 -204 0
-177 -181 -205 0
-177 -181 -206 0
-177 -195 -204 0
-177 -195 -205 0
-177 -195 -206 0
-177 -204 -205 0
-177 -204 -206 0
-177 -205 -206 0
-181 -195 -204 0
-181 -195 -205 0
-181 -195 -206 0
-181 -204 -205 0
-181 -204 -206 0
-181 -205 -206 0
-195 -204 -205 0
-195 -204 -206 0
-195 -205 -206 0
-204 -205 -206 0
-121 128 177 181 195 204 205 206 0
-128 121 177 181 195 204 205 206 0
-177 121 128 181 195 204 205 206 0
-181 121 128 177 195 204 205 206 0
-195 121 128 177 181 204 205 206 0
-204 121 128 177 181 195 205 206 0
-205 121 128 177 181 195 204 206 0
-206 121 128 177 181 195 204 205 0
-129 -136 -182 0
-129 -136 -186 0
-129 -136 -200 0
-129 -136 -207 0
-129 -136 -208 0
-129 -136 -209 0
-129 -182 -186 0
-129 -182 -200 0
-129 -182 -207 0
-129 -182 -208 0
-129 -182 -209 0
-129 -186 -200 0
-129 -186 -207 0
-129 -186 -208 0
-129 -186 -209 0
-129 -200 -207 0
-129 -200 -208 0
-129 -200 -209 0
-129 -207 -208 0
-129 -207 -209 0
-129 -208 -209 0
-136 -182 -186 0
-136 -182 -200 0
-136 -182 -207 0
-136 -182 -208 0
-136 -182 -209 0
-136 -186 -200 0
-136 -186 -207 0
-136 -186 -208 0
-136 -186 -209 0
-136 -200 -207 0
-136 -200 -208 0
-136 -200 -209 0
-136 -207 -208 0
-136 -207 -209 0
-136 -208 -209 0
-182 -186 -200 0
-182 -186 -207 0
-182 -186 -208 0
-182 -186 -209 0
-182 -200 -207 0
-182 -200 -208 0
-182 -200 -209 0
-182 -207 -208 0
-182 -207 -209 0
-182 -208 -209 0
-186 -200 -207 0
-186 -200 -208 0
-186 -200 -209 0
-186 -207 -208 0
-186 -207 -209 0
-186 -208 -209 0
-200 -207 -208 0
-200 -207 -209 0
-200 -208 -209 0
-207 -208 -209 0
-129 136 182 186 200 207 208 209 0
-136 129 182 186 200 207 208 209 0
-182 129 136 186 200 207 208 209 0
-186 129 136 182 200 207 208 209 0
-200 129 136 182 186 207 208 209 0
-207 129 136 182 186 200 208 209 0
-208 129 136 182 186 200 207 209 0
-209 129 136 182 186 200 207 208 0
-137 -143 -187 0
-137 -143 -191 0
-137 -143 -204 0
-137 -143 -210 0
-137 -143 -211 0
-137 -143 -212 0
-137 -187 -191 0
-137 -187 -204 0
-137 -187 -210 0
-137 -187 -211 0
-137 -187 -212 0
-137 -191 -204 0
-137 -191 -210 0
-137 -191 -211 0
-137 -191 -212 0
-137 -204 -210 0
-137 -204 -211 0
-137 -204 -212 0
-137 -210 -211 0
-137 -210 -212 0
-137 -211 -212 0
-143 -187 -191 0
-143 -187 -204 0
-143 -187 -210 0
-143 -187 -211 0
-143 -187 -212 0
-143 -191 -204 0
-143 -191 -210 0
-143 -191 -211 0
-143 -191 -212 0
-143 -204 -210 0
-143 -204 -211 0
-143 -204 -212 0
-143 -210 -211 0
-143 -210 -212 0
-143 -211 -212 0
-187 -191 -204 0
-187 -191 -210 0
-187 -191 -211 0
-187 -191 -212 0
-187 -204 -210 0
-187 -204 -211 0
-187 -204 -212 0
-187 -210 -211 0
-187 -210 -212 0
-187 -211 -212 0
-191 -204 -210 0
-191 -204 -211 0
-191 -204 -212 0
-191 -210 -211 0
-191 -210 -212 0
-191 -211 -212 0
-204 -210 -211 0
-204 -210 -212 0
-204 -211 -212 0
-210 -211 -212 0
-137 143 187 191 204 210 211 212 0
-143 137 187 191 204 210 211 212 0
-187 137 143 191 204 210 211 212 0
-191 137 143 187 204 210 211 212 0
-204 137 143 187 191 210 211 212 0
-210 137 143 187 191 204 211 212 0
-211 137 143 187 191 204 210 212 0
-212 137 143 187 191 204 210 211 0
-144 -150 -192 0
-144 -150 -196 0
-144 -150 -207 0
-144 -150 -213 0
-144 -150 -214 0
-144 -150 -215 0
-144 -192 -196 0
-144 -192 -207 0
-144 -192 -213 0
-144 -192 -214 0
-144 -192 -215 0
-144 -196 -207 0
-144 -196 -213 0
-144 -196 -214 0
-144 -196 -215 0
-144 -207 -213 0
-144 -207 -214 0
-144 -207 -215 0
-144 -213 -214 0
-144 -213 -215 0
-144 -214 -215 0
-150 -192 -196 0
-150 -192 -207 0
-150 -192 -213 0
-150 -192 -214 0
-150 -192 -215 0
-150 -196 -207 0
-150 -196 -213 0
-150 -196 -214 0
-150 -196 -215 0
-150 -207 -213 0
-150 -207 -214 0
-150 -207 -215 0
-150 -213 -214 0
-150 -213 -215 0
-150 -214 -215 0
-192 -196 -207 0
-192 -196 -213 0
-192 -196 -214 0
-192 -196 -215 0
-192 -207 -213 0
-192 -207 -214 0
-192 -207 -215 0
-192 -213 -214 0
-192 -213 -215 0
-192 -214 -215 0
-196 -207 -213 0
-196 -207 -214 0
-196 -207 -215 0
-196 -213 -214 0
-196 -213 -215 0
-196 -214 -215 0
-207 -213 -214 0
-207 -213 -215 0
-207 -214 -215 0
-213 -214 -215 0
-144 150 192 196 207 213 214 215 0
-150 144 192 196 207 213 214 215 0
-192 144 150 196 207 213 214 215 0
-196 144 150 192 207 213 214 215 0
-207 144 150 192 196 213 214 215 0
-213 144 150 192 196 207 214 215 0
-214 144 150 192 196 207 213 215 0
-215 144 150 192 196 207 213 214 0
-151 -157 -197 0
-151 -157 -201 0
-151 -157 -210 0
-151 -157 -216 0
-151 -157 -217 0
-151 -157 -218 0
-151 -197 -201 0
-151 -197 -210 0
-151 -197 -216 0
-151 -197 -217 0
-151 -197 -218 0
-151 -201 -210 0
-151 -201 -216 0
-151 -201 -217 0
-151 -201 -218 0
-151 -210 -216 0
-151 -210 -217 0
-151 -210 -218 0
-151 -216 -217 0
-151 -216 -218 0
-151 -217 -218 0
-157 -197 -201 0
-157 -197 -210 0
-157 -197 -216 0
-157 -197 -217 0
-157 -197 -218 0
-157 -201 -210 0
-157 -201 -216 0
-157 -201 -217 0
-157 -201 -218 0
-157 -210 -216 0
-157 -210 -217 0
-157 -210 -218 0
-157 -216 -217 0
-157 -216 -218 0
-157 -217 -218 0
-197 -201 -210 0
-197 -201 -216 0
-197 -201 -217 0
-197 -201 -218 0
-197 -210 -216 0
-197 -210 -217 0
-197 -210 -218 0
-197 -216 -217 0
-197 -216 -218 0
-197 -217 -218 0
-201 -210 -216 0
-201 -210 -217 0
-201 -210 -218 0
-201 -216 -217 0
-201 -216 -218 0
-201 -217 -218 0
-210 -216 -217 0
-210 -216 -218 0
-210 -217 -218 0
-216 -217 -218 0
-151 157 197 201 210 216 217 218 0
-157 151 197 201 210 216 217 218 0
-197 151 157 201 210 216 217 218 0
-201 151 157 197 210 216 217 218 0
-210 151 157 197 201 216 217 218 0
-216 151 157 197 201 210 217 218 0
-217 151 157 197 201 210 216 218 0
-218 151 157 197 201 210 216 217 0
-158 -163 -202 0
-158 -163 -205 0
-158 -163 -213 0
-158 -163 -219 0
-158 -163 -220 0
-158 -163 -221 0
-158 -202 -205 0
-158 -202 -213 0
-158 -202 -219 0
-158 -202 -220 0
-158 -202 -221 0
-158 -205 -213 0
-158 -205 -219 0
-158 -205 -220 0
-158 -205 -221 0
-158 -213 -219 0
-158 -213 -220 0
-158 -213 -221 0
-158 -219 -220 0
-158 -219 -221 0
-158 -220 -221 0
-163 -202 -205 0
-163 -202 -213 0
-163 -202 -219 0
-163 -202 -220 0
-163 -202 -221 0
-163 -205 -213 0
-163 -205 -219 0
-163 -205 -220 0
-163 -205 -221 0
-163 -213 -219 0
-163 -213 -220 0
-163 -213 -221 0
-163 -219 -220 0
-163 -219 -221 0
-163 -220 -221 0
-202 -205 -213 0
-202 -205 -219 0
-202 -205 -220 0
-202 -205 -221 0
-202 -213 -219 0
-202 -213 -220 0
-202 -213 -221 0
-202 -219 -220 0
-202 -219 -221 0
-202 -220 -221 0
-205 -213 -219 0
-205 -213 -220 0
-205 -213 -221 0
-205 -219 -220 0
-205 -219 -221 0
-205 -220 -221 0
-213 -219 -220 0
-213 -219 -221 0
-213 -220 -221 0
-219 -220 -221 0
-158 163 202 205 213 219 220 221 0
-163 158 202 205 213 219 220 221 0
-202 158 163 205 213 219 220 221 0
-205 158 163 202 213 219 220 221 0
-213 158 163 202 205 219 220 221 0
-219 158 163 202 205 213 220 221 0
-220 158 163 202 205 213 219 221 0
-221 158 163 202 205 213 219 220 0
-164 -168 -206 0
-164 -168 -208 0
-164 -168 -216 0
-164 -168 -222 0
-164 -168 -223 0
-164 -168 -224 0
-164 -206 -208 0
-164 -206 -216 0
-164 -206 -222 0
-164 -206 -223 0
-164 -206 -224 0
-164 -208 -216 0
-164 -208 -222 0
-164 -208 -223 0
-164 -208 -224 0
-164 -216 -222 0
-164 -216 -223 0
-164 -216 -224 0
-164 -222 -223 0
-164 -222 -224 0
-164 -223 -224 0
-168 -206 -208 0
-168 -206 -216 0
-168 -206 -222 0
-168 -206 -223 0
-168 -206 -224 0
-168 -208 -216 0
-168 -208 -222 0
-168 -208 -223 0
-168 -208 -224 0
-168 -216 -222 0
-168 -216 -223 0
-168 -216 -224 0
-168 -222 -223 0
-168 -222 -224 0
-168 -223 -224 0
-206 -208 -216 0
-206 -208 -222 0
-206 -208 -223 0
-206 -208 -224 0
-206 -216 -222 0
-206 -216 -223 0
-206 -216 -224 0
-206 -222 -223 0
-206 -222 -224 0
-206 -223 -224 0
-208 -216 -222 0
-208 -216 -223 0
-208 -216 -224 0
-208 -222 -223 0
-208 -222 -224 0
-208 -223 -224 0
-216 -222 -223 0
-216 -222 -224 0
-216 -223 -224 0
-222 -223 -224 0
-164 168 206 208 216 222 223 224 0
-168 164 206 208 216 222 223 224 0
-206 164 168 208 216 222 223 224 0
-208 164 168 206 216 222 223 224 0
-216 164 168 206 208 222 223 224 0
-222 164 168 206 208 216 223 224 0
-223 164 168 206 208 216 222 224 0
-224 164 168 206 208 216 222 223 0
-169 -173 -209 0
-169 -173 -211 0
-169 -173 -219 0
-169 -173 -225 0
-169 -173 -226 0
-169 -173 -227 0
-169 -209 -211 0
-169 -209 -219 0
-169 -209 -225 0
-169 -209 -226 0
-169 -209 -227 0
-169 -211 -219 0
-169 -211 -225 0
-169 -211 -226 0
-169 -211 -227 0
-169 -219 -225 0
-169 -219 -226 0
-169 -219 -227 0
-169 -225 -226 0
-169 -225 -227 0
-169 -226 -227 0
-173 -209 -211 0
-173 -209 -219 0
-173 -209 -225 0
-173 -209 -226 0
-173 -209 -227 0
-173 -211 -219 0
-173 -211 -225 0
-173 -211 -226 0
-173 -211 -227 0
-173 -219 -225 0
-173 -219 -226 0
-173 -219 -227 0
-173 -225 -226 0
-173 -225 -227 0
-173 -226 -227 0
-209 -211 -219 0
-209 -211 -225 0
-209 -211 -226 0
-209 -211 -227 0
-209 -219 -225 0
-209 -219 -226 0
-209 -219 -227 0
-209 -225 -226 0
-209 -225 -227 0
-209 -226 -227 0
-211 -219 -225 0
-211 -219 -226 0
-211 -219 -227 0
-211 -225 -226 0
-211 -225 -227 0
-211 -226 -227 0
-219 -225 -226 0
-219 -225 -227 0
-219 -226 -227 0
-225 -226 -227 0
-169 173 209 211 219 225 226 227 0
-173 169 209 211 219 225 226 227 0
-209 169 173 211 219 225 226 227 0
-211 169 173 209 219 225 226 227 0
-219 169 173 209 211 225 226 227 0
-225 169 173 209 211 219 226 227 0
-226 169 173 209 211 219 225 227 0
-227 169 173 209 211 219 225 226 0
-122 -174 -178 0
-122 -174 -212 0
-122 -174 -214 0
-122 -174 -222 0
-122 -174 -228 0
-122 -174 -229 0
-122 -178 -212 0
-122 -178 -214 0
-122 -178 -222 0
-122 -178 -228 0
-122 -178 -229 0
-122 -212 -214 0
-122 -212 -222 0
-122 -212 -228 0
-122 -212 -229 0
-122 -214 -222 0
-122 -214 -228 0
-122 -214 -229 0
-122 -222 -228 0
-122 -222 -229 0
-122 -228 -229 0
-174 -178 -212 0
-174 -178 -214 0
-174 -178 -222 0
-174 -178 -228 0
-174 -178 -229 0
-174 -212 -214 0
-174 -212 -222 0
-174 -212 -228 0
-174 -212 -229 0
-174 -214 -222 0
-174 -214 -228 0
-174 -214 -229 0
-174 -222 -228 0
-174 -222 -229 0
-174 -228 -229 0
-178 -212 -214 0
-178 -212 -222 0
-178 -212 -228 0
-178 -212 -229 0
-178 -214 -222 0
-178 -214 -228 0
-178 -214 -229 0
-178 -222 -228 0
-178 -222 -229 0
-178 -228 -229 0
-212 -214 -222 0
-212 -214 -228 0
-212 -214 -229 0
-212 -222 -228 0
-212 -222 -229 0
-212 -228 -229 0
-214 -222 -228 0
-214 -222 -229 0
-214 -228 -229 0
-222 -228 -229 0
-122 174 178 212 214 222 228 229 0
-174 122 178 212 214 222 228 229 0
-178 122 174 212 214 222 228 229 0
-212 122 174 178 214 222 228 229 0
-214 122 174 178 212 222 228 229 0
-222 122 174 178 212 214 228 229 0
-228 122 174 178 212 214 222 229 0
-229 122 174 178 212 214 222 228 0
-123 -130 -179 0
-123 -130 -183 0
-123 -130 -215 0
-123 -130 -217 0
-123 -130 -225 0
-123 -130 -230 0
-123 -179 -183 0
-123 -179 -215 0
-123 -179 -217 0
-123 -179 -225 0
-123 -179 -230 0
-123 -183 -215 0
-123 -183 -217 0
-123 -183 -225 0
-123 -183 -230 0
-123 -215 -217 0
-123 -215 -225 0
-123 -215 -230 0
-123 -217 -225 0
-123 -217 -230 0
-123 -225 -230 0
-130 -179 -183 0
-130 -179 -215 0
-130 -179 -217 0
-130 -179 -225 0
-130 -179 -230 0
-130 -183 -215 0
-130 -183 -217 0
-130 -183 -225 0
-130 -183 -230 0
-130 -215 -217 0
-130 -215 -225 0
-130 -215 -230 0
-130 -217 -225 0
-130 -217 -230 0
-130 -225 -230 0
-179 -183 -215 0
-179 -183 -217 0
-179 -183 -225 0
-179 -183 -230 0
-179 -215 -217 0
-179 -215 -225 0
-179 -215 -230 0
-179 -217 -225 0
-179 -217 -230 0
-179 -225 -230 0
-183 -215 -217 0
-183 -215 -225 0
-183 -215 -230 0
-183 -217 -225 0
-183 -217 -230 0
-183 -225 -230 0
-215 -217 -225 0
-215 -217 -230 0
-215 -225 -230 0
-217 -225 -230 0
-123 130 179 183 215 217 225 230 0
-130 123 179 183 215 217 225 230 0
-179 123 130 183 215 217 225 230 0
-183 123 130 179 215 217 225 230 0
-215 123 130 179 183 217 225 230 0
-217 123 130 179 183 215 225 230 0
-225 123 130 179 183 215 217 230 0
-230 123 130 179 183 215 217 225 0
-131 -138 -184 0
-131 -138 -188 0
-131 -138 -218 0
-131 -138 -220 0
-131 -138 -228 0
-131 -138 -231 0
-131 -184 -188 0
-131 -184 -218 0
-131 -184 -220 0
-131 -184 -228 0
-131 -184 -231 0
-131 -188 -218 0
-131 -188 -220 0
-131 -188 -228 0
-131 -188 -231 0
-131 -218 -220 0
-131 -218 -228 0
-131 -218 -231 0
-131 -220 -228 0
-131 -220 -231 0
-131 -228 -231 0
-138 -184 -188 0
-138 -184 -218 0
-138 -184 -220 0
-138 -184 -228 0
-138 -184 -231 0
-138 -188 -218 0
-138 -188 -220 0
-138 -188 -228 0
-138 -188 -231 0
-138 -218 -220 0
-138 -218 -228 0
-138 -218 -231 0
-138 -220 -228 0
-138 -220 -231 0
-138 -228 -231 0
-184 -188 -218 0
-184 -188 -220 0
-184 -188 -228 0
-184 -188 -231 0
-184 -218 -220 0
-184 -218 -228 0
-184 -218 -231 0
-184 -220 -228 0
-184 -220 -231 0
-184 -228 -231 0
-188 -218 -220 0
-188 -218 -228 0
-188 -218 -231 0
-188 -220 -228 0
-188 -220 -231 0
-188 -228 -231 0
-218 -220 -228 0
-218 -220 -231 0
-218 -228 -231 0
-220 -228 -231 0
-131 138 184 188 218 220 228 231 0
-138 131 184 188 218 220 228 231 0
-184 131 138 188 218 220 228 231 0
-188 131 138 184 218 220 228 231 0
-218 131 138 184 188 220 228 231 0
-220 131 138 184 188 218 228 231 0
-228 131 138 184 188 218 220 231 0
-231 131 138 184 188 218 220 228 0
-139 -145 -189 0
-139 -145 -193 0
-139 -145 -221 0
-139 -145 -223 0
-139 -145 -230 0
-139 -145 -232 0
-139 -189 -193 0
-139 -189 -221 0
-139 -189 -223 0
-139 -189 -230 0
-139 -189 -232 0
-139 -193 -221 0
-139 -193 -223 0
-139 -193 -230 0
-139 -193 -232 0
-139 -221 -223 0
-139 -221 -230 0
-139 -221 -232 0
-139 -223 -230 0
-139 -223 -232 0
-139 -230 -232 0
-145 -189 -193 0
-145 -189 -221 0
-145 -189 -223 0
-145 -189 -230 0
-145 -189 -232 0
-145 -193 -221 0
-145 -193 -223 0
-145 -193 -230 0
-145 -193 -232 0
-145 -221 -223 0
-145 -221 -230 0
-145 -221 -232 0
-145 -223 -230 0
-145 -223 -232 0
-145 -230 -232 0
-189 -193 -221 0
-189 -193 -223 0
-189 -193 -230 0
-189 -193 -232 0
-189 -221 -223 0
-189 -221 -230 0
-189 -221 -232 0
-189 -223 -230 0
-189 -223 -232 0
-189 -230 -232 0
-193 -221 -223 0
-193 -221 -230 0
-193 -221 -232 0
-193 -223 -230 0
-193 -223 -232 0
-193 -230 -232 0
-221 -223 -230 0
-221 -223 -232 0
-221 -230 -232 0
-223 -230 -232 0
-139 145 189 193 221 223 230 232 0
-145 139 189 193 221 223 230 232 0
-189 139 145 193 221 223 230 232 0
-193 139 145 189 221 223 230 232 0
-221 139 145 189 193 223 230 232 0
-223 139 145 189 193 221 230 232 0
-230 139 145 189 193 221 223 232 0
-232 139 145 189 193 221 223 230 0
-124 -146 -152 0
-124 -146 -194 0
-124 -146 -198 0
-124 -146 -224 0
-124 -146 -226 0
-124 -146 -231 0
-124 -152 -194 0
-124 -152 -198 0
-124 -152 -224 0
-124 -152 -226 0
-124 -152 -231 0
-124 -194 -198 0
-124 -194 -224 0
-124 -194 -226 0
-124 -194 -231 0
-124 -198 -224 0
-124 -198 -226 0
-124 -198 -231 0
-124 -224 -226 0
-124 -224 -231 0
-124 -226 -231 0
-146 -152 -194 0
-146 -152 -198 0
-146 -152 -224 0
-146 -152 -226 0
-146 -152 -231 0
-146 -194 -198 0
-146 -194 -224 0
-146 -194 -226 0
-146 -194 -231 0
-146 -198 -224 0
-146 -198 -226 0
-146 -198 -231 0
-146 -224 -226 0
-146 -224 -231 0
-146 -226 -231 0
-152 -194 -198 0
-152 -194 -224 0
-152 -194 -226 0
-152 -194 -231 0
-152 -198 -224 0
-152 -198 -226 0
-152 -198 -231 0
-152 -224 -226 0
-152 -224 -231 0
-152 -226 -231 0
-194 -198 -224 0
-194 -198 -226 0
-194 -198 -231 0
-194 -224 -226 0
-194 -224 -231 0
-194 -226 -231 0
-198 -224 -226 0
-198 -224 -231 0
-198 -226 -231 0
-224 -226 -231 0
-124 146 152 194 198 224 226 231 0
-146 124 152 194 198 224 226 231 0
-152 124 146 194 198 224 226 231 0
-194 124 146 152 198 224 226 231 0
-198 124 146 152 194 224 226 231 0
-224 124 146 152 194 198 226 231 0
-226 124 146 152 194 198 224 231 0
-231 124 146 152 194 198 224 226 0
-132 -153 -159 0
-132 -153 -199 0
-132 -153 -203 0
-132 -153 -227 0
-132 -153 -229 0
-132 -153 -232 0
-132 -159 -199 0
-132 -159 -203 0
-132 -159 -227 0
-132 -159 -229 0
-132 -159 -232 0
-132 -199 -203 0
-132 -199 -227 0
-132 -199 -229 0
-132 -199 -232 0
-132 -203 -227 0
-132 -203 -229 0
-132 -203 -232 0
-132 -227 -229 0
-132 -227 -232 0
-132 -229 -232 0
-153 -159 -199 0
-153 -159 -203 0
-153 -159 -227 0
-153 -159 -229 0
-153 -159 -232 0
-153 -199 -203 0
-153 -199 -227 0
-153 -199 -229 0
-153 -199 -232 0
-153 -203 -227 0
-153 -203 -229 0
-153 -203 -232 0
-153 -227 -229 0
-153 -227 -232 0
-153 -229 -232 0
-159 -199 -203 0
-159 -199 -227 0
-159 -199 -229 0
-159 -199 -232 0
-159 -203 -227 0
-159 -203 -229 0
-159 -203 -232 0
-159 -227 -229 0
-159 -227 -232 0
-159 -229 -232 0
-199 -203 -227 0
-199 -203 -229 0
-199 -203 -232 0
-199 -227 -229 0
-199 -227 -232 0
-199 -229 -232 0
-203 -227 -229 0
-203 -227 -232 0
-203 -229 -232 0
-227 -229 -232 0
-132 153 159 199 203 227 229 232 0
-153 132 159 199 203 227 229 232 0
-159 132 153 199 203 227 229 232 0
-199 132 153 159 203 227 229 232 0
-203 132 153 159 199 227 229 232 0
-227 132 153 159 199 203 229 232 0
-229 132 153 159 199 203 227 232 0
-232 132 153 159 199 203 227 229 0
-117 262 0
-117 264 0
-118 262 0
-118 267 0
-119 262 0
-119 268 0
-120 262 0
-120 276 0
-121 262 0
-121 277 0
-122 262 0
-122 285 0
-123 262 0
-123 286 0
-124 262 0
-124 289 0
-125 263 0
-125 265 0
-126 263 0
-126 268 0
-127 263 0
-127 269 0
-128 263 0
-128 277 0
-129 263 0
-129 278 0
-130 263 0
-130 286 0
-131 263 0
-131 287 0
-132 263 0
-132 290 0
-133 264 0
-133 266 0
-134 264 0
-134 269 0
-135 264 0
-135 270 0
-136 264 0
-136 278 0
-137 264 0
-137 279 0
-138 264 0
-138 287 0
-139 264 0
-139 288 0
-140 265 0
-140 267 0
-141 265 0
-141 270 0
-142 265 0
-142 271 0
-143 265 0
-143 279 0
-144 265 0
-144 280 0
-145 265 0
-145 288 0
-146 265 0
-146 289 0
-147 266 0
-147 268 0
-148 266 0
-148 271 0
-149 266 0
-149 272 0
-150 266 0
-150 280 0
-151 266 0
-151 281 0
-152 266 0
-152 289 0
-153 266 0
-153 290 0
-154 267 0
-154 269 0
-155 267 0
-155 272 0
-156 267 0
-156 273 0
-157 267 0
-157 281 0
-158 267 0
-158 282 0
-159 267 0
-159 290 0
-160 268 0
-160 270 0
-161 268 0
-161 273 0
-162 268 0
-162 274 0
-163 268 0
-163 282 0
-164 268 0
-164 283 0
-165 269 0
-165 271 0
-166 269 0
-166 274 0
-167 269 0
-167 275 0
-168 269 0
-168 283 0
-169 269 0
-169 284 0
-170 270 0
-170 272 0
-171 270 0
-171 275 0
-172 270 0
-172 276 0
-173 270 0
-173 284 0
-174 270 0
-174 285 0
-175 271 0
-175 273 0
-176 271 0
-176 276 0
-177 271 0
-177 277 0
-178 271 0
-178 285 0
-179 271 0
-179 286 0
-180 272 0
-180 274 0
-181 272 0
-181 277 0
-182 272 0
-182 278 0
-183 272 0
-183 286 0
-184 272 0
-184 287 0
-185 273 0
-185 275 0
-186 273 0
-186 278 0
-187 273 0
-187 279 0
-188 273 0
-188 287 0
-189 273 0
-189 288 0
-190 274 0
-190 276 0
-191 274 0
-191 279 0
-192 274 0
-192 280 0
-193 274 0
-193 288 0
-194 274 0
-194 289 0
-195 275 0
-195 277 0
-196 275 0
-196 280 0
-197 275 0
-197 281 0
-198 275 0
-198 289 0
-199 275 0
-199 290 0
-200 276 0
-200 278 0
-201 276 0
-201 281 0
-202 276 0
-202 282 0
-203 276 0
-203 290 0
-204 277 0
-204 279 0
-205 277 0
-205 282 0
-206 277 0
-206 283 0
-207 278 0
-207 280 0
-208 278 0
-208 283 0
-209 278 0
-209 284 0
-210 279 0
-210 281 0
-211 279 0
-211 284 0
-212 279 0
-212 285 0
-213 280 0
-213 282 0
-214 280 0
-214 285 0
-215 280 0
-215 286 0
-216 281 0
-216 283 0
-217 281 0
-217 286 0
-218 281 0
-218 287 0
-219 282 0
-219 284 0
-220 282 0
-220 287 0
-221 282 0
-221 288 0
-222 283 0
-222 285 0
-223 283 0
-223 288 0
-224 283 0
-224 289 0
-225 284 0
-225 286 0
-226 284 0
-226 289 0
-227 284 0
-227 290 0
-228 285 0
-228 287 0
-229 285 0
-229 290 0
-230 286 0
-230 288 0
-231 287 0
-231 289 0
-232 288 0
-232 290 0
-407 117 0
407 -117 0
-408 407 118 0
-408 -407 -118 0
408 -407 118 0
408 407 -118 0
-409 408 119 0
-409 -408 -119 0
409 -408 119 0
409 408 -119 0
-410 409 120 0
-410 -409 -120 0
410 -409 120 0
410 409 -120 0
-411 410 121 0
-411 -410 -121 0
411 -410 121 0
411 410 -121 0
-412 411 122 0
-412 -411 -122 0
412 -411 122 0
412 411 -122 0
-413 412 123 0
-413 -412 -123 0
413 -412 123 0
413 412 -123 0
-414 413 124 0
-414 -413 -124 0
414 -413 124 0
414 413 -124 0
-415 414 125 0
-415 -414 -125 0
415 -414 125 0
415 414 -125 0
-416 415 126 0
-416 -415 -126 0
416 -415 126 0
416 415 -126 0
-417 416 127 0
-417 -416 -127 0
417 -416 127 0
417 416 -127 0
-418 417 128 0
-418 -417 -128 0
418 -417 128 0
418 417 -128 0
-419 418 129 0
-419 -418 -129 0
419 -418 129 0
419 418 -129 0
-420 419 130 0
-420 -419 -130 0
420 -419 130 0
420 419 -130 0
-421 420 131 0
-421 -420 -131 0
421 -420 131 0
421 420 -131 0
-422 421 132 0
-422 -421 -132 0
422 -421 132 0
422 421 -132 0
-423 422 133 0
-423 -422 -133 0
423 -422 133 0
423 422 -133 0
-424 423 134 0
-424 -423 -134 0
424 -423 134 0
424 423 -134 0
-425 424 135 0
-425 -424 -135 0
425 -424 135 0
425 424 -135 0
-426 425 136 0
-426 -425 -136 0
426 -425 136 0
426 425 -136 0
-427 426 137 0
-427 -426 -137 0
427 -426 137 0
427 426 -137 0
-428 427 138 0
-428 -427 -138 0
428 -427 138 0
428 427 -138 0
-429 428 139 0
-429 -428 -139 0
429 -428 139 0
429 428 -139 0
-430 429 140 0
-430 -429 -140 0
430 -429 140 0
430 429 -140 0
-431 430 141 0
-431 -430 -141 0
431 -430 141 0
431 430 -141 0
-432 431 142 0
-432 -431 -142 0
432 -431 142 0
432 431 -142 0
-433 432 143 0
-433 -432 -143 0
433 -432 143 0
433 432 -143 0
-434 433 144 0
-434 -433 -144 0
434 -433 144 0
434 433 -144 0
-435 434 145 0
-435 -434 -145 0
435 -434 145 0
435 434 -145 0
-436 435 146 0
-436 -435 -146 0
436 -435 146 0
436 435 -146 0
-437 436 147 0
-437 -436 -147 0
437 -436 147 0
437 436 -147 0
-438 437 148 0
-438 -437 -148 0
438 -437 148 0
438 437 -148 0
-439 438 149 0
-439 -438 -149 0
439 -438 149 0
439 438 -149 0
-440 439 150 0
-440 -439 -150 0
440 -439 150 0
440 439 -150 0
-441 440 151 0
-441 -440 -151 0
441 -440 151 0
441 440 -151 0
-442 441 152 0
-442 -441 -152 0
442 -441 152 0
442 441 -152 0
-443 442 153 0
-443 -442 -153 0
443 -442 153 0
443 442 -153 0
-444 443 154 0
-444 -443 -154 0
444 -443 154 0
444 443 -154 0
-445 444 155 0
-445 -444 -155 0
445 -444 155 0
445 444 -155 0
-446 445 156 0
-446 -445 -156 0
446 -445 156 0
446 445 -156 0
-447 446 157 0
-447 -446 -157 0
447 -446 157 0
447 446 -157 0
-448 447 158 0
-448 -447 -158 0
448 -447 158 0
448 447 -158 0
-449 448 159 0
-449 -448 -159 0
449 -448 159 0
449 448 -159 0
-450 449 160 0
-450 -449 -160 0
450 -449 160 0
450 449 -160 0
-451 450 161 0
-451 -450 -161 0
451 -450 161 0
451 450 -161 0
-452 451 162 0
-452 -451 -162 0
452 -451 162 0
452 451 -162 0
-453 452 163 0
-453 -452 -163 0
453 -452 163 0
453 452 -163 0
-454 453 164 0
-454 -453 -164 0
454 -453 164 0
454 453 -164 0
-455 454 165 0
-455 -454 -165 0
455 -454 165 0
455 454 -165 0
-456 455 166 0
-456 -455 -166 0
456 -455 166 0
456 455 -166 0
-457 456 167 0
-457 -456 -167 0
457 -456 167 0
457 456 -167 0
-458 457 168 0
-458 -457 -168 0
458 -457 168 0
458 457 -168 0
-459 458 169 0
-459 -458 -169 0
459 -458 169 0
459 458 -169 0
-460 459 170 0
-460 -459 -170 0
460 -459 170 0
460 459 -170 0
-461 460 171 0
-461 -460 -171 0
461 -460 171 0
461 460 -171 0
-462 461 172 0
-462 -461 -172 0
462 -461 172 0
462 461 -172 0
-463 462 173 0
-463 -462 -173 0
463 -462 173 0
463 462 -173 0
-464 463 174 0
-464 -463 -174 0
464 -463 174 0
464 463 -174 0
-465 464 175 0
-465 -464 -175 0
465 -464 175 0
465 464 -175 0
-466 465 176 0
-466 -465 -176 0
466 -465 176 0
466 465 -176 0
-467 466 177 0
-467 -466 -177 0
467 -466 177 0
467 466 -177 0
-468 467 178 0
-468 -467 -178 0
468 -467 178 0
468 467 -178 0
-469 468 179 0
-469 -468 -179 0
469 -468 179 0
469 468 -179 0
-470 469 180 0
-470 -469 -180 0
470 -469 180 0
470 469 -180 0
-471 470 181 0
-471 -470 -181 0
471 -470 181 0
471 470 -181 0
-472 471 182 0
-472 -471 -182 0
472 -471 182 0
472 471 -182 0
-473 472 183 0
-473 -472 -183 0
473 -472 183 0
473 472 -183 0
-474 473 184 0
-474 -473 -184 0
474 -473 184 0
474 473 -184 0
-475 474 185 0
-475 -474 -185 0
475 -474 185 0
475 474 -185 0
-476 475 186 0
-476 -475 -186 0
476 -475 186 0
476 475 -186 0
-477 476 187 0
-477 -476 -187 0
477 -476 187 0
477 476 -187 0
-478 477 188 0
-478 -477 -188 0
478 -477 188 0
478 477 -188 0
-479 478 189 0
-479 -478 -189 0
479 -478 189 0
479 478 -189 0
-480 479 190 0
-480 -479 -190 0
480 -479 190 0
480 479 -190 0
-481 480 191 0
-481 -480 -191 0
481 -480 191 0
481 480 -191 0
-482 481 192 0
-482 -481 -192 0
482 -481 192 0
482 481 -192 0
-483 482 193 0
-483 -482 -193 0
483 -482 193 0
483 482 -193 0
-484 483 194 0
-484 -483 -194 0
484 -483 194 0
484 483 -194 0
-485 484 195 0
-485 -484 -195 0
485 -484 195 0
485 484 -195 0
-486 485 196 0
-486 -485 -196 0
486 -485 196 0
486 485 -196 0
-487 486 197 0
-487 -486 -197 0
487 -486 197 0
487 486 -197 0
-488 487 198 0
-488 -487 -198 0
488 -487 198 0
488 487 -198 0
-489 488 199 0
-489 -488 -199 0
489 -488 199 0
489 488 -199 0
-490 489 200 0
-490 -489 -200 0
490 -489 200 0
490 489 -200 0
-491 490 201 0
-491 -490 -201 0
491 -490 201 0
491 490 -201 0
-492 491 202 0
-492 -491 -202 0
492 -491 202 0
492 491 -202 0
-493 492 203 0
-493 -492 -203 0
493 -492 203 0
493 492 -203 0
-494 493 204 0
-494 -493 -204 0
494 -493 204 0
494 493 -204 0
-495 494 205 0
-495 -494 -205 0
495 -494 205 0
495 494 -205 0
-496 495 206 0
-496 -495 -206 0
496 -495 206 0
496 495 -206 0
-497 496 207 0
-497 -496 -207 0
497 -496 207 0
497 496 -207 0
-498 497 208 0
-498 -497 -208 0
498 -497 208 0
498 497 -208 0
-499 498 209 0
-499 -498 -209 0
499 -498 209 0
499 498 -209 0
-500 499 210 0
-500 -499 -210 0
500 -499 210 0
500 499 -210 0
-501 500 211 0
-501 -500 -211 0
501 -500 211 0
501 500 -211 0
-502 501 212 0
-502 -501 -212 0
502 -501 212 0
502 501 -212 0
-503 502 213 0
-503 -502 -213 0
503 -502 213 0
503 502 -213 0
-504 503 214 0
-504 -503 -214 0
504 -503 214 0
504 503 -214 0
-505 504 215 0
-505 -504 -215 0
505 -504 215 0
505 504 -215 0
-506 505 216 0
-506 -505 -216 0
506 -505 216 0
506 505 -216 0
-507 506 217 0
-507 -506 -217 0
507 -506 217 0
507 506 -217 0
-508 507 218 0
-508 -507 -218 0
508 -507 218 0
508 507 -218 0
-509 508 219 0
-509 -508 -219 0
509 -508 219 0
509 508 -219 0
-510 509 220 0
-510 -509 -220 0
510 -509 220 0
510 509 -220 0
-511 510 221 0
-511 -510 -221 0
511 -510 221 0
511 510 -221 0
-512 511 222 0
-512 -511 -222 0
512 -511 222 0
512 511 -222 0
-513 512 223 0
-513 -512 -223 0
513 -512 223 0
513 512 -223 0
-514 513 224 0
-514 -513 -224 0
514 -513 224 0
514 513 -224 0
-515 514 225 0
-515 -514 -225 0
515 -514 225 0
515 514 -225 0
-516 515 226 0
-516 -515 -226 0
516 -515 226 0
516 515 -226 0
-517 516 227 0
-517 -516 -227 0
517 -516 227 0
517 516 -227 0
-518 517 228 0
-518 -517 -228 0
518 -517 228 0
518 517 -228 0
-519 518 229 0
-519 -518 -229 0
519 -518 229 0
519 518 -229 0
-520 519 230 0
-520 -519 -230 0
520 -519 230 0
520 519 -230 0
-521 520 231 0
-521 -520 -231 0
521 -520 231 0
521 520 -231 0
-522 521 232 0
-522 -521 -232 0
522 -521 232 0
522 521 -232 0
522 0
-233 -262 0
-234 -263 0
-235 -264 0
-236 -265 0
-237 -266 0
-238 -267 0
-239 -268 0
-240 -269 0
-241 -270 0
-242 -271 0
-243 -272 0
-244 -273 0
-245 -274 0
-246 -275 0
-247 -276 0
-248 -277 0
-249 -278 0
-250 -279 0
-251 -280 0
-252 -281 0
-253 -282 0
-254 -283 0
-255 -284 0
-256 -285 0
-257 -286 0
-258 -287 0
-259 -288 0
-260 -289 0
-261 -290 0
-233 -264 0
-235 -262 0
-233 -267 0
-238 -262 0
-233 -268 0
-239 -262 0
-233 -276 0
-247 -262 0
-233 -277 0
-248 -262 0
-233 -285 0
-256 -262 0
-233 -286 0
-257 -262 0
-233 -289 0
-260 -262 0
-234 -265 0
-236 -263 0
-234 -268 0
-239 -263 0
-234 -269 0
-240 -263 0
-234 -277 0
-248 -263 0
-234 -278 0
-249 -263 0
-234 -286 0
-257 -263 0
-234 -287 0
-258 -263 0
-234 -290 0
-261 -263 0
-235 -266 0
-237 -264 0
-235 -269 0
-240 -264 0
-235 -270 0
-241 -264 0
-235 -278 0
-249 -264 0
-235 -279 0
-250 -264 0
-235 -287 0
-258 -264 0
-235 -288 0
-259 -264 0
-236 -267 0
-238 -265 0
-236 -270 0
-241 -265 0
-236 -271 0
-242 -265 0
-236 -279 0
-250 -265 0
-236 -280 0
-251 -265 0
-236 -288 0
-259 -265 0
-236 -289 0
-260 -265 0
-237 -268 0
-239 -266 0
-237 -271 0
-242 -266 0
-237 -272 0
-243 -266 0
-237 -280 0
-251 -266 0
-237 -281 0
-252 -266 0
-237 -289 0
-260 -266 0
-237 -290 0
-261 -266 0
-238 -269 0
-240 -267 0
-238 -272 0
-243 -267 0
-238 -273 0
-244 -267 0
-238 -281 0
-252 -267 0
-238 -282 0
-253 -267 0
-238 -290 0
-261 -267 0
-239 -270 0
-241 -268 0
-239 -273 0
-244 -268 0
-239 -274 0
-245 -268 0
-239 -282 0
-253 -268 0
-239 -283 0
-254 -268 0
-240 -271 0
-242 -269 0
-240 -274 0
-245 -269 0
-240 -275 0
-246 -269 0
-240 -283 0
-254 -269 0
-240 -284 0
-255 -269 0
-241 -272 0
-243 -270 0
-241 -275 0
-246 -270 0
-241 -276 0
-247 -270 0
-241 -284 0
-255 -270 0
-241 -285 0
-256 -270 0
-242 -273 0
-244 -271 0
-242 -276 0
-247 -271 0
-242 -277 0
-248 -271 0
-242 -285 0
-256 -271 0
-242 -286 0
-257 -271 0
-243 -274 0
-245 -272 0
-243 -277 0
-248 -272 0
-243 -278 0
-249 -272 0
-243 -286 0
-257 -272 0
-243 -287 0
-258 -272 0
-244 -275 0
-246 -273 0
-244 -278 0
-249 -273 0
-244 -279 0
-250 -273 0
-244 -287 0
-258 -273 0
-244 -288 0
-259 -273 0
-245 -276 0
-247 -274 0
-245 -279 0
-250 -274 0
-245 -280 0
-251 -274 0
-245 -288 0
-259 -274 0
-245 -289 0
-260 -274 0
-246 -277 0
-248 -275 0
-246 -280 0
-251 -275 0
-246 -281 0
-252 -275 0
-246 -289 0
-260 -275 0
-246 -290 0
-261 -275 0
-247 -278 0
-249 -276 0
-247 -281 0
-252 -276 0
-247 -282 0
-253 -276 0
-247 -290 0
-261 -276 0
-248 -279 0
-250 -277 0
-248 -282 0
-253 -277 0
-248 -283 0
-254 -277 0
-249 -280 0
-251 -278 0
-249 -283 0
-254 -278 0
-249 -284 0
-255 -278 0
-250 -281 0
-252 -279 0
-250 -284 0
-255 -279 0
-250 -285 0
-256 -279 0
-251 -282 0
-253 -280 0
-251 -285 0
-256 -280 0
-251 -286 0
-257 -280 0
-252 -283 0
-254 -281 0
-252 -286 0
-257 -281 0
-252 -287 0
-258 -281 0
-253 -284 0
-255 -282 0
-253 -287 0
-258 -282 0
-253 -288 0
-259 -282 0
-254 -285 0
-256 -283 0
-254 -288 0
-259 -283 0
-254 -289 0
-260 -283 0
-255 -286 0
-257 -284 0
-255 -289 0
-260 -284 0
-255 -290 0
-261 -284 0
-256 -287 0
-258 -285 0
-256 -290 0
-261 -285 0
-257 -288 0
-259 -286 0
-258 -289 0
-260 -287 0
-259 -290 0
-261 -288 0
