p cnf 116 495
1 2 3 4 0
5 6 7 8 0
9 10 11 12 0
13 14 15 16 0
17 18 19 20 0
21 22 23 24 0
25 26 27 28 0
29 30 31 32 0
33 34 35 36 0
37 38 39 40 0
41 42 43 44 0
45 46 47 48 0
49 50 51 52 0
53 54 55 56 0
57 58 59 60 0
61 62 63 64 0
65 66 67 68 0
69 70 71 72 0
73 74 75 76 0
77 78 79 80 0
81 82 83 84 0
85 86 87 88 0
89 90 91 92 0
93 94 95 96 0
97 98 99 100 0
101 102 103 104 0
105 106 107 108 0
109 110 111 112 0
113 114 115 116 0
-1 -9 0
-2 -10 0
-3 -11 0
-4 -12 0
-1 -21 0
-2 -22 0
-3 -23 0
-4 -24 0
-1 -25 0
-2 -26 0
-3 -27 0
-4 -28 0
-1 -57 0
-2 -58 0
-3 -59 0
-4 -60 0
-1 -61 0
-2 -62 0
-3 -63 0
-4 -64 0
-1 -93 0
-2 -94 0
-3 -95 0
-4 -96 0
-1 -97 0
-2 -98 0
-3 -99 0
-4 -100 0
-1 -109 0
-2 -110 0
-3 -111 0
-4 -112 0
-5 -13 0
-6 -14 0
-7 -15 0
-8 -16 0
-5 -25 0
-6 -26 0
-7 -27 0
-8 -28 0
-5 -29 0
-6 -30 0
-7 -31 0
-8 -32 0
-5 -61 0
-6 -62 0
-7 -63 0
-8 -64 0
-5 -65 0
-6 -66 0
-7 -67 0
-8 -68 0
-5 -97 0
-6 -98 0
-7 -99 0
-8 -100 0
-5 -101 0
-6 -102 0
-7 -103 0
-8 -104 0
-5 -113 0
-6 -114 0
-7 -115 0
-8 -116 0
-9 -17 0
-10 -18 0
-11 -19 0
-12 -20 0
-9 -29 0
-10 -30 0
-11 -31 0
-12 -32 0
-9 -33 0
-10 -34 0
-11 -35 0
-12 -36 0
-9 -65 0
-10 -66 0
-11 -67 0
-12 -68 0
-9 -69 0
-10 -70 0
-11 -71 0
-12 -72 0
-9 -101 0
-10 -102 0
-11 -103 0
-12 -104 0
-9 -105 0
-10 -106 0
-11 -107 0
-12 -108 0
-13 -21 0
-14 -22 0
-15 -23 0
-16 -24 0
-13 -33 0
-14 -34 0
-15 -35 0
-16 -36 0
-13 -37 0
-14 -38 0
-15 -39 0
-16 -40 0
-13 -69 0
-14 -70 0
-15 -71 0
-16 -72 0
-13 -73 0
-14 -74 0
-15 -75 0
-16 -76 0
-13 -105 0
-14 -106 0
-15 -107 0
-16 -108 0
-13 -109 0
-14 -110 0
-15 -111 0
-16 -112 0
-17 -25 0
-18 -26 0
-19 -27 0
-20 -28 0
-17 -37 0
-18 -38 0
-19 -39 0
-20 -40 0
-17 -41 0
-18 -42 0
-19 -43 0
-20 -44 0
-17 -73 0
-18 -74 0
-19 -75 0
-20 -76 0
-17 -77 0
-18 -78 0
-19 -79 0
-20 -80 0
-17 -109 0
-18 -110 0
-19 -111 0
-20 -112 0
-17 -113 0
-18 -114 0
-19 -115 0
-20 -116 0
-21 -29 0
-22 -30 0
-23 -31 0
-24 -32 0
-21 -41 0
-22 -42 0
-23 -43 0
-24 -44 0
-21 -45 0
-22 -46 0
-23 -47 0
-24 -48 0
-21 -77 0
-22 -78 0
-23 -79 0
-24 -80 0
-21 -81 0
-22 -82 0
-23 -83 0
-24 -84 0
-21 -113 0
-22 -114 0
-23 -115 0
-24 -116 0
-25 -33 0
-26 -34 0
-27 -35 0
-28 -36 0
-25 -45 0
-26 -46 0
-27 -47 0
-28 -48 0
-25 -49 0
-26 -50 0
-27 -51 0
-28 -52 0
-25 -81 0
-26 -82 0
-27 -83 0
-28 -84 0
-25 -85 0
-26 -86 0
-27 -87 0
-28 -88 0
-29 -37 0
-30 -38 0
-31 -39 0
-32 -40 0
-29 -49 0
-30 -50 0
-31 -51 0
-32 -52 0
-29 -53 0
-30 -54 0
-31 -55 0
-32 -56 0
-29 -85 0
-30 -86 0
-31 -87 0
-32 -88 0
-29 -89 0
-30 -90 0
-31 -91 0
-32 -92 0
-33 -41 0
-34 -42 0
-35 -43 0
-36 -44 0
-33 -53 0
-34 -54 0
-35 -55 0
-36 -56 0
-33 -57 0
-34 -58 0
-35 -59 0
-36 -60 0
-33 -89 0
-34 -90 0
-35 -91 0
-36 -92 0
-33 -93 0
-34 -94 0
-35 -95 0
-36 -96 0
-37 -45 0
-38 -46 0
-39 -47 0
-40 -48 0
-37 -57 0
-38 -58 0
-39 -59 0
-40 -60 0
-37 -61 0
-38 -62 0
-39 -63 0
-40 -64 0
-37 -93 0
-38 -94 0
-39 -95 0
-40 -96 0
-37 -97 0
-38 -98 0
-39 -99 0
-40 -100 0
-41 -49 0
-42 -50 0
-43 -51 0
-44 -52 0
-41 -61 0
-42 -62 0
-43 -63 0
-44 -64 0
-41 -65 0
-42 -66 0
-43 -67 0
-44 -68 0
-41 -97 0
-42 -98 0
-43 -99 0
-44 -100 0
-41 -101 0
-42 -102 0
-43 -103 0
-44 -104 0
-45 -53 0
-46 -54 0
-47 -55 0
-48 -56 0
-45 -65 0
-46 -66 0
-47 -67 0
-48 -68 0
-45 -69 0
-46 -70 0
-47 -71 0
-48 -72 0
-45 -101 0
-46 -102 0
-47 -103 0
-48 -104 0
-45 -105 0
-46 -106 0
-47 -107 0
-48 -108 0
-49 -57 0
-50 -58 0
-51 -59 0
-52 -60 0
-49 -69 0
-50 -70 0
-51 -71 0
-52 -72 0
-49 -73 0
-50 -74 0
-51 -75 0
-52 -76 0
-49 -105 0
-50 -106 0
-51 -107 0
-52 -108 0
-49 -109 0
-50 -110 0
-51 -111 0
-52 -112 0
-53 -61 0
-54 -62 0
-55 -63 0
-56 -64 0
-53 -73 0
-54 -74 0
-55 -75 0
-56 -76 0
-53 -77 0
-54 -78 0
-55 -79 0
-56 -80 0
-53 -109 0
-54 -110 0
-55 -111 0
-56 -112 0
-53 -113 0
-54 -114 0
-55 -115 0
-56 -116 0
-57 -65 0
-58 -66 0
-59 -67 0
-60 -68 0
-57 -77 0
-58 -78 0
-59 -79 0
-60 -80 0
-57 -81 0
-58 -82 0
-59 -83 0
-60 -84 0
-57 -113 0
-58 -114 0
-59 -115 0
-60 -116 0
-61 -69 0
-62 -70 0
-63 -71 0
-64 -72 0
-61 -81 0
-62 -82 0
-63 -83 0
-64 -84 0
-61 -85 0
-62 -86 0
-63 -87 0
-64 -88 0
-65 -73 0
-66 -74 0
-67 -75 0
-68 -76 0
-65 -85 0
-66 -86 0
-67 -87 0
-68 -88 0
-65 -89 0
-66 -90 0
-67 -91 0
-68 -92 0
-69 -77 0
-70 -78 0
-71 -79 0
-72 -80 0
-69 -89 0
-70 -90 0
-71 -91 0
-72 -92 0
-69 -93 0
-70 -94 0
-71 -95 0
-72 -96 0
-73 -81 0
-74 -82 0
-75 -83 0
-76 -84 0
-73 -93 0
-74 -94 0
-75 -95 0
-76 -96 0
-73 -97 0
-74 -98 0
-75 -99 0
-76 -100 0
-77 -85 0
-78 -86 0
-79 -87 0
-80 -88 0
-77 -97 0
-78 -98 0
-79 -99 0
-80 -100 0
-77 -101 0
-78 -102 0
-79 -103 0
-80 -104 0
-81 -89 0
-82 -90 0
-83 -91 0
-84 -92 0
-81 -101 0
-82 -102 0
-83 -103 0
-84 -104 0
-81 -105 0
-82 -106 0
-83 -107 0
-84 -108 0
-85 -93 0
-86 -94 0
-87 -95 0
-88 -96 0
-85 -105 0
-86 -106 0
-87 -107 0
-88 -108 0
-85 -109 0
-86 -110 0
-87 -111 0
-88 -112 0
-89 -97 0
-90 -98 0
-91 -99 0
-92 -100 0
-89 -109 0
-90 -110 0
-91 -111 0
-92 -112 0
-89 -113 0
-90 -114 0
-91 -115 0
-92 -116 0
-93 -101 0
-94 -102 0
-95 -103 0
-96 -104 0
-93 -113 0
-94 -114 0
-95 -115 0
-96 -116 0
-97 -105 0
-98 -106 0
-99 -107 0
-100 -108 0
-101 -109 0
-102 -110 0
-103 -111 0
-104 -112 0
-105 -113 0
-106 -114 0
-107 -115 0
-108 -116 0
1 0
10 0
