p cnf 100 363
1 2 3 4 0
5 6 7 8 0
9 10 11 12 0
13 14 15 16 0
17 18 19 20 0
21 22 23 24 0
25 26 27 28 0
29 30 31 32 0
33 34 35 36 0
37 38 39 40 0
41 42 43 44 0
45 46 47 48 0
49 50 51 52 0
53 54 55 56 0
57 58 59 60 0
61 62 63 64 0
65 66 67 68 0
69 70 71 72 0
73 74 75 76 0
77 78 79 80 0
81 82 83 84 0
85 86 87 88 0
89 90 91 92 0
93 94 95 96 0
97 98 99 100 0
-1 -5 0
-2 -6 0
-3 -7 0
-4 -8 0
-1 -17 0
-2 -18 0
-3 -19 0
-4 -20 0
-1 -25 0
-2 -26 0
-3 -27 0
-4 -28 0
-1 -37 0
-2 -38 0
-3 -39 0
-4 -40 0
-1 -53 0
-2 -54 0
-3 -55 0
-4 -56 0
-1 -65 0
-2 -66 0
-3 -67 0
-4 -68 0
-1 -73 0
-2 -74 0
-3 -75 0
-4 -76 0
-1 -85 0
-2 -86 0
-3 -87 0
-4 -88 0
-5 -9 0
-6 -10 0
-7 -11 0
-8 -12 0
-5 -21 0
-6 -22 0
-7 -23 0
-8 -24 0
-5 -29 0
-6 -30 0
-7 -31 0
-8 -32 0
-5 -49 0
-6 -50 0
-7 -51 0
-8 -52 0
-5 -57 0
-6 -58 0
-7 -59 0
-8 -60 0
-5 -69 0
-6 -70 0
-7 -71 0
-8 -72 0
-5 -77 0
-6 -78 0
-7 -79 0
-8 -80 0
-9 -13 0
-10 -14 0
-11 -15 0
-12 -16 0
-9 -25 0
-10 -26 0
-11 -27 0
-12 -28 0
-9 -33 0
-10 -34 0
-11 -35 0
-12 -36 0
-9 -53 0
-10 -54 0
-11 -55 0
-12 -56 0
-9 -61 0
-10 -62 0
-11 -63 0
-12 -64 0
-9 -73 0
-10 -74 0
-11 -75 0
-12 -76 0
-9 -81 0
-10 -82 0
-11 -83 0
-12 -84 0
-13 -17 0
-14 -18 0
-15 -19 0
-16 -20 0
-13 -29 0
-14 -30 0
-15 -31 0
-16 -32 0
-13 -37 0
-14 -38 0
-15 -39 0
-16 -40 0
-13 -57 0
-14 -58 0
-15 -59 0
-16 -60 0
-13 -65 0
-14 -66 0
-15 -67 0
-16 -68 0
-13 -77 0
-14 -78 0
-15 -79 0
-16 -80 0
-13 -85 0
-14 -86 0
-15 -87 0
-16 -88 0
-17 -21 0
-18 -22 0
-19 -23 0
-20 -24 0
-17 -33 0
-18 -34 0
-19 -35 0
-20 -36 0
-17 -49 0
-18 -50 0
-19 -51 0
-20 -52 0
-17 -61 0
-18 -62 0
-19 -63 0
-20 -64 0
-17 -69 0
-18 -70 0
-19 -71 0
-20 -72 0
-17 -81 0
-18 -82 0
-19 -83 0
-20 -84 0
-21 -41 0
-22 -42 0
-23 -43 0
-24 -44 0
-21 -45 0
-22 -46 0
-23 -47 0
-24 -48 0
-21 -53 0
-22 -54 0
-23 -55 0
-24 -56 0
-21 -65 0
-22 -66 0
-23 -67 0
-24 -68 0
-21 -89 0
-22 -90 0
-23 -91 0
-24 -92 0
-21 -93 0
-22 -94 0
-23 -95 0
-24 -96 0
-25 -41 0
-26 -42 0
-27 -43 0
-28 -44 0
-25 -45 0
-26 -46 0
-27 -47 0
-28 -48 0
-25 -49 0
-26 -50 0
-27 -51 0
-28 -52 0
-25 -57 0
-26 -58 0
-27 -59 0
-28 -60 0
-25 -89 0
-26 -90 0
-27 -91 0
-28 -92 0
-25 -93 0
-26 -94 0
-27 -95 0
-28 -96 0
-29 -33 0
-30 -34 0
-31 -35 0
-32 -36 0
-29 -45 0
-30 -46 0
-31 -47 0
-32 -48 0
-29 -53 0
-30 -54 0
-31 -55 0
-32 -56 0
-29 -61 0
-30 -62 0
-31 -63 0
-32 -64 0
-29 -81 0
-30 -82 0
-31 -83 0
-32 -84 0
-29 -93 0
-30 -94 0
-31 -95 0
-32 -96 0
-33 -41 0
-34 -42 0
-35 -43 0
-36 -44 0
-33 -57 0
-34 -58 0
-35 -59 0
-36 -60 0
-33 -65 0
-34 -66 0
-35 -67 0
-36 -68 0
-33 -77 0
-34 -78 0
-35 -79 0
-36 -80 0
-33 -89 0
-34 -90 0
-35 -91 0
-36 -92 0
-37 -41 0
-38 -42 0
-39 -43 0
-40 -44 0
-37 -45 0
-38 -46 0
-39 -47 0
-40 -48 0
-37 -49 0
-38 -50 0
-39 -51 0
-40 -52 0
-37 -61 0
-38 -62 0
-39 -63 0
-40 -64 0
-37 -89 0
-38 -90 0
-39 -91 0
-40 -92 0
-37 -93 0
-38 -94 0
-39 -95 0
-40 -96 0
-41 -69 0
-42 -70 0
-43 -71 0
-44 -72 0
-41 -73 0
-42 -74 0
-43 -75 0
-44 -76 0
-41 -81 0
-42 -82 0
-43 -83 0
-44 -84 0
-41 -85 0
-42 -86 0
-43 -87 0
-44 -88 0
-45 -69 0
-46 -70 0
-47 -71 0
-48 -72 0
-45 -73 0
-46 -74 0
-47 -75 0
-48 -76 0
-45 -77 0
-46 -78 0
-47 -79 0
-48 -80 0
-45 -85 0
-46 -86 0
-47 -87 0
-48 -88 0
-49 -97 0
-50 -98 0
-51 -99 0
-52 -100 0
-53 -97 0
-54 -98 0
-55 -99 0
-56 -100 0
-57 -97 0
-58 -98 0
-59 -99 0
-60 -100 0
-61 -97 0
-62 -98 0
-63 -99 0
-64 -100 0
-65 -97 0
-66 -98 0
-67 -99 0
-68 -100 0
-69 -97 0
-70 -98 0
-71 -99 0
-72 -100 0
-73 -97 0
-74 -98 0
-75 -99 0
-76 -100 0
-77 -97 0
-78 -98 0
-79 -99 0
-80 -100 0
-81 -97 0
-82 -98 0
-83 -99 0
-84 -100 0
-85 -97 0
-86 -98 0
-87 -99 0
-88 -100 0
-89 -97 0
-90 -98 0
-91 -99 0
-92 -100 0
-93 -97 0
-94 -98 0
-95 -99 0
-96 -100 0
1 0
6 0
