p cnf 386 3559
-1 -2 -3 0
-1 -2 -4 0
-1 -2 -5 0
-1 -2 -6 0
-1 -2 -7 0
-1 -2 -8 0
-1 -3 -4 0
-1 -3 -5 0
-1 -3 -6 0
-1 -3 -7 0
-1 -3 -8 0
-1 -4 -5 0
-1 -4 -6 0
-1 -4 -7 0
-1 -4 -8 0
-1 -5 -6 0
-1 -5 -7 0
-1 -5 -8 0
-1 -6 -7 0
-1 -6 -8 0
-1 -7 -8 0
-2 -3 -4 0
-2 -3 -5 0
-2 -3 -6 0
-2 -3 -7 0
-2 -3 -8 0
-2 -4 -5 0
-2 -4 -6 0
-2 -4 -7 0
-2 -4 -8 0
-2 -5 -6 0
-2 -5 -7 0
-2 -5 -8 0
-2 -6 -7 0
-2 -6 -8 0
-2 -7 -8 0
-3 -4 -5 0
-3 -4 -6 0
-3 -4 -7 0
-3 -4 -8 0
-3 -5 -6 0
-3 -5 -7 0
-3 -5 -8 0
-3 -6 -7 0
-3 -6 -8 0
-3 -7 -8 0
-4 -5 -6 0
-4 -5 -7 0
-4 -5 -8 0
-4 -6 -7 0
-4 -6 -8 0
-4 -7 -8 0
-5 -6 -7 0
-5 -6 -8 0
-5 -7 -8 0
-6 -7 -8 0
-1 2 3 4 5 6 7 8 0
-2 1 3 4 5 6 7 8 0
-3 1 2 4 5 6 7 8 0
-4 1 2 3 5 6 7 8 0
-5 1 2 3 4 6 7 8 0
-6 1 2 3 4 5 7 8 0
-7 1 2 3 4 5 6 8 0
-8 1 2 3 4 5 6 7 0
-1 -9 -10 0
-1 -9 -11 0
-1 -9 -12 0
-1 -9 -13 0
-1 -9 -14 0
-1 -9 -15 0
-1 -10 -11 0
-1 -10 -12 0
-1 -10 -13 0
-1 -10 -14 0
-1 -10 -15 0
-1 -11 -12 0
-1 -11 -13 0
-1 -11 -14 0
-1 -11 -15 0
-1 -12 -13 0
-1 -12 -14 0
-1 -12 -15 0
-1 -13 -14 0
-1 -13 -15 0
-1 -14 -15 0
-9 -10 -11 0
-9 -10 -12 0
-9 -10 -13 0
-9 -10 -14 0
-9 -10 -15 0
-9 -11 -12 0
-9 -11 -13 0
-9 -11 -14 0
-9 -11 -15 0
-9 -12 -13 0
-9 -12 -14 0
-9 -12 -15 0
-9 -13 -14 0
-9 -13 -15 0
-9 -14 -15 0
-10 -11 -12 0
-10 -11 -13 0
-10 -11 -14 0
-10 -11 -15 0
-10 -12 -13 0
-10 -12 -14 0
-10 -12 -15 0
-10 -13 -14 0
-10 -13 -15 0
-10 -14 -15 0
-11 -12 -13 0
-11 -12 -14 0
-11 -12 -15 0
-11 -13 -14 0
-11 -13 -15 0
-11 -14 -15 0
-12 -13 -14 0
-12 -13 -15 0
-12 -14 -15 0
-13 -14 -15 0
-1 9 10 11 12 13 14 15 0
-9 1 10 11 12 13 14 15 0
-10 1 9 11 12 13 14 15 0
-11 1 9 10 12 13 14 15 0
-12 1 9 10 11 13 14 15 0
-13 1 9 10 11 12 14 15 0
-14 1 9 10 11 12 13 15 0
-15 1 9 10 11 12 13 14 0
-9 -16 -17 0
-9 -16 -18 0
-9 -16 -19 0
-9 -16 -20 0
-9 -16 -21 0
-9 -16 -22 0
-9 -17 -18 0
-9 -17 -19 0
-9 -17 -20 0
-9 -17 -21 0
-9 -17 -22 0
-9 -18 -19 0
-9 -18 -20 0
-9 -18 -21 0
-9 -18 -22 0
-9 -19 -20 0
-9 -19 -21 0
-9 -19 -22 0
-9 -20 -21 0
-9 -20 -22 0
-9 -21 -22 0
-16 -17 -18 0
-16 -17 -19 0
-16 -17 -20 0
-16 -17 -21 0
-16 -17 -22 0
-16 -18 -19 0
-16 -18 -20 0
-16 -18 -21 0
-16 -18 -22 0
-16 -19 -20 0
-16 -19 -21 0
-16 -19 -22 0
-16 -20 -21 0
-16 -20 -22 0
-16 -21 -22 0
-17 -18 -19 0
-17 -18 -20 0
-17 -18 -21 0
-17 -18 -22 0
-17 -19 -20 0
-17 -19 -21 0
-17 -19 -22 0
-17 -20 -21 0
-17 -20 -22 0
-17 -21 -22 0
-18 -19 -20 0
-18 -19 -21 0
-18 -19 -22 0
-18 -20 -21 0
-18 -20 -22 0
-18 -21 -22 0
-19 -20 -21 0
-19 -20 -22 0
-19 -21 -22 0
-20 -21 -22 0
-9 16 17 18 19 20 21 22 0
-16 9 17 18 19 20 21 22 0
-17 9 16 18 19 20 21 22 0
-18 9 16 17 19 20 21 22 0
-19 9 16 17 18 20 21 22 0
-20 9 16 17 18 19 21 22 0
-21 9 16 17 18 19 20 22 0
-22 9 16 17 18 19 20 21 0
-16 -23 -24 0
-16 -23 -25 0
-16 -23 -26 0
-16 -23 -27 0
-16 -23 -28 0
-16 -23 -29 0
-16 -24 -25 0
-16 -24 -26 0
-16 -24 -27 0
-16 -24 -28 0
-16 -24 -29 0
-16 -25 -26 0
-16 -25 -27 0
-16 -25 -28 0
-16 -25 -29 0
-16 -26 -27 0
-16 -26 -28 0
-16 -26 -29 0
-16 -27 -28 0
-16 -27 -29 0
-16 -28 -29 0
-23 -24 -25 0
-23 -24 -26 0
-23 -24 -27 0
-23 -24 -28 0
-23 -24 -29 0
-23 -25 -26 0
-23 -25 -27 0
-23 -25 -28 0
-23 -25 -29 0
-23 -26 -27 0
-23 -26 -28 0
-23 -26 -29 0
-23 -27 -28 0
-23 -27 -29 0
-23 -28 -29 0
-24 -25 -26 0
-24 -25 -27 0
-24 -25 -28 0
-24 -25 -29 0
-24 -26 -27 0
-24 -26 -28 0
-24 -26 -29 0
-24 -27 -28 0
-24 -27 -29 0
-24 -28 -29 0
-25 -26 -27 0
-25 -26 -28 0
-25 -26 -29 0
-25 -27 -28 0
-25 -27 -29 0
-25 -28 -29 0
-26 -27 -28 0
-26 -27 -29 0
-26 -28 -29 0
-27 -28 -29 0
-16 23 24 25 26 27 28 29 0
-23 16 24 25 26 27 28 29 0
-24 16 23 25 26 27 28 29 0
-25 16 23 24 26 27 28 29 0
-26 16 23 24 25 27 28 29 0
-27 16 23 24 25 26 28 29 0
-28 16 23 24 25 26 27 29 0
-29 16 23 24 25 26 27 28 0
-2 -23 -30 0
-2 -23 -31 0
-2 -23 -32 0
-2 -23 -33 0
-2 -23 -34 0
-2 -23 -35 0
-2 -30 -31 0
-2 -30 -32 0
-2 -30 -33 0
-2 -30 -34 0
-2 -30 -35 0
-2 -31 -32 0
-2 -31 -33 0
-2 -31 -34 0
-2 -31 -35 0
-2 -32 -33 0
-2 -32 -34 0
-2 -32 -35 0
-2 -33 -34 0
-2 -33 -35 0
-2 -34 -35 0
-23 -30 -31 0
-23 -30 -32 0
-23 -30 -33 0
-23 -30 -34 0
-23 -30 -35 0
-23 -31 -32 0
-23 -31 -33 0
-23 -31 -34 0
-23 -31 -35 0
-23 -32 -33 0
-23 -32 -34 0
-23 -32 -35 0
-23 -33 -34 0
-23 -33 -35 0
-23 -34 -35 0
-30 -31 -32 0
-30 -31 -33 0
-30 -31 -34 0
-30 -31 -35 0
-30 -32 -33 0
-30 -32 -34 0
-30 -32 -35 0
-30 -33 -34 0
-30 -33 -35 0
-30 -34 -35 0
-31 -32 -33 0
-31 -32 -34 0
-31 -32 -35 0
-31 -33 -34 0
-31 -33 -35 0
-31 -34 -35 0
-32 -33 -34 0
-32 -33 -35 0
-32 -34 -35 0
-33 -34 -35 0
-2 23 30 31 32 33 34 35 0
-23 2 30 31 32 33 34 35 0
-30 2 23 31 32 33 34 35 0
-31 2 23 30 32 33 34 35 0
-32 2 23 30 31 33 34 35 0
-33 2 23 30 31 32 34 35 0
-34 2 23 30 31 32 33 35 0
-35 2 23 30 31 32 33 34 0
-10 -30 -36 0
-10 -30 -37 0
-10 -30 -38 0
-10 -30 -39 0
-10 -30 -40 0
-10 -30 -41 0
-10 -36 -37 0
-10 -36 -38 0
-10 -36 -39 0
-10 -36 -40 0
-10 -36 -41 0
-10 -37 -38 0
-10 -37 -39 0
-10 -37 -40 0
-10 -37 -41 0
-10 -38 -39 0
-10 -38 -40 0
-10 -38 -41 0
-10 -39 -40 0
-10 -39 -41 0
-10 -40 -41 0
-30 -36 -37 0
-30 -36 -38 0
-30 -36 -39 0
-30 -36 -40 0
-30 -36 -41 0
-30 -37 -38 0
-30 -37 -39 0
-30 -37 -40 0
-30 -37 -41 0
-30 -38 -39 0
-30 -38 -40 0
-30 -38 -41 0
-30 -39 -40 0
-30 -39 -41 0
-30 -40 -41 0
-36 -37 -38 0
-36 -37 -39 0
-36 -37 -40 0
-36 -37 -41 0
-36 -38 -39 0
-36 -38 -40 0
-36 -38 -41 0
-36 -39 -40 0
-36 -39 -41 0
-36 -40 -41 0
-37 -38 -39 0
-37 -38 -40 0
-37 -38 -41 0
-37 -39 -40 0
-37 -39 -41 0
-37 -40 -41 0
-38 -39 -40 0
-38 -39 -41 0
-38 -40 -41 0
-39 -40 -41 0
-10 30 36 37 38 39 40 41 0
-30 10 36 37 38 39 40 41 0
-36 10 30 37 38 39 40 41 0
-37 10 30 36 38 39 40 41 0
-38 10 30 36 37 39 40 41 0
-39 10 30 36 37 38 40 41 0
-40 10 30 36 37 38 39 41 0
-41 10 30 36 37 38 39 40 0
-3 -17 -42 0
-3 -17 -43 0
-3 -17 -44 0
-3 -17 -45 0
-3 -17 -46 0
-3 -17 -47 0
-3 -42 -43 0
-3 -42 -44 0
-3 -42 -45 0
-3 -42 -46 0
-3 -42 -47 0
-3 -43 -44 0
-3 -43 -45 0
-3 -43 -46 0
-3 -43 -47 0
-3 -44 -45 0
-3 -44 -46 0
-3 -44 -47 0
-3 -45 -46 0
-3 -45 -47 0
-3 -46 -47 0
-17 -42 -43 0
-17 -42 -44 0
-17 -42 -45 0
-17 -42 -46 0
-17 -42 -47 0
-17 -43 -44 0
-17 -43 -45 0
-17 -43 -46 0
-17 -43 -47 0
-17 -44 -45 0
-17 -44 -46 0
-17 -44 -47 0
-17 -45 -46 0
-17 -45 -47 0
-17 -46 -47 0
-42 -43 -44 0
-42 -43 -45 0
-42 -43 -46 0
-42 -43 -47 0
-42 -44 -45 0
-42 -44 -46 0
-42 -44 -47 0
-42 -45 -46 0
-42 -45 -47 0
-42 -46 -47 0
-43 -44 -45 0
-43 -44 -46 0
-43 -44 -47 0
-43 -45 -46 0
-43 -45 -47 0
-43 -46 -47 0
-44 -45 -46 0
-44 -45 -47 0
-44 -46 -47 0
-45 -46 -47 0
-3 17 42 43 44 45 46 47 0
-17 3 42 43 44 45 46 47 0
-42 3 17 43 44 45 46 47 0
-43 3 17 42 44 45 46 47 0
-44 3 17 42 43 45 46 47 0
-45 3 17 42 43 44 46 47 0
-46 3 17 42 43 44 45 47 0
-47 3 17 42 43 44 45 46 0
-11 -24 -48 0
-11 -24 -49 0
-11 -24 -50 0
-11 -24 -51 0
-11 -24 -52 0
-11 -24 -53 0
-11 -48 -49 0
-11 -48 -50 0
-11 -48 -51 0
-11 -48 -52 0
-11 -48 -53 0
-11 -49 -50 0
-11 -49 -51 0
-11 -49 -52 0
-11 -49 -53 0
-11 -50 -51 0
-11 -50 -52 0
-11 -50 -53 0
-11 -51 -52 0
-11 -51 -53 0
-11 -52 -53 0
-24 -48 -49 0
-24 -48 -50 0
-24 -48 -51 0
-24 -48 -52 0
-24 -48 -53 0
-24 -49 -50 0
-24 -49 -51 0
-24 -49 -52 0
-24 -49 -53 0
-24 -50 -51 0
-24 -50 -52 0
-24 -50 -53 0
-24 -51 -52 0
-24 -51 -53 0
-24 -52 -53 0
-48 -49 -50 0
-48 -49 -51 0
-48 -49 -52 0
-48 -49 -53 0
-48 -50 -51 0
-48 -50 -52 0
-48 -50 -53 0
-48 -51 -52 0
-48 -51 -53 0
-48 -52 -53 0
-49 -50 -51 0
-49 -50 -52 0
-49 -50 -53 0
-49 -51 -52 0
-49 -51 -53 0
-49 -52 -53 0
-50 -51 -52 0
-50 -51 -53 0
-50 -52 -53 0
-51 -52 -53 0
-11 24 48 49 50 51 52 53 0
-24 11 48 49 50 51 52 53 0
-48 11 24 49 50 51 52 53 0
-49 11 24 48 50 51 52 53 0
-50 11 24 48 49 51 52 53 0
-51 11 24 48 49 50 52 53 0
-52 11 24 48 49 50 51 53 0
-53 11 24 48 49 50 51 52 0
-18 -31 -48 0
-18 -31 -54 0
-18 -31 -55 0
-18 -31 -56 0
-18 -31 -57 0
-18 -31 -58 0
-18 -48 -54 0
-18 -48 -55 0
-18 -48 -56 0
-18 -48 -57 0
-18 -48 -58 0
-18 -54 -55 0
-18 -54 -56 0
-18 -54 -57 0
-18 -54 -58 0
-18 -55 -56 0
-18 -55 -57 0
-18 -55 -58 0
-18 -56 -57 0
-18 -56 -58 0
-18 -57 -58 0
-31 -48 -54 0
-31 -48 -55 0
-31 -48 -56 0
-31 -48 -57 0
-31 -48 -58 0
-31 -54 -55 0
-31 -54 -56 0
-31 -54 -57 0
-31 -54 -58 0
-31 -55 -56 0
-31 -55 -57 0
-31 -55 -58 0
-31 -56 -57 0
-31 -56 -58 0
-31 -57 -58 0
-48 -54 -55 0
-48 -54 -56 0
-48 -54 -57 0
-48 -54 -58 0
-48 -55 -56 0
-48 -55 -57 0
-48 -55 -58 0
-48 -56 -57 0
-48 -56 -58 0
-48 -57 -58 0
-54 -55 -56 0
-54 -55 -57 0
-54 -55 -58 0
-54 -56 -57 0
-54 -56 -58 0
-54 -57 -58 0
-55 -56 -57 0
-55 -56 -58 0
-55 -57 -58 0
-56 -57 -58 0
-18 31 48 54 55 56 57 58 0
-31 18 48 54 55 56 57 58 0
-48 18 31 54 55 56 57 58 0
-54 18 31 48 55 56 57 58 0
-55 18 31 48 54 56 57 58 0
-56 18 31 48 54 55 57 58 0
-57 18 31 48 54 55 56 58 0
-58 18 31 48 54 55 56 57 0
-4 -25 -59 0
-4 -25 -60 0
-4 -25 -61 0
-4 -25 -62 0
-4 -25 -63 0
-4 -25 -64 0
-4 -59 -60 0
-4 -59 -61 0
-4 -59 -62 0
-4 -59 -63 0
-4 -59 -64 0
-4 -60 -61 0
-4 -60 -62 0
-4 -60 -63 0
-4 -60 -64 0
-4 -61 -62 0
-4 -61 -63 0
-4 -61 -64 0
-4 -62 -63 0
-4 -62 -64 0
-4 -63 -64 0
-25 -59 -60 0
-25 -59 -61 0
-25 -59 -62 0
-25 -59 -63 0
-25 -59 -64 0
-25 -60 -61 0
-25 -60 -62 0
-25 -60 -63 0
-25 -60 -64 0
-25 -61 -62 0
-25 -61 -63 0
-25 -61 -64 0
-25 -62 -63 0
-25 -62 -64 0
-25 -63 -64 0
-59 -60 -61 0
-59 -60 -62 0
-59 -60 -63 0
-59 -60 -64 0
-59 -61 -62 0
-59 -61 -63 0
-59 -61 -64 0
-59 -62 -63 0
-59 -62 -64 0
-59 -63 -64 0
-60 -61 -62 0
-60 -61 -63 0
-60 -61 -64 0
-60 -62 -63 0
-60 -62 -64 0
-60 -63 -64 0
-61 -62 -63 0
-61 -62 -64 0
-61 -63 -64 0
-62 -63 -64 0
-4 25 59 60 61 62 63 64 0
-25 4 59 60 61 62 63 64 0
-59 4 25 60 61 62 63 64 0
-60 4 25 59 61 62 63 64 0
-61 4 25 59 60 62 63 64 0
-62 4 25 59 60 61 63 64 0
-63 4 25 59 60 61 62 64 0
-64 4 25 59 60 61 62 63 0
-36 -42 -54 0
-36 -42 -59 0
-36 -42 -65 0
-36 -42 -66 0
-36 -42 -67 0
-36 -42 -68 0
-36 -54 -59 0
-36 -54 -65 0
-36 -54 -66 0
-36 -54 -67 0
-36 -54 -68 0
-36 -59 -65 0
-36 -59 -66 0
-36 -59 -67 0
-36 -59 -68 0
-36 -65 -66 0
-36 -65 -67 0
-36 -65 -68 0
-36 -66 -67 0
-36 -66 -68 0
-36 -67 -68 0
-42 -54 -59 0
-42 -54 -65 0
-42 -54 -66 0
-42 -54 -67 0
-42 -54 -68 0
-42 -59 -65 0
-42 -59 -66 0
-42 -59 -67 0
-42 -59 -68 0
-42 -65 -66 0
-42 -65 -67 0
-42 -65 -68 0
-42 -66 -67 0
-42 -66 -68 0
-42 -67 -68 0
-54 -59 -65 0
-54 -59 -66 0
-54 -59 -67 0
-54 -59 -68 0
-54 -65 -66 0
-54 -65 -67 0
-54 -65 -68 0
-54 -66 -67 0
-54 -66 -68 0
-54 -67 -68 0
-59 -65 -66 0
-59 -65 -67 0
-59 -65 -68 0
-59 -66 -67 0
-59 -66 -68 0
-59 -67 -68 0
-65 -66 -67 0
-65 -66 -68 0
-65 -67 -68 0
-66 -67 -68 0
-36 42 54 59 65 66 67 68 0
-42 36 54 59 65 66 67 68 0
-54 36 42 59 65 66 67 68 0
-59 36 42 54 65 66 67 68 0
-65 36 42 54 59 66 67 68 0
-66 36 42 54 59 65 67 68 0
-67 36 42 54 59 65 66 68 0
-68 36 42 54 59 65 66 67 0
-37 -43 -49 0
-37 -43 -60 0
-37 -43 -69 0
-37 -43 -70 0
-37 -43 -71 0
-37 -43 -72 0
-37 -49 -60 0
-37 -49 -69 0
-37 -49 -70 0
-37 -49 -71 0
-37 -49 -72 0
-37 -60 -69 0
-37 -60 -70 0
-37 -60 -71 0
-37 -60 -72 0
-37 -69 -70 0
-37 -69 -71 0
-37 -69 -72 0
-37 -70 -71 0
-37 -70 -72 0
-37 -71 -72 0
-43 -49 -60 0
-43 -49 -69 0
-43 -49 -70 0
-43 -49 -71 0
-43 -49 -72 0
-43 -60 -69 0
-43 -60 -70 0
-43 -60 -71 0
-43 -60 -72 0
-43 -69 -70 0
-43 -69 -71 0
-43 -69 -72 0
-43 -70 -71 0
-43 -70 -72 0
-43 -71 -72 0
-49 -60 -69 0
-49 -60 -70 0
-49 -60 -71 0
-49 -60 -72 0
-49 -69 -70 0
-49 -69 -71 0
-49 -69 -72 0
-49 -70 -71 0
-49 -70 -72 0
-49 -71 -72 0
-60 -69 -70 0
-60 -69 -71 0
-60 -69 -72 0
-60 -70 -71 0
-60 -70 -72 0
-60 -71 -72 0
-69 -70 -71 0
-69 -70 -72 0
-69 -71 -72 0
-70 -71 -72 0
-37 43 49 60 69 70 71 72 0
-43 37 49 60 69 70 71 72 0
-49 37 43 60 69 70 71 72 0
-60 37 43 49 69 70 71 72 0
-69 37 43 49 60 70 71 72 0
-70 37 43 49 60 69 71 72 0
-71 37 43 49 60 69 70 72 0
-72 37 43 49 60 69 70 71 0
-12 -32 -44 0
-12 -32 -61 0
-12 -32 -73 0
-12 -44 -61 0
-12 -44 -73 0
-12 -61 -73 0
-32 -44 -61 0
-32 -44 -73 0
-32 -61 -73 0
-44 -61 -73 0
-12 32 44 61 73 0
-32 12 44 61 73 0
-44 12 32 61 73 0
-61 12 32 44 73 0
-73 12 32 44 61 0
-5 -19 -38 0
-5 -19 -50 0
-5 -19 -74 0
-5 -38 -50 0
-5 -38 -74 0
-5 -50 -74 0
-19 -38 -50 0
-19 -38 -74 0
-19 -50 -74 0
-38 -50 -74 0
-5 19 38 50 74 0
-19 5 38 50 74 0
-38 5 19 50 74 0
-50 5 19 38 74 0
-74 5 19 38 50 0
-13 -26 -45 0
-13 -26 -55 0
-13 -26 -75 0
-13 -45 -55 0
-13 -45 -75 0
-13 -55 -75 0
-26 -45 -55 0
-26 -45 -75 0
-26 -55 -75 0
-45 -55 -75 0
-13 26 45 55 75 0
-26 13 45 55 75 0
-45 13 26 55 75 0
-55 13 26 45 75 0
-75 13 26 45 55 0
-20 -33 -51 0
-20 -33 -62 0
-20 -33 -76 0
-20 -51 -62 0
-20 -51 -76 0
-20 -62 -76 0
-33 -51 -62 0
-33 -51 -76 0
-33 -62 -76 0
-51 -62 -76 0
-20 33 51 62 76 0
-33 20 51 62 76 0
-51 20 33 62 76 0
-62 20 33 51 76 0
-76 20 33 51 62 0
-6 -27 -39 0
-6 -27 -56 0
-6 -27 -77 0
-6 -39 -56 0
-6 -39 -77 0
-6 -56 -77 0
-27 -39 -56 0
-27 -39 -77 0
-27 -56 -77 0
-39 -56 -77 0
-6 27 39 56 77 0
-27 6 39 56 77 0
-39 6 27 56 77 0
-56 6 27 39 77 0
-77 6 27 39 56 0
-14 -34 -65 0
-14 -34 -69 0
-14 -34 -78 0
-14 -65 -69 0
-14 -65 -78 0
-14 -69 -78 0
-34 -65 -69 0
-34 -65 -78 0
-34 -69 -78 0
-65 -69 -78 0
-14 34 65 69 78 0
-34 14 65 69 78 0
-65 14 34 69 78 0
-69 14 34 65 78 0
-78 14 34 65 69 0
-7 -21 -66 0
-7 -21 -70 0
-7 -21 -79 0
-7 -66 -70 0
-7 -66 -79 0
-7 -70 -79 0
-21 -66 -70 0
-21 -66 -79 0
-21 -70 -79 0
-66 -70 -79 0
-7 21 66 70 79 0
-21 7 66 70 79 0
-66 7 21 70 79 0
-70 7 21 66 79 0
-79 7 21 66 70 0
-15 -28 -57 0
-15 -28 -71 0
-15 -28 -80 0
-15 -57 -71 0
-15 -57 -80 0
-15 -71 -80 0
-28 -57 -71 0
-28 -57 -80 0
-28 -71 -80 0
-57 -71 -80 0
-15 28 57 71 80 0
-28 15 57 71 80 0
-57 15 28 71 80 0
-71 15 28 57 80 0
-80 15 28 57 71 0
-22 -35 -52 0
-22 -35 -67 0
-22 -35 -81 0
-22 -52 -67 0
-22 -52 -81 0
-22 -67 -81 0
-35 -52 -67 0
-35 -52 -81 0
-35 -67 -81 0
-52 -67 -81 0
-22 35 52 67 81 0
-35 22 52 67 81 0
-52 22 35 67 81 0
-67 22 35 52 81 0
-81 22 35 52 67 0
-8 -29 -68 0
-8 -29 -72 0
-8 -29 -82 0
-8 -68 -72 0
-8 -68 -82 0
-8 -72 -82 0
-29 -68 -72 0
-29 -68 -82 0
-29 -72 -82 0
-68 -72 -82 0
-8 29 68 72 82 0
-29 8 68 72 82 0
-68 8 29 72 82 0
-72 8 29 68 82 0
-82 8 29 68 72 0
-40 -46 -58 0
-40 -46 -63 0
-40 -46 -83 0
-40 -58 -63 0
-40 -58 -83 0
-40 -63 -83 0
-46 -58 -63 0
-46 -58 -83 0
-46 -63 -83 0
-58 -63 -83 0
-40 46 58 63 83 0
-46 40 58 63 83 0
-58 40 46 63 83 0
-63 40 46 58 83 0
-83 40 46 58 63 0
-41 -47 -53 0
-41 -47 -64 0
-41 -47 -84 0
-41 -53 -64 0
-41 -53 -84 0
-41 -64 -84 0
-47 -53 -64 0
-47 -53 -84 0
-47 -64 -84 0
-53 -64 -84 0
-41 47 53 64 84 0
-47 41 53 64 84 0
-53 41 47 64 84 0
-64 41 47 53 84 0
-84 41 47 53 64 0
-73 -74 -75 0
-73 -74 -76 0
-73 -74 -77 0
-73 -74 -78 0
-73 -74 -79 0
-73 -74 -80 0
-73 -74 -81 0
-73 -74 -82 0
-73 -74 -83 0
-73 -74 -84 0
-73 -75 -76 0
-73 -75 -77 0
-73 -75 -78 0
-73 -75 -79 0
-73 -75 -80 0
-73 -75 -81 0
-73 -75 -82 0
-73 -75 -83 0
-73 -75 -84 0
-73 -76 -77 0
-73 -76 -78 0
-73 -76 -79 0
-73 -76 -80 0
-73 -76 -81 0
-73 -76 -82 0
-73 -76 -83 0
-73 -76 -84 0
-73 -77 -78 0
-73 -77 -79 0
-73 -77 -80 0
-73 -77 -81 0
-73 -77 -82 0
-73 -77 -83 0
-73 -77 -84 0
-73 -78 -79 0
-73 -78 -80 0
-73 -78 -81 0
-73 -78 -82 0
-73 -78 -83 0
-73 -78 -84 0
-73 -79 -80 0
-73 -79 -81 0
-73 -79 -82 0
-73 -79 -83 0
-73 -79 -84 0
-73 -80 -81 0
-73 -80 -82 0
-73 -80 -83 0
-73 -80 -84 0
-73 -81 -82 0
-73 -81 -83 0
-73 -81 -84 0
-73 -82 -83 0
-73 -82 -84 0
-73 -83 -84 0
-74 -75 -76 0
-74 -75 -77 0
-74 -75 -78 0
-74 -75 -79 0
-74 -75 -80 0
-74 -75 -81 0
-74 -75 -82 0
-74 -75 -83 0
-74 -75 -84 0
-74 -76 -77 0
-74 -76 -78 0
-74 -76 -79 0
-74 -76 -80 0
-74 -76 -81 0
-74 -76 -82 0
-74 -76 -83 0
-74 -76 -84 0
-74 -77 -78 0
-74 -77 -79 0
-74 -77 -80 0
-74 -77 -81 0
-74 -77 -82 0
-74 -77 -83 0
-74 -77 -84 0
-74 -78 -79 0
-74 -78 -80 0
-74 -78 -81 0
-74 -78 -82 0
-74 -78 -83 0
-74 -78 -84 0
-74 -79 -80 0
-74 -79 -81 0
-74 -79 -82 0
-74 -79 -83 0
-74 -79 -84 0
-74 -80 -81 0
-74 -80 -82 0
-74 -80 -83 0
-74 -80 -84 0
-74 -81 -82 0
-74 -81 -83 0
-74 -81 -84 0
-74 -82 -83 0
-74 -82 -84 0
-74 -83 -84 0
-75 -76 -77 0
-75 -76 -78 0
-75 -76 -79 0
-75 -76 -80 0
-75 -76 -81 0
-75 -76 -82 0
-75 -76 -83 0
-75 -76 -84 0
-75 -77 -78 0
-75 -77 -79 0
-75 -77 -80 0
-75 -77 -81 0
-75 -77 -82 0
-75 -77 -83 0
-75 -77 -84 0
-75 -78 -79 0
-75 -78 -80 0
-75 -78 -81 0
-75 -78 -82 0
-75 -78 -83 0
-75 -78 -84 0
-75 -79 -80 0
-75 -79 -81 0
-75 -79 -82 0
-75 -79 -83 0
-75 -79 -84 0
-75 -80 -81 0
-75 -80 -82 0
-75 -80 -83 0
-75 -80 -84 0
-75 -81 -82 0
-75 -81 -83 0
-75 -81 -84 0
-75 -82 -83 0
-75 -82 -84 0
-75 -83 -84 0
-76 -77 -78 0
-76 -77 -79 0
-76 -77 -80 0
-76 -77 -81 0
-76 -77 -82 0
-76 -77 -83 0
-76 -77 -84 0
-76 -78 -79 0
-76 -78 -80 0
-76 -78 -81 0
-76 -78 -82 0
-76 -78 -83 0
-76 -78 -84 0
-76 -79 -80 0
-76 -79 -81 0
-76 -79 -82 0
-76 -79 -83 0
-76 -79 -84 0
-76 -80 -81 0
-76 -80 -82 0
-76 -80 -83 0
-76 -80 -84 0
-76 -81 -82 0
-76 -81 -83 0
-76 -81 -84 0
-76 -82 -83 0
-76 -82 -84 0
-76 -83 -84 0
-77 -78 -79 0
-77 -78 -80 0
-77 -78 -81 0
-77 -78 -82 0
-77 -78 -83 0
-77 -78 -84 0
-77 -79 -80 0
-77 -79 -81 0
-77 -79 -82 0
-77 -79 -83 0
-77 -79 -84 0
-77 -80 -81 0
-77 -80 -82 0
-77 -80 -83 0
-77 -80 -84 0
-77 -81 -82 0
-77 -81 -83 0
-77 -81 -84 0
-77 -82 -83 0
-77 -82 -84 0
-77 -83 -84 0
-78 -79 -80 0
-78 -79 -81 0
-78 -79 -82 0
-78 -79 -83 0
-78 -79 -84 0
-78 -80 -81 0
-78 -80 -82 0
-78 -80 -83 0
-78 -80 -84 0
-78 -81 -82 0
-78 -81 -83 0
-78 -81 -84 0
-78 -82 -83 0
-78 -82 -84 0
-78 -83 -84 0
-79 -80 -81 0
-79 -80 -82 0
-79 -80 -83 0
-79 -80 -84 0
-79 -81 -82 0
-79 -81 -83 0
-79 -81 -84 0
-79 -82 -83 0
-79 -82 -84 0
-79 -83 -84 0
-80 -81 -82 0
-80 -81 -83 0
-80 -81 -84 0
-80 -82 -83 0
-80 -82 -84 0
-80 -83 -84 0
-81 -82 -83 0
-81 -82 -84 0
-81 -83 -84 0
-82 -83 -84 0
-73 74 75 76 77 78 79 80 81 82 83 84 0
-74 73 75 76 77 78 79 80 81 82 83 84 0
-75 73 74 76 77 78 79 80 81 82 83 84 0
-76 73 74 75 77 78 79 80 81 82 83 84 0
-77 73 74 75 76 78 79 80 81 82 83 84 0
-78 73 74 75 76 77 79 80 81 82 83 84 0
-79 73 74 75 76 77 78 80 81 82 83 84 0
-80 73 74 75 76 77 78 79 81 82 83 84 0
-81 73 74 75 76 77 78 79 80 82 83 84 0
-82 73 74 75 76 77 78 79 80 81 83 84 0
-83 73 74 75 76 77 78 79 80 81 82 84 0
-84 73 74 75 76 77 78 79 80 81 82 83 0
-1 169 0
-1 170 0
-2 169 0
-2 173 0
-3 169 0
-3 175 0
-4 169 0
-4 178 0
-5 169 0
-5 182 0
-6 169 0
-6 185 0
-7 169 0
-7 187 0
-8 169 0
-8 190 0
-9 170 0
-9 171 0
-10 170 0
-10 174 0
-11 170 0
-11 176 0
-12 170 0
-12 181 0
-13 170 0
-13 183 0
-14 170 0
-14 186 0
-15 170 0
-15 188 0
-16 171 0
-16 172 0
-17 171 0
-17 175 0
-18 171 0
-18 177 0
-19 171 0
-19 182 0
-20 171 0
-20 184 0
-21 171 0
-21 187 0
-22 171 0
-22 189 0
-23 172 0
-23 173 0
-24 172 0
-24 176 0
-25 172 0
-25 178 0
-26 172 0
-26 183 0
-27 172 0
-27 185 0
-28 172 0
-28 188 0
-29 172 0
-29 190 0
-30 173 0
-30 174 0
-31 173 0
-31 177 0
-32 173 0
-32 181 0
-33 173 0
-33 184 0
-34 173 0
-34 186 0
-35 173 0
-35 189 0
-36 174 0
-36 179 0
-37 174 0
-37 180 0
-38 174 0
-38 182 0
-39 174 0
-39 185 0
-40 174 0
-40 191 0
-41 174 0
-41 192 0
-42 175 0
-42 179 0
-43 175 0
-43 180 0
-44 175 0
-44 181 0
-45 175 0
-45 183 0
-46 175 0
-46 191 0
-47 175 0
-47 192 0
-48 176 0
-48 177 0
-49 176 0
-49 180 0
-50 176 0
-50 182 0
-51 176 0
-51 184 0
-52 176 0
-52 189 0
-53 176 0
-53 192 0
-54 177 0
-54 179 0
-55 177 0
-55 183 0
-56 177 0
-56 185 0
-57 177 0
-57 188 0
-58 177 0
-58 191 0
-59 178 0
-59 179 0
-60 178 0
-60 180 0
-61 178 0
-61 181 0
-62 178 0
-62 184 0
-63 178 0
-63 191 0
-64 178 0
-64 192 0
-65 179 0
-65 186 0
-66 179 0
-66 187 0
-67 179 0
-67 189 0
-68 179 0
-68 190 0
-69 180 0
-69 186 0
-70 180 0
-70 187 0
-71 180 0
-71 188 0
-72 180 0
-72 190 0
-73 181 0
-73 193 0
-74 182 0
-74 193 0
-75 183 0
-75 193 0
-76 184 0
-76 193 0
-77 185 0
-77 193 0
-78 186 0
-78 193 0
-79 187 0
-79 193 0
-80 188 0
-80 193 0
-81 189 0
-81 193 0
-82 190 0
-82 193 0
-83 191 0
-83 193 0
-84 192 0
-84 193 0
-219 1 0
219 -1 0
-220 219 2 0
-220 -219 -2 0
220 -219 2 0
220 219 -2 0
-221 220 3 0
-221 -220 -3 0
221 -220 3 0
221 220 -3 0
-222 221 4 0
-222 -221 -4 0
222 -221 4 0
222 221 -4 0
-223 222 5 0
-223 -222 -5 0
223 -222 5 0
223 222 -5 0
-224 223 6 0
-224 -223 -6 0
224 -223 6 0
224 223 -6 0
-225 224 7 0
-225 -224 -7 0
225 -224 7 0
225 224 -7 0
-226 225 8 0
-226 -225 -8 0
226 -225 8 0
226 225 -8 0
-227 226 9 0
-227 -226 -9 0
227 -226 9 0
227 226 -9 0
-228 227 10 0
-228 -227 -10 0
228 -227 10 0
228 227 -10 0
-229 228 11 0
-229 -228 -11 0
229 -228 11 0
229 228 -11 0
-230 229 12 0
-230 -229 -12 0
230 -229 12 0
230 229 -12 0
-231 230 13 0
-231 -230 -13 0
231 -230 13 0
231 230 -13 0
-232 231 14 0
-232 -231 -14 0
232 -231 14 0
232 231 -14 0
-233 232 15 0
-233 -232 -15 0
233 -232 15 0
233 232 -15 0
-234 233 16 0
-234 -233 -16 0
234 -233 16 0
234 233 -16 0
-235 234 17 0
-235 -234 -17 0
235 -234 17 0
235 234 -17 0
-236 235 18 0
-236 -235 -18 0
236 -235 18 0
236 235 -18 0
-237 236 19 0
-237 -236 -19 0
237 -236 19 0
237 236 -19 0
-238 237 20 0
-238 -237 -20 0
238 -237 20 0
238 237 -20 0
-239 238 21 0
-239 -238 -21 0
239 -238 21 0
239 238 -21 0
-240 239 22 0
-240 -239 -22 0
240 -239 22 0
240 239 -22 0
-241 240 23 0
-241 -240 -23 0
241 -240 23 0
241 240 -23 0
-242 241 24 0
-242 -241 -24 0
242 -241 24 0
242 241 -24 0
-243 242 25 0
-243 -242 -25 0
243 -242 25 0
243 242 -25 0
-244 243 26 0
-244 -243 -26 0
244 -243 26 0
244 243 -26 0
-245 244 27 0
-245 -244 -27 0
245 -244 27 0
245 244 -27 0
-246 245 28 0
-246 -245 -28 0
246 -245 28 0
246 245 -28 0
-247 246 29 0
-247 -246 -29 0
247 -246 29 0
247 246 -29 0
-248 247 30 0
-248 -247 -30 0
248 -247 30 0
248 247 -30 0
-249 248 31 0
-249 -248 -31 0
249 -248 31 0
249 248 -31 0
-250 249 32 0
-250 -249 -32 0
250 -249 32 0
250 249 -32 0
-251 250 33 0
-251 -250 -33 0
251 -250 33 0
251 250 -33 0
-252 251 34 0
-252 -251 -34 0
252 -251 34 0
252 251 -34 0
-253 252 35 0
-253 -252 -35 0
253 -252 35 0
253 252 -35 0
-254 253 36 0
-254 -253 -36 0
254 -253 36 0
254 253 -36 0
-255 254 37 0
-255 -254 -37 0
255 -254 37 0
255 254 -37 0
-256 255 38 0
-256 -255 -38 0
256 -255 38 0
256 255 -38 0
-257 256 39 0
-257 -256 -39 0
257 -256 39 0
257 256 -39 0
-258 257 40 0
-258 -257 -40 0
258 -257 40 0
258 257 -40 0
-259 258 41 0
-259 -258 -41 0
259 -258 41 0
259 258 -41 0
-260 259 42 0
-260 -259 -42 0
260 -259 42 0
260 259 -42 0
-261 260 43 0
-261 -260 -43 0
261 -260 43 0
261 260 -43 0
-262 261 44 0
-262 -261 -44 0
262 -261 44 0
262 261 -44 0
-263 262 45 0
-263 -262 -45 0
263 -262 45 0
263 262 -45 0
-264 263 46 0
-264 -263 -46 0
264 -263 46 0
264 263 -46 0
-265 264 47 0
-265 -264 -47 0
265 -264 47 0
265 264 -47 0
-266 265 48 0
-266 -265 -48 0
266 -265 48 0
266 265 -48 0
-267 266 49 0
-267 -266 -49 0
267 -266 49 0
267 266 -49 0
-268 267 50 0
-268 -267 -50 0
268 -267 50 0
268 267 -50 0
-269 268 51 0
-269 -268 -51 0
269 -268 51 0
269 268 -51 0
-270 269 52 0
-270 -269 -52 0
270 -269 52 0
270 269 -52 0
-271 270 53 0
-271 -270 -53 0
271 -270 53 0
271 270 -53 0
-272 271 54 0
-272 -271 -54 0
272 -271 54 0
272 271 -54 0
-273 272 55 0
-273 -272 -55 0
273 -272 55 0
273 272 -55 0
-274 273 56 0
-274 -273 -56 0
274 -273 56 0
274 273 -56 0
-275 274 57 0
-275 -274 -57 0
275 -274 57 0
275 274 -57 0
-276 275 58 0
-276 -275 -58 0
276 -275 58 0
276 275 -58 0
-277 276 59 0
-277 -276 -59 0
277 -276 59 0
277 276 -59 0
-278 277 60 0
-278 -277 -60 0
278 -277 60 0
278 277 -60 0
-279 278 61 0
-279 -278 -61 0
279 -278 61 0
279 278 -61 0
-280 279 62 0
-280 -279 -62 0
280 -279 62 0
280 279 -62 0
-281 280 63 0
-281 -280 -63 0
281 -280 63 0
281 280 -63 0
-282 281 64 0
-282 -281 -64 0
282 -281 64 0
282 281 -64 0
-283 282 65 0
-283 -282 -65 0
283 -282 65 0
283 282 -65 0
-284 283 66 0
-284 -283 -66 0
284 -283 66 0
284 283 -66 0
-285 284 67 0
-285 -284 -67 0
285 -284 67 0
285 284 -67 0
-286 285 68 0
-286 -285 -68 0
286 -285 68 0
286 285 -68 0
-287 286 69 0
-287 -286 -69 0
287 -286 69 0
287 286 -69 0
-288 287 70 0
-288 -287 -70 0
288 -287 70 0
288 287 -70 0
-289 288 71 0
-289 -288 -71 0
289 -288 71 0
289 288 -71 0
-290 289 72 0
-290 -289 -72 0
290 -289 72 0
290 289 -72 0
-291 290 73 0
-291 -290 -73 0
291 -290 73 0
291 290 -73 0
-292 291 74 0
-292 -291 -74 0
292 -291 74 0
292 291 -74 0
-293 292 75 0
-293 -292 -75 0
293 -292 75 0
293 292 -75 0
-294 293 76 0
-294 -293 -76 0
294 -293 76 0
294 293 -76 0
-295 294 77 0
-295 -294 -77 0
295 -294 77 0
295 294 -77 0
-296 295 78 0
-296 -295 -78 0
296 -295 78 0
296 295 -78 0
-297 296 79 0
-297 -296 -79 0
297 -296 79 0
297 296 -79 0
-298 297 80 0
-298 -297 -80 0
298 -297 80 0
298 297 -80 0
-299 298 81 0
-299 -298 -81 0
299 -298 81 0
299 298 -81 0
-300 299 82 0
-300 -299 -82 0
300 -299 82 0
300 299 -82 0
-301 300 83 0
-301 -300 -83 0
301 -300 83 0
301 300 -83 0
-302 301 84 0
-302 -301 -84 0
302 -301 84 0
302 301 -84 0
302 0
-85 -86 -87 0
-85 -86 -88 0
-85 -86 -89 0
-85 -86 -90 0
-85 -86 -91 0
-85 -86 -92 0
-85 -87 -88 0
-85 -87 -89 0
-85 -87 -90 0
-85 -87 -91 0
-85 -87 -92 0
-85 -88 -89 0
-85 -88 -90 0
-85 -88 -91 0
-85 -88 -92 0
-85 -89 -90 0
-85 -89 -91 0
-85 -89 -92 0
-85 -90 -91 0
-85 -90 -92 0
-85 -91 -92 0
-86 -87 -88 0
-86 -87 -89 0
-86 -87 -90 0
-86 -87 -91 0
-86 -87 -92 0
-86 -88 -89 0
-86 -88 -90 0
-86 -88 -91 0
-86 -88 -92 0
-86 -89 -90 0
-86 -89 -91 0
-86 -89 -92 0
-86 -90 -91 0
-86 -90 -92 0
-86 -91 -92 0
-87 -88 -89 0
-87 -88 -90 0
-87 -88 -91 0
-87 -88 -92 0
-87 -89 -90 0
-87 -89 -91 0
-87 -89 -92 0
-87 -90 -91 0
-87 -90 -92 0
-87 -91 -92 0
-88 -89 -90 0
-88 -89 -91 0
-88 -89 -92 0
-88 -90 -91 0
-88 -90 -92 0
-88 -91 -92 0
-89 -90 -91 0
-89 -90 -92 0
-89 -91 -92 0
-90 -91 -92 0
-85 86 87 88 89 90 91 92 0
-86 85 87 88 89 90 91 92 0
-87 85 86 88 89 90 91 92 0
-88 85 86 87 89 90 91 92 0
-89 85 86 87 88 90 91 92 0
-90 85 86 87 88 89 91 92 0
-91 85 86 87 88 89 90 92 0
-92 85 86 87 88 89 90 91 0
-85 -93 -94 0
-85 -93 -95 0
-85 -93 -96 0
-85 -93 -97 0
-85 -93 -98 0
-85 -93 -99 0
-85 -94 -95 0
-85 -94 -96 0
-85 -94 -97 0
-85 -94 -98 0
-85 -94 -99 0
-85 -95 -96 0
-85 -95 -97 0
-85 -95 -98 0
-85 -95 -99 0
-85 -96 -97 0
-85 -96 -98 0
-85 -96 -99 0
-85 -97 -98 0
-85 -97 -99 0
-85 -98 -99 0
-93 -94 -95 0
-93 -94 -96 0
-93 -94 -97 0
-93 -94 -98 0
-93 -94 -99 0
-93 -95 -96 0
-93 -95 -97 0
-93 -95 -98 0
-93 -95 -99 0
-93 -96 -97 0
-93 -96 -98 0
-93 -96 -99 0
-93 -97 -98 0
-93 -97 -99 0
-93 -98 -99 0
-94 -95 -96 0
-94 -95 -97 0
-94 -95 -98 0
-94 -95 -99 0
-94 -96 -97 0
-94 -96 -98 0
-94 -96 -99 0
-94 -97 -98 0
-94 -97 -99 0
-94 -98 -99 0
-95 -96 -97 0
-95 -96 -98 0
-95 -96 -99 0
-95 -97 -98 0
-95 -97 -99 0
-95 -98 -99 0
-96 -97 -98 0
-96 -97 -99 0
-96 -98 -99 0
-97 -98 -99 0
-85 93 94 95 96 97 98 99 0
-93 85 94 95 96 97 98 99 0
-94 85 93 95 96 97 98 99 0
-95 85 93 94 96 97 98 99 0
-96 85 93 94 95 97 98 99 0
-97 85 93 94 95 96 98 99 0
-98 85 93 94 95 96 97 99 0
-99 85 93 94 95 96 97 98 0
-93 -100 -101 0
-93 -100 -102 0
-93 -100 -103 0
-93 -100 -104 0
-93 -100 -105 0
-93 -100 -106 0
-93 -101 -102 0
-93 -101 -103 0
-93 -101 -104 0
-93 -101 -105 0
-93 -101 -106 0
-93 -102 -103 0
-93 -102 -104 0
-93 -102 -105 0
-93 -102 -106 0
-93 -103 -104 0
-93 -103 -105 0
-93 -103 -106 0
-93 -104 -105 0
-93 -104 -106 0
-93 -105 -106 0
-100 -101 -102 0
-100 -101 -103 0
-100 -101 -104 0
-100 -101 -105 0
-100 -101 -106 0
-100 -102 -103 0
-100 -102 -104 0
-100 -102 -105 0
-100 -102 -106 0
-100 -103 -104 0
-100 -103 -105 0
-100 -103 -106 0
-100 -104 -105 0
-100 -104 -106 0
-100 -105 -106 0
-101 -102 -103 0
-101 -102 -104 0
-101 -102 -105 0
-101 -102 -106 0
-101 -103 -104 0
-101 -103 -105 0
-101 -103 -106 0
-101 -104 -105 0
-101 -104 -106 0
-101 -105 -106 0
-102 -103 -104 0
-102 -103 -105 0
-102 -103 -106 0
-102 -104 -105 0
-102 -104 -106 0
-102 -105 -106 0
-103 -104 -105 0
-103 -104 -106 0
-103 -105 -106 0
-104 -105 -106 0
-93 100 101 102 103 104 105 106 0
-100 93 101 102 103 104 105 106 0
-101 93 100 102 103 104 105 106 0
-102 93 100 101 103 104 105 106 0
-103 93 100 101 102 104 105 106 0
-104 93 100 101 102 103 105 106 0
-105 93 100 101 102 103 104 106 0
-106 93 100 101 102 103 104 105 0
-100 -107 -108 0
-100 -107 -109 0
-100 -107 -110 0
-100 -107 -111 0
-100 -107 -112 0
-100 -107 -113 0
-100 -108 -109 0
-100 -108 -110 0
-100 -108 -111 0
-100 -108 -112 0
-100 -108 -113 0
-100 -109 -110 0
-100 -109 -111 0
-100 -109 -112 0
-100 -109 -113 0
-100 -110 -111 0
-100 -110 -112 0
-100 -110 -113 0
-100 -111 -112 0
-100 -111 -113 0
-100 -112 -113 0
-107 -108 -109 0
-107 -108 -110 0
-107 -108 -111 0
-107 -108 -112 0
-107 -108 -113 0
-107 -109 -110 0
-107 -109 -111 0
-107 -109 -112 0
-107 -109 -113 0
-107 -110 -111 0
-107 -110 -112 0
-107 -110 -113 0
-107 -111 -112 0
-107 -111 -113 0
-107 -112 -113 0
-108 -109 -110 0
-108 -109 -111 0
-108 -109 -112 0
-108 -109 -113 0
-108 -110 -111 0
-108 -110 -112 0
-108 -110 -113 0
-108 -111 -112 0
-108 -111 -113 0
-108 -112 -113 0
-109 -110 -111 0
-109 -110 -112 0
-109 -110 -113 0
-109 -111 -112 0
-109 -111 -113 0
-109 -112 -113 0
-110 -111 -112 0
-110 -111 -113 0
-110 -112 -113 0
-111 -112 -113 0
-100 107 108 109 110 111 112 113 0
-107 100 108 109 110 111 112 113 0
-108 100 107 109 110 111 112 113 0
-109 100 107 108 110 111 112 113 0
-110 100 107 108 109 111 112 113 0
-111 100 107 108 109 110 112 113 0
-112 100 107 108 109 110 111 113 0
-113 100 107 108 109 110 111 112 0
-86 -107 -114 0
-86 -107 -115 0
-86 -107 -116 0
-86 -107 -117 0
-86 -107 -118 0
-86 -107 -119 0
-86 -114 -115 0
-86 -114 -116 0
-86 -114 -117 0
-86 -114 -118 0
-86 -114 -119 0
-86 -115 -116 0
-86 -115 -117 0
-86 -115 -118 0
-86 -115 -119 0
-86 -116 -117 0
-86 -116 -118 0
-86 -116 -119 0
-86 -117 -118 0
-86 -117 -119 0
-86 -118 -119 0
-107 -114 -115 0
-107 -114 -116 0
-107 -114 -117 0
-107 -114 -118 0
-107 -114 -119 0
-107 -115 -116 0
-107 -115 -117 0
-107 -115 -118 0
-107 -115 -119 0
-107 -116 -117 0
-107 -116 -118 0
-107 -116 -119 0
-107 -117 -118 0
-107 -117 -119 0
-107 -118 -119 0
-114 -115 -116 0
-114 -115 -117 0
-114 -115 -118 0
-114 -115 -119 0
-114 -116 -117 0
-114 -116 -118 0
-114 -116 -119 0
-114 -117 -118 0
-114 -117 -119 0
-114 -118 -119 0
-115 -116 -117 0
-115 -116 -118 0
-115 -116 -119 0
-115 -117 -118 0
-115 -117 -119 0
-115 -118 -119 0
-116 -117 -118 0
-116 -117 -119 0
-116 -118 -119 0
-117 -118 -119 0
-86 107 114 115 116 117 118 119 0
-107 86 114 115 116 117 118 119 0
-114 86 107 115 116 117 118 119 0
-115 86 107 114 116 117 118 119 0
-116 86 107 114 115 117 118 119 0
-117 86 107 114 115 116 118 119 0
-118 86 107 114 115 116 117 119 0
-119 86 107 114 115 116 117 118 0
-94 -114 -120 0
-94 -114 -121 0
-94 -114 -122 0
-94 -114 -123 0
-94 -114 -124 0
-94 -114 -125 0
-94 -120 -121 0
-94 -120 -122 0
-94 -120 -123 0
-94 -120 -124 0
-94 -120 -125 0
-94 -121 -122 0
-94 -121 -123 0
-94 -121 -124 0
-94 -121 -125 0
-94 -122 -123 0
-94 -122 -124 0
-94 -122 -125 0
-94 -123 -124 0
-94 -123 -125 0
-94 -124 -125 0
-114 -120 -121 0
-114 -120 -122 0
-114 -120 -123 0
-114 -120 -124 0
-114 -120 -125 0
-114 -121 -122 0
-114 -121 -123 0
-114 -121 -124 0
-114 -121 -125 0
-114 -122 -123 0
-114 -122 -124 0
-114 -122 -125 0
-114 -123 -124 0
-114 -123 -125 0
-114 -124 -125 0
-120 -121 -122 0
-120 -121 -123 0
-120 -121 -124 0
-120 -121 -125 0
-120 -122 -123 0
-120 -122 -124 0
-120 -122 -125 0
-120 -123 -124 0
-120 -123 -125 0
-120 -124 -125 0
-121 -122 -123 0
-121 -122 -124 0
-121 -122 -125 0
-121 -123 -124 0
-121 -123 -125 0
-121 -124 -125 0
-122 -123 -124 0
-122 -123 -125 0
-122 -124 -125 0
-123 -124 -125 0
-94 114 120 121 122 123 124 125 0
-114 94 120 121 122 123 124 125 0
-120 94 114 121 122 123 124 125 0
-121 94 114 120 122 123 124 125 0
-122 94 114 120 121 123 124 125 0
-123 94 114 120 121 122 124 125 0
-124 94 114 120 121 122 123 125 0
-125 94 114 120 121 122 123 124 0
-87 -101 -126 0
-87 -101 -127 0
-87 -101 -128 0
-87 -101 -129 0
-87 -101 -130 0
-87 -101 -131 0
-87 -126 -127 0
-87 -126 -128 0
-87 -126 -129 0
-87 -126 -130 0
-87 -126 -131 0
-87 -127 -128 0
-87 -127 -129 0
-87 -127 -130 0
-87 -127 -131 0
-87 -128 -129 0
-87 -128 -130 0
-87 -128 -131 0
-87 -129 -130 0
-87 -129 -131 0
-87 -130 -131 0
-101 -126 -127 0
-101 -126 -128 0
-101 -126 -129 0
-101 -126 -130 0
-101 -126 -131 0
-101 -127 -128 0
-101 -127 -129 0
-101 -127 -130 0
-101 -127 -131 0
-101 -128 -129 0
-101 -128 -130 0
-101 -128 -131 0
-101 -129 -130 0
-101 -129 -131 0
-101 -130 -131 0
-126 -127 -128 0
-126 -127 -129 0
-126 -127 -130 0
-126 -127 -131 0
-126 -128 -129 0
-126 -128 -130 0
-126 -128 -131 0
-126 -129 -130 0
-126 -129 -131 0
-126 -130 -131 0
-127 -128 -129 0
-127 -128 -130 0
-127 -128 -131 0
-127 -129 -130 0
-127 -129 -131 0
-127 -130 -131 0
-128 -129 -130 0
-128 -129 -131 0
-128 -130 -131 0
-129 -130 -131 0
-87 101 126 127 128 129 130 131 0
-101 87 126 127 128 129 130 131 0
-126 87 101 127 128 129 130 131 0
-127 87 101 126 128 129 130 131 0
-128 87 101 126 127 129 130 131 0
-129 87 101 126 127 128 130 131 0
-130 87 101 126 127 128 129 131 0
-131 87 101 126 127 128 129 130 0
-95 -108 -132 0
-95 -108 -133 0
-95 -108 -134 0
-95 -108 -135 0
-95 -108 -136 0
-95 -108 -137 0
-95 -132 -133 0
-95 -132 -134 0
-95 -132 -135 0
-95 -132 -136 0
-95 -132 -137 0
-95 -133 -134 0
-95 -133 -135 0
-95 -133 -136 0
-95 -133 -137 0
-95 -134 -135 0
-95 -134 -136 0
-95 -134 -137 0
-95 -135 -136 0
-95 -135 -137 0
-95 -136 -137 0
-108 -132 -133 0
-108 -132 -134 0
-108 -132 -135 0
-108 -132 -136 0
-108 -132 -137 0
-108 -133 -134 0
-108 -133 -135 0
-108 -133 -136 0
-108 -133 -137 0
-108 -134 -135 0
-108 -134 -136 0
-108 -134 -137 0
-108 -135 -136 0
-108 -135 -137 0
-108 -136 -137 0
-132 -133 -134 0
-132 -133 -135 0
-132 -133 -136 0
-132 -133 -137 0
-132 -134 -135 0
-132 -134 -136 0
-132 -134 -137 0
-132 -135 -136 0
-132 -135 -137 0
-132 -136 -137 0
-133 -134 -135 0
-133 -134 -136 0
-133 -134 -137 0
-133 -135 -136 0
-133 -135 -137 0
-133 -136 -137 0
-134 -135 -136 0
-134 -135 -137 0
-134 -136 -137 0
-135 -136 -137 0
-95 108 132 133 134 135 136 137 0
-108 95 132 133 134 135 136 137 0
-132 95 108 133 134 135 136 137 0
-133 95 108 132 134 135 136 137 0
-134 95 108 132 133 135 136 137 0
-135 95 108 132 133 134 136 137 0
-136 95 108 132 133 134 135 137 0
-137 95 108 132 133 134 135 136 0
-102 -115 -132 0
-102 -115 -138 0
-102 -115 -139 0
-102 -115 -140 0
-102 -115 -141 0
-102 -115 -142 0
-102 -132 -138 0
-102 -132 -139 0
-102 -132 -140 0
-102 -132 -141 0
-102 -132 -142 0
-102 -138 -139 0
-102 -138 -140 0
-102 -138 -141 0
-102 -138 -142 0
-102 -139 -140 0
-102 -139 -141 0
-102 -139 -142 0
-102 -140 -141 0
-102 -140 -142 0
-102 -141 -142 0
-115 -132 -138 0
-115 -132 -139 0
-115 -132 -140 0
-115 -132 -141 0
-115 -132 -142 0
-115 -138 -139 0
-115 -138 -140 0
-115 -138 -141 0
-115 -138 -142 0
-115 -139 -140 0
-115 -139 -141 0
-115 -139 -142 0
-115 -140 -141 0
-115 -140 -142 0
-115 -141 -142 0
-132 -138 -139 0
-132 -138 -140 0
-132 -138 -141 0
-132 -138 -142 0
-132 -139 -140 0
-132 -139 -141 0
-132 -139 -142 0
-132 -140 -141 0
-132 -140 -142 0
-132 -141 -142 0
-138 -139 -140 0
-138 -139 -141 0
-138 -139 -142 0
-138 -140 -141 0
-138 -140 -142 0
-138 -141 -142 0
-139 -140 -141 0
-139 -140 -142 0
-139 -141 -142 0
-140 -141 -142 0
-102 115 132 138 139 140 141 142 0
-115 102 132 138 139 140 141 142 0
-132 102 115 138 139 140 141 142 0
-138 102 115 132 139 140 141 142 0
-139 102 115 132 138 140 141 142 0
-140 102 115 132 138 139 141 142 0
-141 102 115 132 138 139 140 142 0
-142 102 115 132 138 139 140 141 0
-88 -109 -143 0
-88 -109 -144 0
-88 -109 -145 0
-88 -109 -146 0
-88 -109 -147 0
-88 -109 -148 0
-88 -143 -144 0
-88 -143 -145 0
-88 -143 -146 0
-88 -143 -147 0
-88 -143 -148 0
-88 -144 -145 0
-88 -144 -146 0
-88 -144 -147 0
-88 -144 -148 0
-88 -145 -146 0
-88 -145 -147 0
-88 -145 -148 0
-88 -146 -147 0
-88 -146 -148 0
-88 -147 -148 0
-109 -143 -144 0
-109 -143 -145 0
-109 -143 -146 0
-109 -143 -147 0
-109 -143 -148 0
-109 -144 -145 0
-109 -144 -146 0
-109 -144 -147 0
-109 -144 -148 0
-109 -145 -146 0
-109 -145 -147 0
-109 -145 -148 0
-109 -146 -147 0
-109 -146 -148 0
-109 -147 -148 0
-143 -144 -145 0
-143 -144 -146 0
-143 -144 -147 0
-143 -144 -148 0
-143 -145 -146 0
-143 -145 -147 0
-143 -145 -148 0
-143 -146 -147 0
-143 -146 -148 0
-143 -147 -148 0
-144 -145 -146 0
-144 -145 -147 0
-144 -145 -148 0
-144 -146 -147 0
-144 -146 -148 0
-144 -147 -148 0
-145 -146 -147 0
-145 -146 -148 0
-145 -147 -148 0
-146 -147 -148 0
-88 109 143 144 145 146 147 148 0
-109 88 143 144 145 146 147 148 0
-143 88 109 144 145 146 147 148 0
-144 88 109 143 145 146 147 148 0
-145 88 109 143 144 146 147 148 0
-146 88 109 143 144 145 147 148 0
-147 88 109 143 144 145 146 148 0
-148 88 109 143 144 145 146 147 0
-120 -126 -138 0
-120 -126 -143 0
-120 -126 -149 0
-120 -126 -150 0
-120 -126 -151 0
-120 -126 -152 0
-120 -138 -143 0
-120 -138 -149 0
-120 -138 -150 0
-120 -138 -151 0
-120 -138 -152 0
-120 -143 -149 0
-120 -143 -150 0
-120 -143 -151 0
-120 -143 -152 0
-120 -149 -150 0
-120 -149 -151 0
-120 -149 -152 0
-120 -150 -151 0
-120 -150 -152 0
-120 -151 -152 0
-126 -138 -143 0
-126 -138 -149 0
-126 -138 -150 0
-126 -138 -151 0
-126 -138 -152 0
-126 -143 -149 0
-126 -143 -150 0
-126 -143 -151 0
-126 -143 -152 0
-126 -149 -150 0
-126 -149 -151 0
-126 -149 -152 0
-126 -150 -151 0
-126 -150 -152 0
-126 -151 -152 0
-138 -143 -149 0
-138 -143 -150 0
-138 -143 -151 0
-138 -143 -152 0
-138 -149 -150 0
-138 -149 -151 0
-138 -149 -152 0
-138 -150 -151 0
-138 -150 -152 0
-138 -151 -152 0
-143 -149 -150 0
-143 -149 -151 0
-143 -149 -152 0
-143 -150 -151 0
-143 -150 -152 0
-143 -151 -152 0
-149 -150 -151 0
-149 -150 -152 0
-149 -151 -152 0
-150 -151 -152 0
-120 126 138 143 149 150 151 152 0
-126 120 138 143 149 150 151 152 0
-138 120 126 143 149 150 151 152 0
-143 120 126 138 149 150 151 152 0
-149 120 126 138 143 150 151 152 0
-150 120 126 138 143 149 151 152 0
-151 120 126 138 143 149 150 152 0
-152 120 126 138 143 149 150 151 0
-121 -127 -133 0
-121 -127 -144 0
-121 -127 -153 0
-121 -127 -154 0
-121 -127 -155 0
-121 -127 -156 0
-121 -133 -144 0
-121 -133 -153 0
-121 -133 -154 0
-121 -133 -155 0
-121 -133 -156 0
-121 -144 -153 0
-121 -144 -154 0
-121 -144 -155 0
-121 -144 -156 0
-121 -153 -154 0
-121 -153 -155 0
-121 -153 -156 0
-121 -154 -155 0
-121 -154 -156 0
-121 -155 -156 0
-127 -133 -144 0
-127 -133 -153 0
-127 -133 -154 0
-127 -133 -155 0
-127 -133 -156 0
-127 -144 -153 0
-127 -144 -154 0
-127 -144 -155 0
-127 -144 -156 0
-127 -153 -154 0
-127 -153 -155 0
-127 -153 -156 0
-127 -154 -155 0
-127 -154 -156 0
-127 -155 -156 0
-133 -144 -153 0
-133 -144 -154 0
-133 -144 -155 0
-133 -144 -156 0
-133 -153 -154 0
-133 -153 -155 0
-133 -153 -156 0
-133 -154 -155 0
-133 -154 -156 0
-133 -155 -156 0
-144 -153 -154 0
-144 -153 -155 0
-144 -153 -156 0
-144 -154 -155 0
-144 -154 -156 0
-144 -155 -156 0
-153 -154 -155 0
-153 -154 -156 0
-153 -155 -156 0
-154 -155 -156 0
-121 127 133 144 153 154 155 156 0
-127 121 133 144 153 154 155 156 0
-133 121 127 144 153 154 155 156 0
-144 121 127 133 153 154 155 156 0
-153 121 127 133 144 154 155 156 0
-154 121 127 133 144 153 155 156 0
-155 121 127 133 144 153 154 156 0
-156 121 127 133 144 153 154 155 0
-96 -116 -128 0
-96 -116 -145 0
-96 -116 -157 0
-96 -128 -145 0
-96 -128 -157 0
-96 -145 -157 0
-116 -128 -145 0
-116 -128 -157 0
-116 -145 -157 0
-128 -145 -157 0
-96 116 128 145 157 0
-116 96 128 145 157 0
-128 96 116 145 157 0
-145 96 116 128 157 0
-157 96 116 128 145 0
-89 -103 -122 0
-89 -103 -134 0
-89 -103 -158 0
-89 -122 -134 0
-89 -122 -158 0
-89 -134 -158 0
-103 -122 -134 0
-103 -122 -158 0
-103 -134 -158 0
-122 -134 -158 0
-89 103 122 134 158 0
-103 89 122 134 158 0
-122 89 103 134 158 0
-134 89 103 122 158 0
-158 89 103 122 134 0
-97 -110 -129 0
-97 -110 -139 0
-97 -110 -159 0
-97 -129 -139 0
-97 -129 -159 0
-97 -139 -159 0
-110 -129 -139 0
-110 -129 -159 0
-110 -139 -159 0
-129 -139 -159 0
-97 110 129 139 159 0
-110 97 129 139 159 0
-129 97 110 139 159 0
-139 97 110 129 159 0
-159 97 110 129 139 0
-104 -117 -135 0
-104 -117 -146 0
-104 -117 -160 0
-104 -135 -146 0
-104 -135 -160 0
-104 -146 -160 0
-117 -135 -146 0
-117 -135 -160 0
-117 -146 -160 0
-135 -146 -160 0
-104 117 135 146 160 0
-117 104 135 146 160 0
-135 104 117 146 160 0
-146 104 117 135 160 0
-160 104 117 135 146 0
-90 -111 -123 0
-90 -111 -140 0
-90 -111 -161 0
-90 -123 -140 0
-90 -123 -161 0
-90 -140 -161 0
-111 -123 -140 0
-111 -123 -161 0
-111 -140 -161 0
-123 -140 -161 0
-90 111 123 140 161 0
-111 90 123 140 161 0
-123 90 111 140 161 0
-140 90 111 123 161 0
-161 90 111 123 140 0
-98 -118 -149 0
-98 -118 -153 0
-98 -118 -162 0
-98 -149 -153 0
-98 -149 -162 0
-98 -153 -162 0
-118 -149 -153 0
-118 -149 -162 0
-118 -153 -162 0
-149 -153 -162 0
-98 118 149 153 162 0
-118 98 149 153 162 0
-149 98 118 153 162 0
-153 98 118 149 162 0
-162 98 118 149 153 0
-91 -105 -150 0
-91 -105 -154 0
-91 -105 -163 0
-91 -150 -154 0
-91 -150 -163 0
-91 -154 -163 0
-105 -150 -154 0
-105 -150 -163 0
-105 -154 -163 0
-150 -154 -163 0
-91 105 150 154 163 0
-105 91 150 154 163 0
-150 91 105 154 163 0
-154 91 105 150 163 0
-163 91 105 150 154 0
-99 -112 -141 0
-99 -112 -155 0
-99 -112 -164 0
-99 -141 -155 0
-99 -141 -164 0
-99 -155 -164 0
-112 -141 -155 0
-112 -141 -164 0
-112 -155 -164 0
-141 -155 -164 0
-99 112 141 155 164 0
-112 99 141 155 164 0
-141 99 112 155 164 0
-155 99 112 141 164 0
-164 99 112 141 155 0
-106 -119 -136 0
-106 -119 -151 0
-106 -119 -165 0
-106 -136 -151 0
-106 -136 -165 0
-106 -151 -165 0
-119 -136 -151 0
-119 -136 -165 0
-119 -151 -165 0
-136 -151 -165 0
-106 119 136 151 165 0
-119 106 136 151 165 0
-136 106 119 151 165 0
-151 106 119 136 165 0
-165 106 119 136 151 0
-92 -113 -152 0
-92 -113 -156 0
-92 -113 -166 0
-92 -152 -156 0
-92 -152 -166 0
-92 -156 -166 0
-113 -152 -156 0
-113 -152 -166 0
-113 -156 -166 0
-152 -156 -166 0
-92 113 152 156 166 0
-113 92 152 156 166 0
-152 92 113 156 166 0
-156 92 113 152 166 0
-166 92 113 152 156 0
-124 -130 -142 0
-124 -130 -147 0
-124 -130 -167 0
-124 -142 -147 0
-124 -142 -167 0
-124 -147 -167 0
-130 -142 -147 0
-130 -142 -167 0
-130 -147 -167 0
-142 -147 -167 0
-124 130 142 147 167 0
-130 124 142 147 167 0
-142 124 130 147 167 0
-147 124 130 142 167 0
-167 124 130 142 147 0
-125 -131 -137 0
-125 -131 -148 0
-125 -131 -168 0
-125 -137 -148 0
-125 -137 -168 0
-125 -148 -168 0
-131 -137 -148 0
-131 -137 -168 0
-131 -148 -168 0
-137 -148 -168 0
-125 131 137 148 168 0
-131 125 137 148 168 0
-137 125 131 148 168 0
-148 125 131 137 168 0
-168 125 131 137 148 0
-157 -158 -159 0
-157 -158 -160 0
-157 -158 -161 0
-157 -158 -162 0
-157 -158 -163 0
-157 -158 -164 0
-157 -158 -165 0
-157 -158 -166 0
-157 -158 -167 0
-157 -158 -168 0
-157 -159 -160 0
-157 -159 -161 0
-157 -159 -162 0
-157 -159 -163 0
-157 -159 -164 0
-157 -159 -165 0
-157 -159 -166 0
-157 -159 -167 0
-157 -159 -168 0
-157 -160 -161 0
-157 -160 -162 0
-157 -160 -163 0
-157 -160 -164 0
-157 -160 -165 0
-157 -160 -166 0
-157 -160 -167 0
-157 -160 -168 0
-157 -161 -162 0
-157 -161 -163 0
-157 -161 -164 0
-157 -161 -165 0
-157 -161 -166 0
-157 -161 -167 0
-157 -161 -168 0
-157 -162 -163 0
-157 -162 -164 0
-157 -162 -165 0
-157 -162 -166 0
-157 -162 -167 0
-157 -162 -168 0
-157 -163 -164 0
-157 -163 -165 0
-157 -163 -166 0
-157 -163 -167 0
-157 -163 -168 0
-157 -164 -165 0
-157 -164 -166 0
-157 -164 -167 0
-157 -164 -168 0
-157 -165 -166 0
-157 -165 -167 0
-157 -165 -168 0
-157 -166 -167 0
-157 -166 -168 0
-157 -167 -168 0
-158 -159 -160 0
-158 -159 -161 0
-158 -159 -162 0
-158 -159 -163 0
-158 -159 -164 0
-158 -159 -165 0
-158 -159 -166 0
-158 -159 -167 0
-158 -159 -168 0
-158 -160 -161 0
-158 -160 -162 0
-158 -160 -163 0
-158 -160 -164 0
-158 -160 -165 0
-158 -160 -166 0
-158 -160 -167 0
-158 -160 -168 0
-158 -161 -162 0
-158 -161 -163 0
-158 -161 -164 0
-158 -161 -165 0
-158 -161 -166 0
-158 -161 -167 0
-158 -161 -168 0
-158 -162 -163 0
-158 -162 -164 0
-158 -162 -165 0
-158 -162 -166 0
-158 -162 -167 0
-158 -162 -168 0
-158 -163 -164 0
-158 -163 -165 0
-158 -163 -166 0
-158 -163 -167 0
-158 -163 -168 0
-158 -164 -165 0
-158 -164 -166 0
-158 -164 -167 0
-158 -164 -168 0
-158 -165 -166 0
-158 -165 -167 0
-158 -165 -168 0
-158 -166 -167 0
-158 -166 -168 0
-158 -167 -168 0
-159 -160 -161 0
-159 -160 -162 0
-159 -160 -163 0
-159 -160 -164 0
-159 -160 -165 0
-159 -160 -166 0
-159 -160 -167 0
-159 -160 -168 0
-159 -161 -162 0
-159 -161 -163 0
-159 -161 -164 0
-159 -161 -165 0
-159 -161 -166 0
-159 -161 -167 0
-159 -161 -168 0
-159 -162 -163 0
-159 -162 -164 0
-159 -162 -165 0
-159 -162 -166 0
-159 -162 -167 0
-159 -162 -168 0
-159 -163 -164 0
-159 -163 -165 0
-159 -163 -166 0
-159 -163 -167 0
-159 -163 -168 0
-159 -164 -165 0
-159 -164 -166 0
-159 -164 -167 0
-159 -164 -168 0
-159 -165 -166 0
-159 -165 -167 0
-159 -165 -168 0
-159 -166 -167 0
-159 -166 -168 0
-159 -167 -168 0
-160 -161 -162 0
-160 -161 -163 0
-160 -161 -164 0
-160 -161 -165 0
-160 -161 -166 0
-160 -161 -167 0
-160 -161 -168 0
-160 -162 -163 0
-160 -162 -164 0
-160 -162 -165 0
-160 -162 -166 0
-160 -162 -167 0
-160 -162 -168 0
-160 -163 -164 0
-160 -163 -165 0
-160 -163 -166 0
-160 -163 -167 0
-160 -163 -168 0
-160 -164 -165 0
-160 -164 -166 0
-160 -164 -167 0
-160 -164 -168 0
-160 -165 -166 0
-160 -165 -167 0
-160 -165 -168 0
-160 -166 -167 0
-160 -166 -168 0
-160 -167 -168 0
-161 -162 -163 0
-161 -162 -164 0
-161 -162 -165 0
-161 -162 -166 0
-161 -162 -167 0
-161 -162 -168 0
-161 -163 -164 0
-161 -163 -165 0
-161 -163 -166 0
-161 -163 -167 0
-161 -163 -168 0
-161 -164 -165 0
-161 -164 -166 0
-161 -164 -167 0
-161 -164 -168 0
-161 -165 -166 0
-161 -165 -167 0
-161 -165 -168 0
-161 -166 -167 0
-161 -166 -168 0
-161 -167 -168 0
-162 -163 -164 0
-162 -163 -165 0
-162 -163 -166 0
-162 -163 -167 0
-162 -163 -168 0
-162 -164 -165 0
-162 -164 -166 0
-162 -164 -167 0
-162 -164 -168 0
-162 -165 -166 0
-162 -165 -167 0
-162 -165 -168 0
-162 -166 -167 0
-162 -166 -168 0
-162 -167 -168 0
-163 -164 -165 0
-163 -164 -166 0
-163 -164 -167 0
-163 -164 -168 0
-163 -165 -166 0
-163 -165 -167 0
-163 -165 -168 0
-163 -166 -167 0
-163 -166 -168 0
-163 -167 -168 0
-164 -165 -166 0
-164 -165 -167 0
-164 -165 -168 0
-164 -166 -167 0
-164 -166 -168 0
-164 -167 -168 0
-165 -166 -167 0
-165 -166 -168 0
-165 -167 -168 0
-166 -167 -168 0
-157 158 159 160 161 162 163 164 165 166 167 168 0
-158 157 159 160 161 162 163 164 165 166 167 168 0
-159 157 158 160 161 162 163 164 165 166 167 168 0
-160 157 158 159 161 162 163 164 165 166 167 168 0
-161 157 158 159 160 162 163 164 165 166 167 168 0
-162 157 158 159 160 161 163 164 165 166 167 168 0
-163 157 158 159 160 161 162 164 165 166 167 168 0
-164 157 158 159 160 161 162 163 165 166 167 168 0
-165 157 158 159 160 161 162 163 164 166 167 168 0
-166 157 158 159 160 161 162 163 164 165 167 168 0
-167 157 158 159 160 161 162 163 164 165 166 168 0
-168 157 158 159 160 161 162 163 164 165 166 167 0
-85 194 0
-85 195 0
-86 194 0
-86 198 0
-87 194 0
-87 200 0
-88 194 0
-88 203 0
-89 194 0
-89 207 0
-90 194 0
-90 210 0
-91 194 0
-91 212 0
-92 194 0
-92 215 0
-93 195 0
-93 196 0
-94 195 0
-94 199 0
-95 195 0
-95 201 0
-96 195 0
-96 206 0
-97 195 0
-97 208 0
-98 195 0
-98 211 0
-99 195 0
-99 213 0
-100 196 0
-100 197 0
-101 196 0
-101 200 0
-102 196 0
-102 202 0
-103 196 0
-103 207 0
-104 196 0
-104 209 0
-105 196 0
-105 212 0
-106 196 0
-106 214 0
-107 197 0
-107 198 0
-108 197 0
-108 201 0
-109 197 0
-109 203 0
-110 197 0
-110 208 0
-111 197 0
-111 210 0
-112 197 0
-112 213 0
-113 197 0
-113 215 0
-114 198 0
-114 199 0
-115 198 0
-115 202 0
-116 198 0
-116 206 0
-117 198 0
-117 209 0
-118 198 0
-118 211 0
-119 198 0
-119 214 0
-120 199 0
-120 204 0
-121 199 0
-121 205 0
-122 199 0
-122 207 0
-123 199 0
-123 210 0
-124 199 0
-124 216 0
-125 199 0
-125 217 0
-126 200 0
-126 204 0
-127 200 0
-127 205 0
-128 200 0
-128 206 0
-129 200 0
-129 208 0
-130 200 0
-130 216 0
-131 200 0
-131 217 0
-132 201 0
-132 202 0
-133 201 0
-133 205 0
-134 201 0
-134 207 0
-135 201 0
-135 209 0
-136 201 0
-136 214 0
-137 201 0
-137 217 0
-138 202 0
-138 204 0
-139 202 0
-139 208 0
-140 202 0
-140 210 0
-141 202 0
-141 213 0
-142 202 0
-142 216 0
-143 203 0
-143 204 0
-144 203 0
-144 205 0
-145 203 0
-145 206 0
-146 203 0
-146 209 0
-147 203 0
-147 216 0
-148 203 0
-148 217 0
-149 204 0
-149 211 0
-150 204 0
-150 212 0
-151 204 0
-151 214 0
-152 204 0
-152 215 0
-153 205 0
-153 211 0
-154 205 0
-154 212 0
-155 205 0
-155 213 0
-156 205 0
-156 215 0
-157 206 0
-157 218 0
-158 207 0
-158 218 0
-159 208 0
-159 218 0
-160 209 0
-160 218 0
-161 210 0
-161 218 0
-162 211 0
-162 218 0
-163 212 0
-163 218 0
-164 213 0
-164 218 0
-165 214 0
-165 218 0
-166 215 0
-166 218 0
-167 216 0
-167 218 0
-168 217 0
-168 218 0
-303 85 0
303 -85 0
-304 303 86 0
-304 -303 -86 0
304 -303 86 0
304 303 -86 0
-305 304 87 0
-305 -304 -87 0
305 -304 87 0
305 304 -87 0
-306 305 88 0
-306 -305 -88 0
306 -305 88 0
306 305 -88 0
-307 306 89 0
-307 -306 -89 0
307 -306 89 0
307 306 -89 0
-308 307 90 0
-308 -307 -90 0
308 -307 90 0
308 307 -90 0
-309 308 91 0
-309 -308 -91 0
309 -308 91 0
309 308 -91 0
-310 309 92 0
-310 -309 -92 0
310 -309 92 0
310 309 -92 0
-311 310 93 0
-311 -310 -93 0
311 -310 93 0
311 310 -93 0
-312 311 94 0
-312 -311 -94 0
312 -311 94 0
312 311 -94 0
-313 312 95 0
-313 -312 -95 0
313 -312 95 0
313 312 -95 0
-314 313 96 0
-314 -313 -96 0
314 -313 96 0
314 313 -96 0
-315 314 97 0
-315 -314 -97 0
315 -314 97 0
315 314 -97 0
-316 315 98 0
-316 -315 -98 0
316 -315 98 0
316 315 -98 0
-317 316 99 0
-317 -316 -99 0
317 -316 99 0
317 316 -99 0
-318 317 100 0
-318 -317 -100 0
318 -317 100 0
318 317 -100 0
-319 318 101 0
-319 -318 -101 0
319 -318 101 0
319 318 -101 0
-320 319 102 0
-320 -319 -102 0
320 -319 102 0
320 319 -102 0
-321 320 103 0
-321 -320 -103 0
321 -320 103 0
321 320 -103 0
-322 321 104 0
-322 -321 -104 0
322 -321 104 0
322 321 -104 0
-323 322 105 0
-323 -322 -105 0
323 -322 105 0
323 322 -105 0
-324 323 106 0
-324 -323 -106 0
324 -323 106 0
324 323 -106 0
-325 324 107 0
-325 -324 -107 0
325 -324 107 0
325 324 -107 0
-326 325 108 0
-326 -325 -108 0
326 -325 108 0
326 325 -108 0
-327 326 109 0
-327 -326 -109 0
327 -326 109 0
327 326 -109 0
-328 327 110 0
-328 -327 -110 0
328 -327 110 0
328 327 -110 0
-329 328 111 0
-329 -328 -111 0
329 -328 111 0
329 328 -111 0
-330 329 112 0
-330 -329 -112 0
330 -329 112 0
330 329 -112 0
-331 330 113 0
-331 -330 -113 0
331 -330 113 0
331 330 -113 0
-332 331 114 0
-332 -331 -114 0
332 -331 114 0
332 331 -114 0
-333 332 115 0
-333 -332 -115 0
333 -332 115 0
333 332 -115 0
-334 333 116 0
-334 -333 -116 0
334 -333 116 0
334 333 -116 0
-335 334 117 0
-335 -334 -117 0
335 -334 117 0
335 334 -117 0
-336 335 118 0
-336 -335 -118 0
336 -335 118 0
336 335 -118 0
-337 336 119 0
-337 -336 -119 0
337 -336 119 0
337 336 -119 0
-338 337 120 0
-338 -337 -120 0
338 -337 120 0
338 337 -120 0
-339 338 121 0
-339 -338 -121 0
339 -338 121 0
339 338 -121 0
-340 339 122 0
-340 -339 -122 0
340 -339 122 0
340 339 -122 0
-341 340 123 0
-341 -340 -123 0
341 -340 123 0
341 340 -123 0
-342 341 124 0
-342 -341 -124 0
342 -341 124 0
342 341 -124 0
-343 342 125 0
-343 -342 -125 0
343 -342 125 0
343 342 -125 0
-344 343 126 0
-344 -343 -126 0
344 -343 126 0
344 343 -126 0
-345 344 127 0
-345 -344 -127 0
345 -344 127 0
345 344 -127 0
-346 345 128 0
-346 -345 -128 0
346 -345 128 0
346 345 -128 0
-347 346 129 0
-347 -346 -129 0
347 -346 129 0
347 346 -129 0
-348 347 130 0
-348 -347 -130 0
348 -347 130 0
348 347 -130 0
-349 348 131 0
-349 -348 -131 0
349 -348 131 0
349 348 -131 0
-350 349 132 0
-350 -349 -132 0
350 -349 132 0
350 349 -132 0
-351 350 133 0
-351 -350 -133 0
351 -350 133 0
351 350 -133 0
-352 351 134 0
-352 -351 -134 0
352 -351 134 0
352 351 -134 0
-353 352 135 0
-353 -352 -135 0
353 -352 135 0
353 352 -135 0
-354 353 136 0
-354 -353 -136 0
354 -353 136 0
354 353 -136 0
-355 354 137 0
-355 -354 -137 0
355 -354 137 0
355 354 -137 0
-356 355 138 0
-356 -355 -138 0
356 -355 138 0
356 355 -138 0
-357 356 139 0
-357 -356 -139 0
357 -356 139 0
357 356 -139 0
-358 357 140 0
-358 -357 -140 0
358 -357 140 0
358 357 -140 0
-359 358 141 0
-359 -358 -141 0
359 -358 141 0
359 358 -141 0
-360 359 142 0
-360 -359 -142 0
360 -359 142 0
360 359 -142 0
-361 360 143 0
-361 -360 -143 0
361 -360 143 0
361 360 -143 0
-362 361 144 0
-362 -361 -144 0
362 -361 144 0
362 361 -144 0
-363 362 145 0
-363 -362 -145 0
363 -362 145 0
363 362 -145 0
-364 363 146 0
-364 -363 -146 0
364 -363 146 0
364 363 -146 0
-365 364 147 0
-365 -364 -147 0
365 -364 147 0
365 364 -147 0
-366 365 148 0
-366 -365 -148 0
366 -365 148 0
366 365 -148 0
-367 366 149 0
-367 -366 -149 0
367 -366 149 0
367 366 -149 0
-368 367 150 0
-368 -367 -150 0
368 -367 150 0
368 367 -150 0
-369 368 151 0
-369 -368 -151 0
369 -368 151 0
369 368 -151 0
-370 369 152 0
-370 -369 -152 0
370 -369 152 0
370 369 -152 0
-371 370 153 0
-371 -370 -153 0
371 -370 153 0
371 370 -153 0
-372 371 154 0
-372 -371 -154 0
372 -371 154 0
372 371 -154 0
-373 372 155 0
-373 -372 -155 0
373 -372 155 0
373 372 -155 0
-374 373 156 0
-374 -373 -156 0
374 -373 156 0
374 373 -156 0
-375 374 157 0
-375 -374 -157 0
375 -374 157 0
375 374 -157 0
-376 375 158 0
-376 -375 -158 0
376 -375 158 0
376 375 -158 0
-377 376 159 0
-377 -376 -159 0
377 -376 159 0
377 376 -159 0
-378 377 160 0
-378 -377 -160 0
378 -377 160 0
378 377 -160 0
-379 378 161 0
-379 -378 -161 0
379 -378 161 0
379 378 -161 0
-380 379 162 0
-380 -379 -162 0
380 -379 162 0
380 379 -162 0
-381 380 163 0
-381 -380 -163 0
381 -380 163 0
381 380 -163 0
-382 381 164 0
-382 -381 -164 0
382 -381 164 0
382 381 -164 0
-383 382 165 0
-383 -382 -165 0
383 -382 165 0
383 382 -165 0
-384 383 166 0
-384 -383 -166 0
384 -383 166 0
384 383 -166 0
-385 384 167 0
-385 -384 -167 0
385 -384 167 0
385 384 -167 0
-386 385 168 0
-386 -385 -168 0
386 -385 168 0
386 385 -168 0
386 0
-169 -194 0
-170 -195 0
-171 -196 0
-172 -197 0
-173 -198 0
-174 -199 0
-175 -200 0
-176 -201 0
-177 -202 0
-178 -203 0
-179 -204 0
-180 -205 0
-181 -206 0
-182 -207 0
-183 -208 0
-184 -209 0
-185 -210 0
-186 -211 0
-187 -212 0
-188 -213 0
-189 -214 0
-190 -215 0
-191 -216 0
-192 -217 0
-193 -218 0
-169 -195 0
-170 -194 0
-169 -198 0
-173 -194 0
-169 -200 0
-175 -194 0
-169 -203 0
-178 -194 0
-169 -207 0
-182 -194 0
-169 -210 0
-185 -194 0
-169 -212 0
-187 -194 0
-169 -215 0
-190 -194 0
-170 -196 0
-171 -195 0
-170 -199 0
-174 -195 0
-170 -201 0
-176 -195 0
-170 -206 0
-181 -195 0
-170 -208 0
-183 -195 0
-170 -211 0
-186 -195 0
-170 -213 0
-188 -195 0
-171 -197 0
-172 -196 0
-171 -200 0
-175 -196 0
-171 -202 0
-177 -196 0
-171 -207 0
-182 -196 0
-171 -209 0
-184 -196 0
-171 -212 0
-187 -196 0
-171 -214 0
-189 -196 0
-172 -198 0
-173 -197 0
-172 -201 0
-176 -197 0
-172 -203 0
-178 -197 0
-172 -208 0
-183 -197 0
-172 -210 0
-185 -197 0
-172 -213 0
-188 -197 0
-172 -215 0
-190 -197 0
-173 -199 0
-174 -198 0
-173 -202 0
-177 -198 0
-173 -206 0
-181 -198 0
-173 -209 0
-184 -198 0
-173 -211 0
-186 -198 0
-173 -214 0
-189 -198 0
-174 -204 0
-179 -199 0
-174 -205 0
-180 -199 0
-174 -207 0
-182 -199 0
-174 -210 0
-185 -199 0
-174 -216 0
-191 -199 0
-174 -217 0
-192 -199 0
-175 -204 0
-179 -200 0
-175 -205 0
-180 -200 0
-175 -206 0
-181 -200 0
-175 -208 0
-183 -200 0
-175 -216 0
-191 -200 0
-175 -217 0
-192 -200 0
-176 -202 0
-177 -201 0
-176 -205 0
-180 -201 0
-176 -207 0
-182 -201 0
-176 -209 0
-184 -201 0
-176 -214 0
-189 -201 0
-176 -217 0
-192 -201 0
-177 -204 0
-179 -202 0
-177 -208 0
-183 -202 0
-177 -210 0
-185 -202 0
-177 -213 0
-188 -202 0
-177 -216 0
-191 -202 0
-178 -204 0
-179 -203 0
-178 -205 0
-180 -203 0
-178 -206 0
-181 -203 0
-178 -209 0
-184 -203 0
-178 -216 0
-191 -203 0
-178 -217 0
-192 -203 0
-179 -211 0
-186 -204 0
-179 -212 0
-187 -204 0
-179 -214 0
-189 -204 0
-179 -215 0
-190 -204 0
-180 -211 0
-186 -205 0
-180 -212 0
-187 -205 0
-180 -213 0
-188 -205 0
-180 -215 0
-190 -205 0
-181 -218 0
-193 -206 0
-182 -218 0
-193 -207 0
-183 -218 0
-193 -208 0
-184 -218 0
-193 -209 0
-185 -218 0
-193 -210 0
-186 -218 0
-193 -211 0
-187 -218 0
-193 -212 0
-188 -218 0
-193 -213 0
-189 -218 0
-193 -214 0
-190 -218 0
-193 -215 0
-191 -218 0
-193 -216 0
-192 -218 0
-193 -217 0
