p cnf 610 8079
-1 -2 -3 0
-1 -2 -4 0
-1 -2 -5 0
-1 -2 -6 0
-1 -2 -7 0
-1 -2 -8 0
-1 -2 -9 0
-1 -2 -10 0
-1 -3 -4 0
-1 -3 -5 0
-1 -3 -6 0
-1 -3 -7 0
-1 -3 -8 0
-1 -3 -9 0
-1 -3 -10 0
-1 -4 -5 0
-1 -4 -6 0
-1 -4 -7 0
-1 -4 -8 0
-1 -4 -9 0
-1 -4 -10 0
-1 -5 -6 0
-1 -5 -7 0
-1 -5 -8 0
-1 -5 -9 0
-1 -5 -10 0
-1 -6 -7 0
-1 -6 -8 0
-1 -6 -9 0
-1 -6 -10 0
-1 -7 -8 0
-1 -7 -9 0
-1 -7 -10 0
-1 -8 -9 0
-1 -8 -10 0
-1 -9 -10 0
-2 -3 -4 0
-2 -3 -5 0
-2 -3 -6 0
-2 -3 -7 0
-2 -3 -8 0
-2 -3 -9 0
-2 -3 -10 0
-2 -4 -5 0
-2 -4 -6 0
-2 -4 -7 0
-2 -4 -8 0
-2 -4 -9 0
-2 -4 -10 0
-2 -5 -6 0
-2 -5 -7 0
-2 -5 -8 0
-2 -5 -9 0
-2 -5 -10 0
-2 -6 -7 0
-2 -6 -8 0
-2 -6 -9 0
-2 -6 -10 0
-2 -7 -8 0
-2 -7 -9 0
-2 -7 -10 0
-2 -8 -9 0
-2 -8 -10 0
-2 -9 -10 0
-3 -4 -5 0
-3 -4 -6 0
-3 -4 -7 0
-3 -4 -8 0
-3 -4 -9 0
-3 -4 -10 0
-3 -5 -6 0
-3 -5 -7 0
-3 -5 -8 0
-3 -5 -9 0
-3 -5 -10 0
-3 -6 -7 0
-3 -6 -8 0
-3 -6 -9 0
-3 -6 -10 0
-3 -7 -8 0
-3 -7 -9 0
-3 -7 -10 0
-3 -8 -9 0
-3 -8 -10 0
-3 -9 -10 0
-4 -5 -6 0
-4 -5 -7 0
-4 -5 -8 0
-4 -5 -9 0
-4 -5 -10 0
-4 -6 -7 0
-4 -6 -8 0
-4 -6 -9 0
-4 -6 -10 0
-4 -7 -8 0
-4 -7 -9 0
-4 -7 -10 0
-4 -8 -9 0
-4 -8 -10 0
-4 -9 -10 0
-5 -6 -7 0
-5 -6 -8 0
-5 -6 -9 0
-5 -6 -10 0
-5 -7 -8 0
-5 -7 -9 0
-5 -7 -10 0
-5 -8 -9 0
-5 -8 -10 0
-5 -9 -10 0
-6 -7 -8 0
-6 -7 -9 0
-6 -7 -10 0
-6 -8 -9 0
-6 -8 -10 0
-6 -9 -10 0
-7 -8 -9 0
-7 -8 -10 0
-7 -9 -10 0
-8 -9 -10 0
-1 2 3 4 5 6 7 8 9 10 0
-2 1 3 4 5 6 7 8 9 10 0
-3 1 2 4 5 6 7 8 9 10 0
-4 1 2 3 5 6 7 8 9 10 0
-5 1 2 3 4 6 7 8 9 10 0
-6 1 2 3 4 5 7 8 9 10 0
-7 1 2 3 4 5 6 8 9 10 0
-8 1 2 3 4 5 6 7 9 10 0
-9 1 2 3 4 5 6 7 8 10 0
-10 1 2 3 4 5 6 7 8 9 0
-1 -11 -12 0
-1 -11 -13 0
-1 -11 -14 0
-1 -11 -15 0
-1 -11 -16 0
-1 -11 -17 0
-1 -11 -18 0
-1 -11 -19 0
-1 -12 -13 0
-1 -12 -14 0
-1 -12 -15 0
-1 -12 -16 0
-1 -12 -17 0
-1 -12 -18 0
-1 -12 -19 0
-1 -13 -14 0
-1 -13 -15 0
-1 -13 -16 0
-1 -13 -17 0
-1 -13 -18 0
-1 -13 -19 0
-1 -14 -15 0
-1 -14 -16 0
-1 -14 -17 0
-1 -14 -18 0
-1 -14 -19 0
-1 -15 -16 0
-1 -15 -17 0
-1 -15 -18 0
-1 -15 -19 0
-1 -16 -17 0
-1 -16 -18 0
-1 -16 -19 0
-1 -17 -18 0
-1 -17 -19 0
-1 -18 -19 0
-11 -12 -13 0
-11 -12 -14 0
-11 -12 -15 0
-11 -12 -16 0
-11 -12 -17 0
-11 -12 -18 0
-11 -12 -19 0
-11 -13 -14 0
-11 -13 -15 0
-11 -13 -16 0
-11 -13 -17 0
-11 -13 -18 0
-11 -13 -19 0
-11 -14 -15 0
-11 -14 -16 0
-11 -14 -17 0
-11 -14 -18 0
-11 -14 -19 0
-11 -15 -16 0
-11 -15 -17 0
-11 -15 -18 0
-11 -15 -19 0
-11 -16 -17 0
-11 -16 -18 0
-11 -16 -19 0
-11 -17 -18 0
-11 -17 -19 0
-11 -18 -19 0
-12 -13 -14 0
-12 -13 -15 0
-12 -13 -16 0
-12 -13 -17 0
-12 -13 -18 0
-12 -13 -19 0
-12 -14 -15 0
-12 -14 -16 0
-12 -14 -17 0
-12 -14 -18 0
-12 -14 -19 0
-12 -15 -16 0
-12 -15 -17 0
-12 -15 -18 0
-12 -15 -19 0
-12 -16 -17 0
-12 -16 -18 0
-12 -16 -19 0
-12 -17 -18 0
-12 -17 -19 0
-12 -18 -19 0
-13 -14 -15 0
-13 -14 -16 0
-13 -14 -17 0
-13 -14 -18 0
-13 -14 -19 0
-13 -15 -16 0
-13 -15 -17 0
-13 -15 -18 0
-13 -15 -19 0
-13 -16 -17 0
-13 -16 -18 0
-13 -16 -19 0
-13 -17 -18 0
-13 -17 -19 0
-13 -18 -19 0
-14 -15 -16 0
-14 -15 -17 0
-14 -15 -18 0
-14 -15 -19 0
-14 -16 -17 0
-14 -16 -18 0
-14 -16 -19 0
-14 -17 -18 0
-14 -17 -19 0
-14 -18 -19 0
-15 -16 -17 0
-15 -16 -18 0
-15 -16 -19 0
-15 -17 -18 0
-15 -17 -19 0
-15 -18 -19 0
-16 -17 -18 0
-16 -17 -19 0
-16 -18 -19 0
-17 -18 -19 0
-1 11 12 13 14 15 16 17 18 19 0
-11 1 12 13 14 15 16 17 18 19 0
-12 1 11 13 14 15 16 17 18 19 0
-13 1 11 12 14 15 16 17 18 19 0
-14 1 11 12 13 15 16 17 18 19 0
-15 1 11 12 13 14 16 17 18 19 0
-16 1 11 12 13 14 15 17 18 19 0
-17 1 11 12 13 14 15 16 18 19 0
-18 1 11 12 13 14 15 16 17 19 0
-19 1 11 12 13 14 15 16 17 18 0
-2 -20 -21 0
-2 -20 -22 0
-2 -20 -23 0
-2 -20 -24 0
-2 -20 -25 0
-2 -20 -26 0
-2 -20 -27 0
-2 -20 -28 0
-2 -21 -22 0
-2 -21 -23 0
-2 -21 -24 0
-2 -21 -25 0
-2 -21 -26 0
-2 -21 -27 0
-2 -21 -28 0
-2 -22 -23 0
-2 -22 -24 0
-2 -22 -25 0
-2 -22 -26 0
-2 -22 -27 0
-2 -22 -28 0
-2 -23 -24 0
-2 -23 -25 0
-2 -23 -26 0
-2 -23 -27 0
-2 -23 -28 0
-2 -24 -25 0
-2 -24 -26 0
-2 -24 -27 0
-2 -24 -28 0
-2 -25 -26 0
-2 -25 -27 0
-2 -25 -28 0
-2 -26 -27 0
-2 -26 -28 0
-2 -27 -28 0
-20 -21 -22 0
-20 -21 -23 0
-20 -21 -24 0
-20 -21 -25 0
-20 -21 -26 0
-20 -21 -27 0
-20 -21 -28 0
-20 -22 -23 0
-20 -22 -24 0
-20 -22 -25 0
-20 -22 -26 0
-20 -22 -27 0
-20 -22 -28 0
-20 -23 -24 0
-20 -23 -25 0
-20 -23 -26 0
-20 -23 -27 0
-20 -23 -28 0
-20 -24 -25 0
-20 -24 -26 0
-20 -24 -27 0
-20 -24 -28 0
-20 -25 -26 0
-20 -25 -27 0
-20 -25 -28 0
-20 -26 -27 0
-20 -26 -28 0
-20 -27 -28 0
-21 -22 -23 0
-21 -22 -24 0
-21 -22 -25 0
-21 -22 -26 0
-21 -22 -27 0
-21 -22 -28 0
-21 -23 -24 0
-21 -23 -25 0
-21 -23 -26 0
-21 -23 -27 0
-21 -23 -28 0
-21 -24 -25 0
-21 -24 -26 0
-21 -24 -27 0
-21 -24 -28 0
-21 -25 -26 0
-21 -25 -27 0
-21 -25 -28 0
-21 -26 -27 0
-21 -26 -28 0
-21 -27 -28 0
-22 -23 -24 0
-22 -23 -25 0
-22 -23 -26 0
-22 -23 -27 0
-22 -23 -28 0
-22 -24 -25 0
-22 -24 -26 0
-22 -24 -27 0
-22 -24 -28 0
-22 -25 -26 0
-22 -25 -27 0
-22 -25 -28 0
-22 -26 -27 0
-22 -26 -28 0
-22 -27 -28 0
-23 -24 -25 0
-23 -24 -26 0
-23 -24 -27 0
-23 -24 -28 0
-23 -25 -26 0
-23 -25 -27 0
-23 -25 -28 0
-23 -26 -27 0
-23 -26 -28 0
-23 -27 -28 0
-24 -25 -26 0
-24 -25 -27 0
-24 -25 -28 0
-24 -26 -27 0
-24 -26 -28 0
-24 -27 -28 0
-25 -26 -27 0
-25 -26 -28 0
-25 -27 -28 0
-26 -27 -28 0
-2 20 21 22 23 24 25 26 27 28 0
-20 2 21 22 23 24 25 26 27 28 0
-21 2 20 22 23 24 25 26 27 28 0
-22 2 20 21 23 24 25 26 27 28 0
-23 2 20 21 22 24 25 26 27 28 0
-24 2 20 21 22 23 25 26 27 28 0
-25 2 20 21 22 23 24 26 27 28 0
-26 2 20 21 22 23 24 25 27 28 0
-27 2 20 21 22 23 24 25 26 28 0
-28 2 20 21 22 23 24 25 26 27 0
-11 -20 -29 0
-11 -20 -30 0
-11 -20 -31 0
-11 -20 -32 0
-11 -20 -33 0
-11 -20 -34 0
-11 -20 -35 0
-11 -20 -36 0
-11 -29 -30 0
-11 -29 -31 0
-11 -29 -32 0
-11 -29 -33 0
-11 -29 -34 0
-11 -29 -35 0
-11 -29 -36 0
-11 -30 -31 0
-11 -30 -32 0
-11 -30 -33 0
-11 -30 -34 0
-11 -30 -35 0
-11 -30 -36 0
-11 -31 -32 0
-11 -31 -33 0
-11 -31 -34 0
-11 -31 -35 0
-11 -31 -36 0
-11 -32 -33 0
-11 -32 -34 0
-11 -32 -35 0
-11 -32 -36 0
-11 -33 -34 0
-11 -33 -35 0
-11 -33 -36 0
-11 -34 -35 0
-11 -34 -36 0
-11 -35 -36 0
-20 -29 -30 0
-20 -29 -31 0
-20 -29 -32 0
-20 -29 -33 0
-20 -29 -34 0
-20 -29 -35 0
-20 -29 -36 0
-20 -30 -31 0
-20 -30 -32 0
-20 -30 -33 0
-20 -30 -34 0
-20 -30 -35 0
-20 -30 -36 0
-20 -31 -32 0
-20 -31 -33 0
-20 -31 -34 0
-20 -31 -35 0
-20 -31 -36 0
-20 -32 -33 0
-20 -32 -34 0
-20 -32 -35 0
-20 -32 -36 0
-20 -33 -34 0
-20 -33 -35 0
-20 -33 -36 0
-20 -34 -35 0
-20 -34 -36 0
-20 -35 -36 0
-29 -30 -31 0
-29 -30 -32 0
-29 -30 -33 0
-29 -30 -34 0
-29 -30 -35 0
-29 -30 -36 0
-29 -31 -32 0
-29 -31 -33 0
-29 -31 -34 0
-29 -31 -35 0
-29 -31 -36 0
-29 -32 -33 0
-29 -32 -34 0
-29 -32 -35 0
-29 -32 -36 0
-29 -33 -34 0
-29 -33 -35 0
-29 -33 -36 0
-29 -34 -35 0
-29 -34 -36 0
-29 -35 -36 0
-30 -31 -32 0
-30 -31 -33 0
-30 -31 -34 0
-30 -31 -35 0
-30 -31 -36 0
-30 -32 -33 0
-30 -32 -34 0
-30 -32 -35 0
-30 -32 -36 0
-30 -33 -34 0
-30 -33 -35 0
-30 -33 -36 0
-30 -34 -35 0
-30 -34 -36 0
-30 -35 -36 0
-31 -32 -33 0
-31 -32 -34 0
-31 -32 -35 0
-31 -32 -36 0
-31 -33 -34 0
-31 -33 -35 0
-31 -33 -36 0
-31 -34 -35 0
-31 -34 -36 0
-31 -35 -36 0
-32 -33 -34 0
-32 -33 -35 0
-32 -33 -36 0
-32 -34 -35 0
-32 -34 -36 0
-32 -35 -36 0
-33 -34 -35 0
-33 -34 -36 0
-33 -35 -36 0
-34 -35 -36 0
-11 20 29 30 31 32 33 34 35 36 0
-20 11 29 30 31 32 33 34 35 36 0
-29 11 20 30 31 32 33 34 35 36 0
-30 11 20 29 31 32 33 34 35 36 0
-31 11 20 29 30 32 33 34 35 36 0
-32 11 20 29 30 31 33 34 35 36 0
-33 11 20 29 30 31 32 34 35 36 0
-34 11 20 29 30 31 32 33 35 36 0
-35 11 20 29 30 31 32 33 34 36 0
-36 11 20 29 30 31 32 33 34 35 0
-3 -37 -38 0
-3 -37 -39 0
-3 -37 -40 0
-3 -37 -41 0
-3 -37 -42 0
-3 -37 -43 0
-3 -37 -44 0
-3 -37 -45 0
-3 -38 -39 0
-3 -38 -40 0
-3 -38 -41 0
-3 -38 -42 0
-3 -38 -43 0
-3 -38 -44 0
-3 -38 -45 0
-3 -39 -40 0
-3 -39 -41 0
-3 -39 -42 0
-3 -39 -43 0
-3 -39 -44 0
-3 -39 -45 0
-3 -40 -41 0
-3 -40 -42 0
-3 -40 -43 0
-3 -40 -44 0
-3 -40 -45 0
-3 -41 -42 0
-3 -41 -43 0
-3 -41 -44 0
-3 -41 -45 0
-3 -42 -43 0
-3 -42 -44 0
-3 -42 -45 0
-3 -43 -44 0
-3 -43 -45 0
-3 -44 -45 0
-37 -38 -39 0
-37 -38 -40 0
-37 -38 -41 0
-37 -38 -42 0
-37 -38 -43 0
-37 -38 -44 0
-37 -38 -45 0
-37 -39 -40 0
-37 -39 -41 0
-37 -39 -42 0
-37 -39 -43 0
-37 -39 -44 0
-37 -39 -45 0
-37 -40 -41 0
-37 -40 -42 0
-37 -40 -43 0
-37 -40 -44 0
-37 -40 -45 0
-37 -41 -42 0
-37 -41 -43 0
-37 -41 -44 0
-37 -41 -45 0
-37 -42 -43 0
-37 -42 -44 0
-37 -42 -45 0
-37 -43 -44 0
-37 -43 -45 0
-37 -44 -45 0
-38 -39 -40 0
-38 -39 -41 0
-38 -39 -42 0
-38 -39 -43 0
-38 -39 -44 0
-38 -39 -45 0
-38 -40 -41 0
-38 -40 -42 0
-38 -40 -43 0
-38 -40 -44 0
-38 -40 -45 0
-38 -41 -42 0
-38 -41 -43 0
-38 -41 -44 0
-38 -41 -45 0
-38 -42 -43 0
-38 -42 -44 0
-38 -42 -45 0
-38 -43 -44 0
-38 -43 -45 0
-38 -44 -45 0
-39 -40 -41 0
-39 -40 -42 0
-39 -40 -43 0
-39 -40 -44 0
-39 -40 -45 0
-39 -41 -42 0
-39 -41 -43 0
-39 -41 -44 0
-39 -41 -45 0
-39 -42 -43 0
-39 -42 -44 0
-39 -42 -45 0
-39 -43 -44 0
-39 -43 -45 0
-39 -44 -45 0
-40 -41 -42 0
-40 -41 -43 0
-40 -41 -44 0
-40 -41 -45 0
-40 -42 -43 0
-40 -42 -44 0
-40 -42 -45 0
-40 -43 -44 0
-40 -43 -45 0
-40 -44 -45 0
-41 -42 -43 0
-41 -42 -44 0
-41 -42 -45 0
-41 -43 -44 0
-41 -43 -45 0
-41 -44 -45 0
-42 -43 -44 0
-42 -43 -45 0
-42 -44 -45 0
-43 -44 -45 0
-3 37 38 39 40 41 42 43 44 45 0
-37 3 38 39 40 41 42 43 44 45 0
-38 3 37 39 40 41 42 43 44 45 0
-39 3 37 38 40 41 42 43 44 45 0
-40 3 37 38 39 41 42 43 44 45 0
-41 3 37 38 39 40 42 43 44 45 0
-42 3 37 38 39 40 41 43 44 45 0
-43 3 37 38 39 40 41 42 44 45 0
-44 3 37 38 39 40 41 42 43 45 0
-45 3 37 38 39 40 41 42 43 44 0
-12 -37 -46 0
-12 -37 -47 0
-12 -37 -48 0
-12 -37 -49 0
-12 -37 -50 0
-12 -37 -51 0
-12 -37 -52 0
-12 -37 -53 0
-12 -46 -47 0
-12 -46 -48 0
-12 -46 -49 0
-12 -46 -50 0
-12 -46 -51 0
-12 -46 -52 0
-12 -46 -53 0
-12 -47 -48 0
-12 -47 -49 0
-12 -47 -50 0
-12 -47 -51 0
-12 -47 -52 0
-12 -47 -53 0
-12 -48 -49 0
-12 -48 -50 0
-12 -48 -51 0
-12 -48 -52 0
-12 -48 -53 0
-12 -49 -50 0
-12 -49 -51 0
-12 -49 -52 0
-12 -49 -53 0
-12 -50 -51 0
-12 -50 -52 0
-12 -50 -53 0
-12 -51 -52 0
-12 -51 -53 0
-12 -52 -53 0
-37 -46 -47 0
-37 -46 -48 0
-37 -46 -49 0
-37 -46 -50 0
-37 -46 -51 0
-37 -46 -52 0
-37 -46 -53 0
-37 -47 -48 0
-37 -47 -49 0
-37 -47 -50 0
-37 -47 -51 0
-37 -47 -52 0
-37 -47 -53 0
-37 -48 -49 0
-37 -48 -50 0
-37 -48 -51 0
-37 -48 -52 0
-37 -48 -53 0
-37 -49 -50 0
-37 -49 -51 0
-37 -49 -52 0
-37 -49 -53 0
-37 -50 -51 0
-37 -50 -52 0
-37 -50 -53 0
-37 -51 -52 0
-37 -51 -53 0
-37 -52 -53 0
-46 -47 -48 0
-46 -47 -49 0
-46 -47 -50 0
-46 -47 -51 0
-46 -47 -52 0
-46 -47 -53 0
-46 -48 -49 0
-46 -48 -50 0
-46 -48 -51 0
-46 -48 -52 0
-46 -48 -53 0
-46 -49 -50 0
-46 -49 -51 0
-46 -49 -52 0
-46 -49 -53 0
-46 -50 -51 0
-46 -50 -52 0
-46 -50 -53 0
-46 -51 -52 0
-46 -51 -53 0
-46 -52 -53 0
-47 -48 -49 0
-47 -48 -50 0
-47 -48 -51 0
-47 -48 -52 0
-47 -48 -53 0
-47 -49 -50 0
-47 -49 -51 0
-47 -49 -52 0
-47 -49 -53 0
-47 -50 -51 0
-47 -50 -52 0
-47 -50 -53 0
-47 -51 -52 0
-47 -51 -53 0
-47 -52 -53 0
-48 -49 -50 0
-48 -49 -51 0
-48 -49 -52 0
-48 -49 -53 0
-48 -50 -51 0
-48 -50 -52 0
-48 -50 -53 0
-48 -51 -52 0
-48 -51 -53 0
-48 -52 -53 0
-49 -50 -51 0
-49 -50 -52 0
-49 -50 -53 0
-49 -51 -52 0
-49 -51 -53 0
-49 -52 -53 0
-50 -51 -52 0
-50 -51 -53 0
-50 -52 -53 0
-51 -52 -53 0
-12 37 46 47 48 49 50 51 52 53 0
-37 12 46 47 48 49 50 51 52 53 0
-46 12 37 47 48 49 50 51 52 53 0
-47 12 37 46 48 49 50 51 52 53 0
-48 12 37 46 47 49 50 51 52 53 0
-49 12 37 46 47 48 50 51 52 53 0
-50 12 37 46 47 48 49 51 52 53 0
-51 12 37 46 47 48 49 50 52 53 0
-52 12 37 46 47 48 49 50 51 53 0
-53 12 37 46 47 48 49 50 51 52 0
-21 -38 -54 0
-21 -38 -55 0
-21 -38 -56 0
-21 -38 -57 0
-21 -38 -58 0
-21 -38 -59 0
-21 -38 -60 0
-21 -38 -61 0
-21 -54 -55 0
-21 -54 -56 0
-21 -54 -57 0
-21 -54 -58 0
-21 -54 -59 0
-21 -54 -60 0
-21 -54 -61 0
-21 -55 -56 0
-21 -55 -57 0
-21 -55 -58 0
-21 -55 -59 0
-21 -55 -60 0
-21 -55 -61 0
-21 -56 -57 0
-21 -56 -58 0
-21 -56 -59 0
-21 -56 -60 0
-21 -56 -61 0
-21 -57 -58 0
-21 -57 -59 0
-21 -57 -60 0
-21 -57 -61 0
-21 -58 -59 0
-21 -58 -60 0
-21 -58 -61 0
-21 -59 -60 0
-21 -59 -61 0
-21 -60 -61 0
-38 -54 -55 0
-38 -54 -56 0
-38 -54 -57 0
-38 -54 -58 0
-38 -54 -59 0
-38 -54 -60 0
-38 -54 -61 0
-38 -55 -56 0
-38 -55 -57 0
-38 -55 -58 0
-38 -55 -59 0
-38 -55 -60 0
-38 -55 -61 0
-38 -56 -57 0
-38 -56 -58 0
-38 -56 -59 0
-38 -56 -60 0
-38 -56 -61 0
-38 -57 -58 0
-38 -57 -59 0
-38 -57 -60 0
-38 -57 -61 0
-38 -58 -59 0
-38 -58 -60 0
-38 -58 -61 0
-38 -59 -60 0
-38 -59 -61 0
-38 -60 -61 0
-54 -55 -56 0
-54 -55 -57 0
-54 -55 -58 0
-54 -55 -59 0
-54 -55 -60 0
-54 -55 -61 0
-54 -56 -57 0
-54 -56 -58 0
-54 -56 -59 0
-54 -56 -60 0
-54 -56 -61 0
-54 -57 -58 0
-54 -57 -59 0
-54 -57 -60 0
-54 -57 -61 0
-54 -58 -59 0
-54 -58 -60 0
-54 -58 -61 0
-54 -59 -60 0
-54 -59 -61 0
-54 -60 -61 0
-55 -56 -57 0
-55 -56 -58 0
-55 -56 -59 0
-55 -56 -60 0
-55 -56 -61 0
-55 -57 -58 0
-55 -57 -59 0
-55 -57 -60 0
-55 -57 -61 0
-55 -58 -59 0
-55 -58 -60 0
-55 -58 -61 0
-55 -59 -60 0
-55 -59 -61 0
-55 -60 -61 0
-56 -57 -58 0
-56 -57 -59 0
-56 -57 -60 0
-56 -57 -61 0
-56 -58 -59 0
-56 -58 -60 0
-56 -58 -61 0
-56 -59 -60 0
-56 -59 -61 0
-56 -60 -61 0
-57 -58 -59 0
-57 -58 -60 0
-57 -58 -61 0
-57 -59 -60 0
-57 -59 -61 0
-57 -60 -61 0
-58 -59 -60 0
-58 -59 -61 0
-58 -60 -61 0
-59 -60 -61 0
-21 38 54 55 56 57 58 59 60 61 0
-38 21 54 55 56 57 58 59 60 61 0
-54 21 38 55 56 57 58 59 60 61 0
-55 21 38 54 56 57 58 59 60 61 0
-56 21 38 54 55 57 58 59 60 61 0
-57 21 38 54 55 56 58 59 60 61 0
-58 21 38 54 55 56 57 59 60 61 0
-59 21 38 54 55 56 57 58 60 61 0
-60 21 38 54 55 56 57 58 59 61 0
-61 21 38 54 55 56 57 58 59 60 0
-29 -46 -54 0
-29 -46 -62 0
-29 -46 -63 0
-29 -46 -64 0
-29 -46 -65 0
-29 -46 -66 0
-29 -46 -67 0
-29 -46 -68 0
-29 -54 -62 0
-29 -54 -63 0
-29 -54 -64 0
-29 -54 -65 0
-29 -54 -66 0
-29 -54 -67 0
-29 -54 -68 0
-29 -62 -63 0
-29 -62 -64 0
-29 -62 -65 0
-29 -62 -66 0
-29 -62 -67 0
-29 -62 -68 0
-29 -63 -64 0
-29 -63 -65 0
-29 -63 -66 0
-29 -63 -67 0
-29 -63 -68 0
-29 -64 -65 0
-29 -64 -66 0
-29 -64 -67 0
-29 -64 -68 0
-29 -65 -66 0
-29 -65 -67 0
-29 -65 -68 0
-29 -66 -67 0
-29 -66 -68 0
-29 -67 -68 0
-46 -54 -62 0
-46 -54 -63 0
-46 -54 -64 0
-46 -54 -65 0
-46 -54 -66 0
-46 -54 -67 0
-46 -54 -68 0
-46 -62 -63 0
-46 -62 -64 0
-46 -62 -65 0
-46 -62 -66 0
-46 -62 -67 0
-46 -62 -68 0
-46 -63 -64 0
-46 -63 -65 0
-46 -63 -66 0
-46 -63 -67 0
-46 -63 -68 0
-46 -64 -65 0
-46 -64 -66 0
-46 -64 -67 0
-46 -64 -68 0
-46 -65 -66 0
-46 -65 -67 0
-46 -65 -68 0
-46 -66 -67 0
-46 -66 -68 0
-46 -67 -68 0
-54 -62 -63 0
-54 -62 -64 0
-54 -62 -65 0
-54 -62 -66 0
-54 -62 -67 0
-54 -62 -68 0
-54 -63 -64 0
-54 -63 -65 0
-54 -63 -66 0
-54 -63 -67 0
-54 -63 -68 0
-54 -64 -65 0
-54 -64 -66 0
-54 -64 -67 0
-54 -64 -68 0
-54 -65 -66 0
-54 -65 -67 0
-54 -65 -68 0
-54 -66 -67 0
-54 -66 -68 0
-54 -67 -68 0
-62 -63 -64 0
-62 -63 -65 0
-62 -63 -66 0
-62 -63 -67 0
-62 -63 -68 0
-62 -64 -65 0
-62 -64 -66 0
-62 -64 -67 0
-62 -64 -68 0
-62 -65 -66 0
-62 -65 -67 0
-62 -65 -68 0
-62 -66 -67 0
-62 -66 -68 0
-62 -67 -68 0
-63 -64 -65 0
-63 -64 -66 0
-63 -64 -67 0
-63 -64 -68 0
-63 -65 -66 0
-63 -65 -67 0
-63 -65 -68 0
-63 -66 -67 0
-63 -66 -68 0
-63 -67 -68 0
-64 -65 -66 0
-64 -65 -67 0
-64 -65 -68 0
-64 -66 -67 0
-64 -66 -68 0
-64 -67 -68 0
-65 -66 -67 0
-65 -66 -68 0
-65 -67 -68 0
-66 -67 -68 0
-29 46 54 62 63 64 65 66 67 68 0
-46 29 54 62 63 64 65 66 67 68 0
-54 29 46 62 63 64 65 66 67 68 0
-62 29 46 54 63 64 65 66 67 68 0
-63 29 46 54 62 64 65 66 67 68 0
-64 29 46 54 62 63 65 66 67 68 0
-65 29 46 54 62 63 64 66 67 68 0
-66 29 46 54 62 63 64 65 67 68 0
-67 29 46 54 62 63 64 65 66 68 0
-68 29 46 54 62 63 64 65 66 67 0
-4 -62 -69 0
-4 -62 -70 0
-4 -62 -71 0
-4 -62 -72 0
-4 -62 -73 0
-4 -62 -74 0
-4 -62 -75 0
-4 -62 -76 0
-4 -69 -70 0
-4 -69 -71 0
-4 -69 -72 0
-4 -69 -73 0
-4 -69 -74 0
-4 -69 -75 0
-4 -69 -76 0
-4 -70 -71 0
-4 -70 -72 0
-4 -70 -73 0
-4 -70 -74 0
-4 -70 -75 0
-4 -70 -76 0
-4 -71 -72 0
-4 -71 -73 0
-4 -71 -74 0
-4 -71 -75 0
-4 -71 -76 0
-4 -72 -73 0
-4 -72 -74 0
-4 -72 -75 0
-4 -72 -76 0
-4 -73 -74 0
-4 -73 -75 0
-4 -73 -76 0
-4 -74 -75 0
-4 -74 -76 0
-4 -75 -76 0
-62 -69 -70 0
-62 -69 -71 0
-62 -69 -72 0
-62 -69 -73 0
-62 -69 -74 0
-62 -69 -75 0
-62 -69 -76 0
-62 -70 -71 0
-62 -70 -72 0
-62 -70 -73 0
-62 -70 -74 0
-62 -70 -75 0
-62 -70 -76 0
-62 -71 -72 0
-62 -71 -73 0
-62 -71 -74 0
-62 -71 -75 0
-62 -71 -76 0
-62 -72 -73 0
-62 -72 -74 0
-62 -72 -75 0
-62 -72 -76 0
-62 -73 -74 0
-62 -73 -75 0
-62 -73 -76 0
-62 -74 -75 0
-62 -74 -76 0
-62 -75 -76 0
-69 -70 -71 0
-69 -70 -72 0
-69 -70 -73 0
-69 -70 -74 0
-69 -70 -75 0
-69 -70 -76 0
-69 -71 -72 0
-69 -71 -73 0
-69 -71 -74 0
-69 -71 -75 0
-69 -71 -76 0
-69 -72 -73 0
-69 -72 -74 0
-69 -72 -75 0
-69 -72 -76 0
-69 -73 -74 0
-69 -73 -75 0
-69 -73 -76 0
-69 -74 -75 0
-69 -74 -76 0
-69 -75 -76 0
-70 -71 -72 0
-70 -71 -73 0
-70 -71 -74 0
-70 -71 -75 0
-70 -71 -76 0
-70 -72 -73 0
-70 -72 -74 0
-70 -72 -75 0
-70 -72 -76 0
-70 -73 -74 0
-70 -73 -75 0
-70 -73 -76 0
-70 -74 -75 0
-70 -74 -76 0
-70 -75 -76 0
-71 -72 -73 0
-71 -72 -74 0
-71 -72 -75 0
-71 -72 -76 0
-71 -73 -74 0
-71 -73 -75 0
-71 -73 -76 0
-71 -74 -75 0
-71 -74 -76 0
-71 -75 -76 0
-72 -73 -74 0
-72 -73 -75 0
-72 -73 -76 0
-72 -74 -75 0
-72 -74 -76 0
-72 -75 -76 0
-73 -74 -75 0
-73 -74 -76 0
-73 -75 -76 0
-74 -75 -76 0
-4 62 69 70 71 72 73 74 75 76 0
-62 4 69 70 71 72 73 74 75 76 0
-69 4 62 70 71 72 73 74 75 76 0
-70 4 62 69 71 72 73 74 75 76 0
-71 4 62 69 70 72 73 74 75 76 0
-72 4 62 69 70 71 73 74 75 76 0
-73 4 62 69 70 71 72 74 75 76 0
-74 4 62 69 70 71 72 73 75 76 0
-75 4 62 69 70 71 72 73 74 76 0
-76 4 62 69 70 71 72 73 74 75 0
-13 -55 -69 0
-13 -55 -77 0
-13 -55 -78 0
-13 -55 -79 0
-13 -55 -80 0
-13 -55 -81 0
-13 -55 -82 0
-13 -55 -83 0
-13 -69 -77 0
-13 -69 -78 0
-13 -69 -79 0
-13 -69 -80 0
-13 -69 -81 0
-13 -69 -82 0
-13 -69 -83 0
-13 -77 -78 0
-13 -77 -79 0
-13 -77 -80 0
-13 -77 -81 0
-13 -77 -82 0
-13 -77 -83 0
-13 -78 -79 0
-13 -78 -80 0
-13 -78 -81 0
-13 -78 -82 0
-13 -78 -83 0
-13 -79 -80 0
-13 -79 -81 0
-13 -79 -82 0
-13 -79 -83 0
-13 -80 -81 0
-13 -80 -82 0
-13 -80 -83 0
-13 -81 -82 0
-13 -81 -83 0
-13 -82 -83 0
-55 -69 -77 0
-55 -69 -78 0
-55 -69 -79 0
-55 -69 -80 0
-55 -69 -81 0
-55 -69 -82 0
-55 -69 -83 0
-55 -77 -78 0
-55 -77 -79 0
-55 -77 -80 0
-55 -77 -81 0
-55 -77 -82 0
-55 -77 -83 0
-55 -78 -79 0
-55 -78 -80 0
-55 -78 -81 0
-55 -78 -82 0
-55 -78 -83 0
-55 -79 -80 0
-55 -79 -81 0
-55 -79 -82 0
-55 -79 -83 0
-55 -80 -81 0
-55 -80 -82 0
-55 -80 -83 0
-55 -81 -82 0
-55 -81 -83 0
-55 -82 -83 0
-69 -77 -78 0
-69 -77 -79 0
-69 -77 -80 0
-69 -77 -81 0
-69 -77 -82 0
-69 -77 -83 0
-69 -78 -79 0
-69 -78 -80 0
-69 -78 -81 0
-69 -78 -82 0
-69 -78 -83 0
-69 -79 -80 0
-69 -79 -81 0
-69 -79 -82 0
-69 -79 -83 0
-69 -80 -81 0
-69 -80 -82 0
-69 -80 -83 0
-69 -81 -82 0
-69 -81 -83 0
-69 -82 -83 0
-77 -78 -79 0
-77 -78 -80 0
-77 -78 -81 0
-77 -78 -82 0
-77 -78 -83 0
-77 -79 -80 0
-77 -79 -81 0
-77 -79 -82 0
-77 -79 -83 0
-77 -80 -81 0
-77 -80 -82 0
-77 -80 -83 0
-77 -81 -82 0
-77 -81 -83 0
-77 -82 -83 0
-78 -79 -80 0
-78 -79 -81 0
-78 -79 -82 0
-78 -79 -83 0
-78 -80 -81 0
-78 -80 -82 0
-78 -80 -83 0
-78 -81 -82 0
-78 -81 -83 0
-78 -82 -83 0
-79 -80 -81 0
-79 -80 -82 0
-79 -80 -83 0
-79 -81 -82 0
-79 -81 -83 0
-79 -82 -83 0
-80 -81 -82 0
-80 -81 -83 0
-80 -82 -83 0
-81 -82 -83 0
-13 55 69 77 78 79 80 81 82 83 0
-55 13 69 77 78 79 80 81 82 83 0
-69 13 55 77 78 79 80 81 82 83 0
-77 13 55 69 78 79 80 81 82 83 0
-78 13 55 69 77 79 80 81 82 83 0
-79 13 55 69 77 78 80 81 82 83 0
-80 13 55 69 77 78 79 81 82 83 0
-81 13 55 69 77 78 79 80 82 83 0
-82 13 55 69 77 78 79 80 81 83 0
-83 13 55 69 77 78 79 80 81 82 0
-22 -47 -70 0
-22 -47 -84 0
-22 -47 -85 0
-22 -47 -86 0
-22 -47 -87 0
-22 -47 -88 0
-22 -47 -89 0
-22 -47 -90 0
-22 -70 -84 0
-22 -70 -85 0
-22 -70 -86 0
-22 -70 -87 0
-22 -70 -88 0
-22 -70 -89 0
-22 -70 -90 0
-22 -84 -85 0
-22 -84 -86 0
-22 -84 -87 0
-22 -84 -88 0
-22 -84 -89 0
-22 -84 -90 0
-22 -85 -86 0
-22 -85 -87 0
-22 -85 -88 0
-22 -85 -89 0
-22 -85 -90 0
-22 -86 -87 0
-22 -86 -88 0
-22 -86 -89 0
-22 -86 -90 0
-22 -87 -88 0
-22 -87 -89 0
-22 -87 -90 0
-22 -88 -89 0
-22 -88 -90 0
-22 -89 -90 0
-47 -70 -84 0
-47 -70 -85 0
-47 -70 -86 0
-47 -70 -87 0
-47 -70 -88 0
-47 -70 -89 0
-47 -70 -90 0
-47 -84 -85 0
-47 -84 -86 0
-47 -84 -87 0
-47 -84 -88 0
-47 -84 -89 0
-47 -84 -90 0
-47 -85 -86 0
-47 -85 -87 0
-47 -85 -88 0
-47 -85 -89 0
-47 -85 -90 0
-47 -86 -87 0
-47 -86 -88 0
-47 -86 -89 0
-47 -86 -90 0
-47 -87 -88 0
-47 -87 -89 0
-47 -87 -90 0
-47 -88 -89 0
-47 -88 -90 0
-47 -89 -90 0
-70 -84 -85 0
-70 -84 -86 0
-70 -84 -87 0
-70 -84 -88 0
-70 -84 -89 0
-70 -84 -90 0
-70 -85 -86 0
-70 -85 -87 0
-70 -85 -88 0
-70 -85 -89 0
-70 -85 -90 0
-70 -86 -87 0
-70 -86 -88 0
-70 -86 -89 0
-70 -86 -90 0
-70 -87 -88 0
-70 -87 -89 0
-70 -87 -90 0
-70 -88 -89 0
-70 -88 -90 0
-70 -89 -90 0
-84 -85 -86 0
-84 -85 -87 0
-84 -85 -88 0
-84 -85 -89 0
-84 -85 -90 0
-84 -86 -87 0
-84 -86 -88 0
-84 -86 -89 0
-84 -86 -90 0
-84 -87 -88 0
-84 -87 -89 0
-84 -87 -90 0
-84 -88 -89 0
-84 -88 -90 0
-84 -89 -90 0
-85 -86 -87 0
-85 -86 -88 0
-85 -86 -89 0
-85 -86 -90 0
-85 -87 -88 0
-85 -87 -89 0
-85 -87 -90 0
-85 -88 -89 0
-85 -88 -90 0
-85 -89 -90 0
-86 -87 -88 0
-86 -87 -89 0
-86 -87 -90 0
-86 -88 -89 0
-86 -88 -90 0
-86 -89 -90 0
-87 -88 -89 0
-87 -88 -90 0
-87 -89 -90 0
-88 -89 -90 0
-22 47 70 84 85 86 87 88 89 90 0
-47 22 70 84 85 86 87 88 89 90 0
-70 22 47 84 85 86 87 88 89 90 0
-84 22 47 70 85 86 87 88 89 90 0
-85 22 47 70 84 86 87 88 89 90 0
-86 22 47 70 84 85 87 88 89 90 0
-87 22 47 70 84 85 86 88 89 90 0
-88 22 47 70 84 85 86 87 89 90 0
-89 22 47 70 84 85 86 87 88 90 0
-90 22 47 70 84 85 86 87 88 89 0
-30 -39 -77 0
-30 -39 -84 0
-30 -39 -91 0
-30 -39 -92 0
-30 -39 -93 0
-30 -39 -94 0
-30 -39 -95 0
-30 -39 -96 0
-30 -77 -84 0
-30 -77 -91 0
-30 -77 -92 0
-30 -77 -93 0
-30 -77 -94 0
-30 -77 -95 0
-30 -77 -96 0
-30 -84 -91 0
-30 -84 -92 0
-30 -84 -93 0
-30 -84 -94 0
-30 -84 -95 0
-30 -84 -96 0
-30 -91 -92 0
-30 -91 -93 0
-30 -91 -94 0
-30 -91 -95 0
-30 -91 -96 0
-30 -92 -93 0
-30 -92 -94 0
-30 -92 -95 0
-30 -92 -96 0
-30 -93 -94 0
-30 -93 -95 0
-30 -93 -96 0
-30 -94 -95 0
-30 -94 -96 0
-30 -95 -96 0
-39 -77 -84 0
-39 -77 -91 0
-39 -77 -92 0
-39 -77 -93 0
-39 -77 -94 0
-39 -77 -95 0
-39 -77 -96 0
-39 -84 -91 0
-39 -84 -92 0
-39 -84 -93 0
-39 -84 -94 0
-39 -84 -95 0
-39 -84 -96 0
-39 -91 -92 0
-39 -91 -93 0
-39 -91 -94 0
-39 -91 -95 0
-39 -91 -96 0
-39 -92 -93 0
-39 -92 -94 0
-39 -92 -95 0
-39 -92 -96 0
-39 -93 -94 0
-39 -93 -95 0
-39 -93 -96 0
-39 -94 -95 0
-39 -94 -96 0
-39 -95 -96 0
-77 -84 -91 0
-77 -84 -92 0
-77 -84 -93 0
-77 -84 -94 0
-77 -84 -95 0
-77 -84 -96 0
-77 -91 -92 0
-77 -91 -93 0
-77 -91 -94 0
-77 -91 -95 0
-77 -91 -96 0
-77 -92 -93 0
-77 -92 -94 0
-77 -92 -95 0
-77 -92 -96 0
-77 -93 -94 0
-77 -93 -95 0
-77 -93 -96 0
-77 -94 -95 0
-77 -94 -96 0
-77 -95 -96 0
-84 -91 -92 0
-84 -91 -93 0
-84 -91 -94 0
-84 -91 -95 0
-84 -91 -96 0
-84 -92 -93 0
-84 -92 -94 0
-84 -92 -95 0
-84 -92 -96 0
-84 -93 -94 0
-84 -93 -95 0
-84 -93 -96 0
-84 -94 -95 0
-84 -94 -96 0
-84 -95 -96 0
-91 -92 -93 0
-91 -92 -94 0
-91 -92 -95 0
-91 -92 -96 0
-91 -93 -94 0
-91 -93 -95 0
-91 -93 -96 0
-91 -94 -95 0
-91 -94 -96 0
-91 -95 -96 0
-92 -93 -94 0
-92 -93 -95 0
-92 -93 -96 0
-92 -94 -95 0
-92 -94 -96 0
-92 -95 -96 0
-93 -94 -95 0
-93 -94 -96 0
-93 -95 -96 0
-94 -95 -96 0
-30 39 77 84 91 92 93 94 95 96 0
-39 30 77 84 91 92 93 94 95 96 0
-77 30 39 84 91 92 93 94 95 96 0
-84 30 39 77 91 92 93 94 95 96 0
-91 30 39 77 84 92 93 94 95 96 0
-92 30 39 77 84 91 93 94 95 96 0
-93 30 39 77 84 91 92 94 95 96 0
-94 30 39 77 84 91 92 93 95 96 0
-95 30 39 77 84 91 92 93 94 96 0
-96 30 39 77 84 91 92 93 94 95 0
-31 -40 -71 0
-31 -40 -97 0
-31 -40 -98 0
-31 -40 -99 0
-31 -40 -100 0
-31 -40 -101 0
-31 -40 -102 0
-31 -40 -103 0
-31 -71 -97 0
-31 -71 -98 0
-31 -71 -99 0
-31 -71 -100 0
-31 -71 -101 0
-31 -71 -102 0
-31 -71 -103 0
-31 -97 -98 0
-31 -97 -99 0
-31 -97 -100 0
-31 -97 -101 0
-31 -97 -102 0
-31 -97 -103 0
-31 -98 -99 0
-31 -98 -100 0
-31 -98 -101 0
-31 -98 -102 0
-31 -98 -103 0
-31 -99 -100 0
-31 -99 -101 0
-31 -99 -102 0
-31 -99 -103 0
-31 -100 -101 0
-31 -100 -102 0
-31 -100 -103 0
-31 -101 -102 0
-31 -101 -103 0
-31 -102 -103 0
-40 -71 -97 0
-40 -71 -98 0
-40 -71 -99 0
-40 -71 -100 0
-40 -71 -101 0
-40 -71 -102 0
-40 -71 -103 0
-40 -97 -98 0
-40 -97 -99 0
-40 -97 -100 0
-40 -97 -101 0
-40 -97 -102 0
-40 -97 -103 0
-40 -98 -99 0
-40 -98 -100 0
-40 -98 -101 0
-40 -98 -102 0
-40 -98 -103 0
-40 -99 -100 0
-40 -99 -101 0
-40 -99 -102 0
-40 -99 -103 0
-40 -100 -101 0
-40 -100 -102 0
-40 -100 -103 0
-40 -101 -102 0
-40 -101 -103 0
-40 -102 -103 0
-71 -97 -98 0
-71 -97 -99 0
-71 -97 -100 0
-71 -97 -101 0
-71 -97 -102 0
-71 -97 -103 0
-71 -98 -99 0
-71 -98 -100 0
-71 -98 -101 0
-71 -98 -102 0
-71 -98 -103 0
-71 -99 -100 0
-71 -99 -101 0
-71 -99 -102 0
-71 -99 -103 0
-71 -100 -101 0
-71 -100 -102 0
-71 -100 -103 0
-71 -101 -102 0
-71 -101 -103 0
-71 -102 -103 0
-97 -98 -99 0
-97 -98 -100 0
-97 -98 -101 0
-97 -98 -102 0
-97 -98 -103 0
-97 -99 -100 0
-97 -99 -101 0
-97 -99 -102 0
-97 -99 -103 0
-97 -100 -101 0
-97 -100 -102 0
-97 -100 -103 0
-97 -101 -102 0
-97 -101 -103 0
-97 -102 -103 0
-98 -99 -100 0
-98 -99 -101 0
-98 -99 -102 0
-98 -99 -103 0
-98 -100 -101 0
-98 -100 -102 0
-98 -100 -103 0
-98 -101 -102 0
-98 -101 -103 0
-98 -102 -103 0
-99 -100 -101 0
-99 -100 -102 0
-99 -100 -103 0
-99 -101 -102 0
-99 -101 -103 0
-99 -102 -103 0
-100 -101 -102 0
-100 -101 -103 0
-100 -102 -103 0
-101 -102 -103 0
-31 40 71 97 98 99 100 101 102 103 0
-40 31 71 97 98 99 100 101 102 103 0
-71 31 40 97 98 99 100 101 102 103 0
-97 31 40 71 98 99 100 101 102 103 0
-98 31 40 71 97 99 100 101 102 103 0
-99 31 40 71 97 98 100 101 102 103 0
-100 31 40 71 97 98 99 101 102 103 0
-101 31 40 71 97 98 99 100 102 103 0
-102 31 40 71 97 98 99 100 101 103 0
-103 31 40 71 97 98 99 100 101 102 0
-23 -48 -78 0
-23 -48 -97 0
-23 -48 -104 0
-23 -48 -105 0
-23 -48 -106 0
-23 -48 -107 0
-23 -48 -108 0
-23 -48 -109 0
-23 -78 -97 0
-23 -78 -104 0
-23 -78 -105 0
-23 -78 -106 0
-23 -78 -107 0
-23 -78 -108 0
-23 -78 -109 0
-23 -97 -104 0
-23 -97 -105 0
-23 -97 -106 0
-23 -97 -107 0
-23 -97 -108 0
-23 -97 -109 0
-23 -104 -105 0
-23 -104 -106 0
-23 -104 -107 0
-23 -104 -108 0
-23 -104 -109 0
-23 -105 -106 0
-23 -105 -107 0
-23 -105 -108 0
-23 -105 -109 0
-23 -106 -107 0
-23 -106 -108 0
-23 -106 -109 0
-23 -107 -108 0
-23 -107 -109 0
-23 -108 -109 0
-48 -78 -97 0
-48 -78 -104 0
-48 -78 -105 0
-48 -78 -106 0
-48 -78 -107 0
-48 -78 -108 0
-48 -78 -109 0
-48 -97 -104 0
-48 -97 -105 0
-48 -97 -106 0
-48 -97 -107 0
-48 -97 -108 0
-48 -97 -109 0
-48 -104 -105 0
-48 -104 -106 0
-48 -104 -107 0
-48 -104 -108 0
-48 -104 -109 0
-48 -105 -106 0
-48 -105 -107 0
-48 -105 -108 0
-48 -105 -109 0
-48 -106 -107 0
-48 -106 -108 0
-48 -106 -109 0
-48 -107 -108 0
-48 -107 -109 0
-48 -108 -109 0
-78 -97 -104 0
-78 -97 -105 0
-78 -97 -106 0
-78 -97 -107 0
-78 -97 -108 0
-78 -97 -109 0
-78 -104 -105 0
-78 -104 -106 0
-78 -104 -107 0
-78 -104 -108 0
-78 -104 -109 0
-78 -105 -106 0
-78 -105 -107 0
-78 -105 -108 0
-78 -105 -109 0
-78 -106 -107 0
-78 -106 -108 0
-78 -106 -109 0
-78 -107 -108 0
-78 -107 -109 0
-78 -108 -109 0
-97 -104 -105 0
-97 -104 -106 0
-97 -104 -107 0
-97 -104 -108 0
-97 -104 -109 0
-97 -105 -106 0
-97 -105 -107 0
-97 -105 -108 0
-97 -105 -109 0
-97 -106 -107 0
-97 -106 -108 0
-97 -106 -109 0
-97 -107 -108 0
-97 -107 -109 0
-97 -108 -109 0
-104 -105 -106 0
-104 -105 -107 0
-104 -105 -108 0
-104 -105 -109 0
-104 -106 -107 0
-104 -106 -108 0
-104 -106 -109 0
-104 -107 -108 0
-104 -107 -109 0
-104 -108 -109 0
-105 -106 -107 0
-105 -106 -108 0
-105 -106 -109 0
-105 -107 -108 0
-105 -107 -109 0
-105 -108 -109 0
-106 -107 -108 0
-106 -107 -109 0
-106 -108 -109 0
-107 -108 -109 0
-23 48 78 97 104 105 106 107 108 109 0
-48 23 78 97 104 105 106 107 108 109 0
-78 23 48 97 104 105 106 107 108 109 0
-97 23 48 78 104 105 106 107 108 109 0
-104 23 48 78 97 105 106 107 108 109 0
-105 23 48 78 97 104 106 107 108 109 0
-106 23 48 78 97 104 105 107 108 109 0
-107 23 48 78 97 104 105 106 108 109 0
-108 23 48 78 97 104 105 106 107 109 0
-109 23 48 78 97 104 105 106 107 108 0
-14 -56 -85 0
-14 -56 -98 0
-14 -56 -110 0
-14 -56 -111 0
-14 -56 -112 0
-14 -56 -113 0
-14 -56 -114 0
-14 -56 -115 0
-14 -85 -98 0
-14 -85 -110 0
-14 -85 -111 0
-14 -85 -112 0
-14 -85 -113 0
-14 -85 -114 0
-14 -85 -115 0
-14 -98 -110 0
-14 -98 -111 0
-14 -98 -112 0
-14 -98 -113 0
-14 -98 -114 0
-14 -98 -115 0
-14 -110 -111 0
-14 -110 -112 0
-14 -110 -113 0
-14 -110 -114 0
-14 -110 -115 0
-14 -111 -112 0
-14 -111 -113 0
-14 -111 -114 0
-14 -111 -115 0
-14 -112 -113 0
-14 -112 -114 0
-14 -112 -115 0
-14 -113 -114 0
-14 -113 -115 0
-14 -114 -115 0
-56 -85 -98 0
-56 -85 -110 0
-56 -85 -111 0
-56 -85 -112 0
-56 -85 -113 0
-56 -85 -114 0
-56 -85 -115 0
-56 -98 -110 0
-56 -98 -111 0
-56 -98 -112 0
-56 -98 -113 0
-56 -98 -114 0
-56 -98 -115 0
-56 -110 -111 0
-56 -110 -112 0
-56 -110 -113 0
-56 -110 -114 0
-56 -110 -115 0
-56 -111 -112 0
-56 -111 -113 0
-56 -111 -114 0
-56 -111 -115 0
-56 -112 -113 0
-56 -112 -114 0
-56 -112 -115 0
-56 -113 -114 0
-56 -113 -115 0
-56 -114 -115 0
-85 -98 -110 0
-85 -98 -111 0
-85 -98 -112 0
-85 -98 -113 0
-85 -98 -114 0
-85 -98 -115 0
-85 -110 -111 0
-85 -110 -112 0
-85 -110 -113 0
-85 -110 -114 0
-85 -110 -115 0
-85 -111 -112 0
-85 -111 -113 0
-85 -111 -114 0
-85 -111 -115 0
-85 -112 -113 0
-85 -112 -114 0
-85 -112 -115 0
-85 -113 -114 0
-85 -113 -115 0
-85 -114 -115 0
-98 -110 -111 0
-98 -110 -112 0
-98 -110 -113 0
-98 -110 -114 0
-98 -110 -115 0
-98 -111 -112 0
-98 -111 -113 0
-98 -111 -114 0
-98 -111 -115 0
-98 -112 -113 0
-98 -112 -114 0
-98 -112 -115 0
-98 -113 -114 0
-98 -113 -115 0
-98 -114 -115 0
-110 -111 -112 0
-110 -111 -113 0
-110 -111 -114 0
-110 -111 -115 0
-110 -112 -113 0
-110 -112 -114 0
-110 -112 -115 0
-110 -113 -114 0
-110 -113 -115 0
-110 -114 -115 0
-111 -112 -113 0
-111 -112 -114 0
-111 -112 -115 0
-111 -113 -114 0
-111 -113 -115 0
-111 -114 -115 0
-112 -113 -114 0
-112 -113 -115 0
-112 -114 -115 0
-113 -114 -115 0
-14 56 85 98 110 111 112 113 114 115 0
-56 14 85 98 110 111 112 113 114 115 0
-85 14 56 98 110 111 112 113 114 115 0
-98 14 56 85 110 111 112 113 114 115 0
-110 14 56 85 98 111 112 113 114 115 0
-111 14 56 85 98 110 112 113 114 115 0
-112 14 56 85 98 110 111 113 114 115 0
-113 14 56 85 98 110 111 112 114 115 0
-114 14 56 85 98 110 111 112 113 115 0
-115 14 56 85 98 110 111 112 113 114 0
-5 -63 -91 0
-5 -63 -104 0
-5 -63 -110 0
-5 -63 -116 0
-5 -63 -117 0
-5 -63 -118 0
-5 -63 -119 0
-5 -63 -120 0
-5 -91 -104 0
-5 -91 -110 0
-5 -91 -116 0
-5 -91 -117 0
-5 -91 -118 0
-5 -91 -119 0
-5 -91 -120 0
-5 -104 -110 0
-5 -104 -116 0
-5 -104 -117 0
-5 -104 -118 0
-5 -104 -119 0
-5 -104 -120 0
-5 -110 -116 0
-5 -110 -117 0
-5 -110 -118 0
-5 -110 -119 0
-5 -110 -120 0
-5 -116 -117 0
-5 -116 -118 0
-5 -116 -119 0
-5 -116 -120 0
-5 -117 -118 0
-5 -117 -119 0
-5 -117 -120 0
-5 -118 -119 0
-5 -118 -120 0
-5 -119 -120 0
-63 -91 -104 0
-63 -91 -110 0
-63 -91 -116 0
-63 -91 -117 0
-63 -91 -118 0
-63 -91 -119 0
-63 -91 -120 0
-63 -104 -110 0
-63 -104 -116 0
-63 -104 -117 0
-63 -104 -118 0
-63 -104 -119 0
-63 -104 -120 0
-63 -110 -116 0
-63 -110 -117 0
-63 -110 -118 0
-63 -110 -119 0
-63 -110 -120 0
-63 -116 -117 0
-63 -116 -118 0
-63 -116 -119 0
-63 -116 -120 0
-63 -117 -118 0
-63 -117 -119 0
-63 -117 -120 0
-63 -118 -119 0
-63 -118 -120 0
-63 -119 -120 0
-91 -104 -110 0
-91 -104 -116 0
-91 -104 -117 0
-91 -104 -118 0
-91 -104 -119 0
-91 -104 -120 0
-91 -110 -116 0
-91 -110 -117 0
-91 -110 -118 0
-91 -110 -119 0
-91 -110 -120 0
-91 -116 -117 0
-91 -116 -118 0
-91 -116 -119 0
-91 -116 -120 0
-91 -117 -118 0
-91 -117 -119 0
-91 -117 -120 0
-91 -118 -119 0
-91 -118 -120 0
-91 -119 -120 0
-104 -110 -116 0
-104 -110 -117 0
-104 -110 -118 0
-104 -110 -119 0
-104 -110 -120 0
-104 -116 -117 0
-104 -116 -118 0
-104 -116 -119 0
-104 -116 -120 0
-104 -117 -118 0
-104 -117 -119 0
-104 -117 -120 0
-104 -118 -119 0
-104 -118 -120 0
-104 -119 -120 0
-110 -116 -117 0
-110 -116 -118 0
-110 -116 -119 0
-110 -116 -120 0
-110 -117 -118 0
-110 -117 -119 0
-110 -117 -120 0
-110 -118 -119 0
-110 -118 -120 0
-110 -119 -120 0
-116 -117 -118 0
-116 -117 -119 0
-116 -117 -120 0
-116 -118 -119 0
-116 -118 -120 0
-116 -119 -120 0
-117 -118 -119 0
-117 -118 -120 0
-117 -119 -120 0
-118 -119 -120 0
-5 63 91 104 110 116 117 118 119 120 0
-63 5 91 104 110 116 117 118 119 120 0
-91 5 63 104 110 116 117 118 119 120 0
-104 5 63 91 110 116 117 118 119 120 0
-110 5 63 91 104 116 117 118 119 120 0
-116 5 63 91 104 110 117 118 119 120 0
-117 5 63 91 104 110 116 118 119 120 0
-118 5 63 91 104 110 116 117 119 120 0
-119 5 63 91 104 110 116 117 118 120 0
-120 5 63 91 104 110 116 117 118 119 0
-15 -24 -41 0
-15 -24 -72 0
-15 -24 -116 0
-15 -24 -121 0
-15 -41 -72 0
-15 -41 -116 0
-15 -41 -121 0
-15 -72 -116 0
-15 -72 -121 0
-15 -116 -121 0
-24 -41 -72 0
-24 -41 -116 0
-24 -41 -121 0
-24 -72 -116 0
-24 -72 -121 0
-24 -116 -121 0
-41 -72 -116 0
-41 -72 -121 0
-41 -116 -121 0
-72 -116 -121 0
-15 24 41 72 116 121 0
-24 15 41 72 116 121 0
-41 15 24 72 116 121 0
-72 15 24 41 116 121 0
-116 15 24 41 72 121 0
-121 15 24 41 72 116 0
-6 -32 -49 0
-6 -32 -79 0
-6 -32 -111 0
-6 -32 -122 0
-6 -49 -79 0
-6 -49 -111 0
-6 -49 -122 0
-6 -79 -111 0
-6 -79 -122 0
-6 -111 -122 0
-32 -49 -79 0
-32 -49 -111 0
-32 -49 -122 0
-32 -79 -111 0
-32 -79 -122 0
-32 -111 -122 0
-49 -79 -111 0
-49 -79 -122 0
-49 -111 -122 0
-79 -111 -122 0
-6 32 49 79 111 122 0
-32 6 49 79 111 122 0
-49 6 32 79 111 122 0
-79 6 32 49 111 122 0
-111 6 32 49 79 122 0
-122 6 32 49 79 111 0
-7 -33 -57 0
-7 -33 -86 0
-7 -33 -105 0
-7 -33 -123 0
-7 -57 -86 0
-7 -57 -105 0
-7 -57 -123 0
-7 -86 -105 0
-7 -86 -123 0
-7 -105 -123 0
-33 -57 -86 0
-33 -57 -105 0
-33 -57 -123 0
-33 -86 -105 0
-33 -86 -123 0
-33 -105 -123 0
-57 -86 -105 0
-57 -86 -123 0
-57 -105 -123 0
-86 -105 -123 0
-7 33 57 86 105 123 0
-33 7 57 86 105 123 0
-57 7 33 86 105 123 0
-86 7 33 57 105 123 0
-105 7 33 57 86 123 0
-123 7 33 57 86 105 0
-16 -25 -64 0
-16 -25 -92 0
-16 -25 -99 0
-16 -25 -124 0
-16 -64 -92 0
-16 -64 -99 0
-16 -64 -124 0
-16 -92 -99 0
-16 -92 -124 0
-16 -99 -124 0
-25 -64 -92 0
-25 -64 -99 0
-25 -64 -124 0
-25 -92 -99 0
-25 -92 -124 0
-25 -99 -124 0
-64 -92 -99 0
-64 -92 -124 0
-64 -99 -124 0
-92 -99 -124 0
-16 25 64 92 99 124 0
-25 16 64 92 99 124 0
-64 16 25 92 99 124 0
-92 16 25 64 99 124 0
-99 16 25 64 92 124 0
-124 16 25 64 92 99 0
-8 -50 -58 0
-8 -50 -93 0
-8 -50 -100 0
-8 -50 -125 0
-8 -58 -93 0
-8 -58 -100 0
-8 -58 -125 0
-8 -93 -100 0
-8 -93 -125 0
-8 -100 -125 0
-50 -58 -93 0
-50 -58 -100 0
-50 -58 -125 0
-50 -93 -100 0
-50 -93 -125 0
-50 -100 -125 0
-58 -93 -100 0
-58 -93 -125 0
-58 -100 -125 0
-93 -100 -125 0
-8 50 58 93 100 125 0
-50 8 58 93 100 125 0
-58 8 50 93 100 125 0
-93 8 50 58 100 125 0
-100 8 50 58 93 125 0
-125 8 50 58 93 100 0
-17 -42 -65 0
-17 -42 -87 0
-17 -42 -106 0
-17 -42 -126 0
-17 -65 -87 0
-17 -65 -106 0
-17 -65 -126 0
-17 -87 -106 0
-17 -87 -126 0
-17 -106 -126 0
-42 -65 -87 0
-42 -65 -106 0
-42 -65 -126 0
-42 -87 -106 0
-42 -87 -126 0
-42 -106 -126 0
-65 -87 -106 0
-65 -87 -126 0
-65 -106 -126 0
-87 -106 -126 0
-17 42 65 87 106 126 0
-42 17 65 87 106 126 0
-65 17 42 87 106 126 0
-87 17 42 65 106 126 0
-106 17 42 65 87 126 0
-126 17 42 65 87 106 0
-26 -43 -66 0
-26 -43 -80 0
-26 -43 -112 0
-26 -43 -127 0
-26 -66 -80 0
-26 -66 -112 0
-26 -66 -127 0
-26 -80 -112 0
-26 -80 -127 0
-26 -112 -127 0
-43 -66 -80 0
-43 -66 -112 0
-43 -66 -127 0
-43 -80 -112 0
-43 -80 -127 0
-43 -112 -127 0
-66 -80 -112 0
-66 -80 -127 0
-66 -112 -127 0
-80 -112 -127 0
-26 43 66 80 112 127 0
-43 26 66 80 112 127 0
-66 26 43 80 112 127 0
-80 26 43 66 112 127 0
-112 26 43 66 80 127 0
-127 26 43 66 80 112 0
-34 -51 -59 0
-34 -51 -73 0
-34 -51 -117 0
-34 -51 -128 0
-34 -59 -73 0
-34 -59 -117 0
-34 -59 -128 0
-34 -73 -117 0
-34 -73 -128 0
-34 -117 -128 0
-51 -59 -73 0
-51 -59 -117 0
-51 -59 -128 0
-51 -73 -117 0
-51 -73 -128 0
-51 -117 -128 0
-59 -73 -117 0
-59 -73 -128 0
-59 -117 -128 0
-73 -117 -128 0
-34 51 59 73 117 128 0
-51 34 59 73 117 128 0
-59 34 51 73 117 128 0
-73 34 51 59 117 128 0
-117 34 51 59 73 128 0
-128 34 51 59 73 117 0
-9 -67 -81 0
-9 -67 -88 0
-9 -67 -101 0
-9 -67 -129 0
-9 -81 -88 0
-9 -81 -101 0
-9 -81 -129 0
-9 -88 -101 0
-9 -88 -129 0
-9 -101 -129 0
-67 -81 -88 0
-67 -81 -101 0
-67 -81 -129 0
-67 -88 -101 0
-67 -88 -129 0
-67 -101 -129 0
-81 -88 -101 0
-81 -88 -129 0
-81 -101 -129 0
-88 -101 -129 0
-9 67 81 88 101 129 0
-67 9 81 88 101 129 0
-81 9 67 88 101 129 0
-88 9 67 81 101 129 0
-101 9 67 81 88 129 0
-129 9 67 81 88 101 0
-18 -60 -74 0
-18 -60 -94 0
-18 -60 -107 0
-18 -60 -130 0
-18 -74 -94 0
-18 -74 -107 0
-18 -74 -130 0
-18 -94 -107 0
-18 -94 -130 0
-18 -107 -130 0
-60 -74 -94 0
-60 -74 -107 0
-60 -74 -130 0
-60 -94 -107 0
-60 -94 -130 0
-60 -107 -130 0
-74 -94 -107 0
-74 -94 -130 0
-74 -107 -130 0
-94 -107 -130 0
-18 60 74 94 107 130 0
-60 18 74 94 107 130 0
-74 18 60 94 107 130 0
-94 18 60 74 107 130 0
-107 18 60 74 94 130 0
-130 18 60 74 94 107 0
-27 -52 -75 0
-27 -52 -95 0
-27 -52 -113 0
-27 -52 -131 0
-27 -75 -95 0
-27 -75 -113 0
-27 -75 -131 0
-27 -95 -113 0
-27 -95 -131 0
-27 -113 -131 0
-52 -75 -95 0
-52 -75 -113 0
-52 -75 -131 0
-52 -95 -113 0
-52 -95 -131 0
-52 -113 -131 0
-75 -95 -113 0
-75 -95 -131 0
-75 -113 -131 0
-95 -113 -131 0
-27 52 75 95 113 131 0
-52 27 75 95 113 131 0
-75 27 52 95 113 131 0
-95 27 52 75 113 131 0
-113 27 52 75 95 131 0
-131 27 52 75 95 113 0
-35 -44 -82 0
-35 -44 -89 0
-35 -44 -118 0
-35 -44 -132 0
-35 -82 -89 0
-35 -82 -118 0
-35 -82 -132 0
-35 -89 -118 0
-35 -89 -132 0
-35 -118 -132 0
-44 -82 -89 0
-44 -82 -118 0
-44 -82 -132 0
-44 -89 -118 0
-44 -89 -132 0
-44 -118 -132 0
-82 -89 -118 0
-82 -89 -132 0
-82 -118 -132 0
-89 -118 -132 0
-35 44 82 89 118 132 0
-44 35 82 89 118 132 0
-82 35 44 89 118 132 0
-89 35 44 82 118 132 0
-118 35 44 82 89 132 0
-132 35 44 82 89 118 0
-36 -45 -76 0
-36 -45 -108 0
-36 -45 -114 0
-36 -45 -133 0
-36 -76 -108 0
-36 -76 -114 0
-36 -76 -133 0
-36 -108 -114 0
-36 -108 -133 0
-36 -114 -133 0
-45 -76 -108 0
-45 -76 -114 0
-45 -76 -133 0
-45 -108 -114 0
-45 -108 -133 0
-45 -114 -133 0
-76 -108 -114 0
-76 -108 -133 0
-76 -114 -133 0
-108 -114 -133 0
-36 45 76 108 114 133 0
-45 36 76 108 114 133 0
-76 36 45 108 114 133 0
-108 36 45 76 114 133 0
-114 36 45 76 108 133 0
-133 36 45 76 108 114 0
-28 -53 -83 0
-28 -53 -102 0
-28 -53 -119 0
-28 -53 -134 0
-28 -83 -102 0
-28 -83 -119 0
-28 -83 -134 0
-28 -102 -119 0
-28 -102 -134 0
-28 -119 -134 0
-53 -83 -102 0
-53 -83 -119 0
-53 -83 -134 0
-53 -102 -119 0
-53 -102 -134 0
-53 -119 -134 0
-83 -102 -119 0
-83 -102 -134 0
-83 -119 -134 0
-102 -119 -134 0
-28 53 83 102 119 134 0
-53 28 83 102 119 134 0
-83 28 53 102 119 134 0
-102 28 53 83 119 134 0
-119 28 53 83 102 134 0
-134 28 53 83 102 119 0
-19 -61 -90 0
-19 -61 -103 0
-19 -61 -120 0
-19 -61 -135 0
-19 -90 -103 0
-19 -90 -120 0
-19 -90 -135 0
-19 -103 -120 0
-19 -103 -135 0
-19 -120 -135 0
-61 -90 -103 0
-61 -90 -120 0
-61 -90 -135 0
-61 -103 -120 0
-61 -103 -135 0
-61 -120 -135 0
-90 -103 -120 0
-90 -103 -135 0
-90 -120 -135 0
-103 -120 -135 0
-19 61 90 103 120 135 0
-61 19 90 103 120 135 0
-90 19 61 103 120 135 0
-103 19 61 90 120 135 0
-120 19 61 90 103 135 0
-135 19 61 90 103 120 0
-10 -68 -96 0
-10 -68 -109 0
-10 -68 -115 0
-10 -68 -136 0
-10 -96 -109 0
-10 -96 -115 0
-10 -96 -136 0
-10 -109 -115 0
-10 -109 -136 0
-10 -115 -136 0
-68 -96 -109 0
-68 -96 -115 0
-68 -96 -136 0
-68 -109 -115 0
-68 -109 -136 0
-68 -115 -136 0
-96 -109 -115 0
-96 -109 -136 0
-96 -115 -136 0
-109 -115 -136 0
-10 68 96 109 115 136 0
-68 10 96 109 115 136 0
-96 10 68 109 115 136 0
-109 10 68 96 115 136 0
-115 10 68 96 109 136 0
-136 10 68 96 109 115 0
-121 -122 -123 0
-121 -122 -124 0
-121 -122 -125 0
-121 -122 -126 0
-121 -122 -127 0
-121 -122 -128 0
-121 -122 -129 0
-121 -122 -130 0
-121 -122 -131 0
-121 -122 -132 0
-121 -122 -133 0
-121 -122 -134 0
-121 -122 -135 0
-121 -122 -136 0
-121 -123 -124 0
-121 -123 -125 0
-121 -123 -126 0
-121 -123 -127 0
-121 -123 -128 0
-121 -123 -129 0
-121 -123 -130 0
-121 -123 -131 0
-121 -123 -132 0
-121 -123 -133 0
-121 -123 -134 0
-121 -123 -135 0
-121 -123 -136 0
-121 -124 -125 0
-121 -124 -126 0
-121 -124 -127 0
-121 -124 -128 0
-121 -124 -129 0
-121 -124 -130 0
-121 -124 -131 0
-121 -124 -132 0
-121 -124 -133 0
-121 -124 -134 0
-121 -124 -135 0
-121 -124 -136 0
-121 -125 -126 0
-121 -125 -127 0
-121 -125 -128 0
-121 -125 -129 0
-121 -125 -130 0
-121 -125 -131 0
-121 -125 -132 0
-121 -125 -133 0
-121 -125 -134 0
-121 -125 -135 0
-121 -125 -136 0
-121 -126 -127 0
-121 -126 -128 0
-121 -126 -129 0
-121 -126 -130 0
-121 -126 -131 0
-121 -126 -132 0
-121 -126 -133 0
-121 -126 -134 0
-121 -126 -135 0
-121 -126 -136 0
-121 -127 -128 0
-121 -127 -129 0
-121 -127 -130 0
-121 -127 -131 0
-121 -127 -132 0
-121 -127 -133 0
-121 -127 -134 0
-121 -127 -135 0
-121 -127 -136 0
-121 -128 -129 0
-121 -128 -130 0
-121 -128 -131 0
-121 -128 -132 0
-121 -128 -133 0
-121 -128 -134 0
-121 -128 -135 0
-121 -128 -136 0
-121 -129 -130 0
-121 -129 -131 0
-121 -129 -132 0
-121 -129 -133 0
-121 -129 -134 0
-121 -129 -135 0
-121 -129 -136 0
-121 -130 -131 0
-121 -130 -132 0
-121 -130 -133 0
-121 -130 -134 0
-121 -130 -135 0
-121 -130 -136 0
-121 -131 -132 0
-121 -131 -133 0
-121 -131 -134 0
-121 -131 -135 0
-121 -131 -136 0
-121 -132 -133 0
-121 -132 -134 0
-121 -132 -135 0
-121 -132 -136 0
-121 -133 -134 0
-121 -133 -135 0
-121 -133 -136 0
-121 -134 -135 0
-121 -134 -136 0
-121 -135 -136 0
-122 -123 -124 0
-122 -123 -125 0
-122 -123 -126 0
-122 -123 -127 0
-122 -123 -128 0
-122 -123 -129 0
-122 -123 -130 0
-122 -123 -131 0
-122 -123 -132 0
-122 -123 -133 0
-122 -123 -134 0
-122 -123 -135 0
-122 -123 -136 0
-122 -124 -125 0
-122 -124 -126 0
-122 -124 -127 0
-122 -124 -128 0
-122 -124 -129 0
-122 -124 -130 0
-122 -124 -131 0
-122 -124 -132 0
-122 -124 -133 0
-122 -124 -134 0
-122 -124 -135 0
-122 -124 -136 0
-122 -125 -126 0
-122 -125 -127 0
-122 -125 -128 0
-122 -125 -129 0
-122 -125 -130 0
-122 -125 -131 0
-122 -125 -132 0
-122 -125 -133 0
-122 -125 -134 0
-122 -125 -135 0
-122 -125 -136 0
-122 -126 -127 0
-122 -126 -128 0
-122 -126 -129 0
-122 -126 -130 0
-122 -126 -131 0
-122 -126 -132 0
-122 -126 -133 0
-122 -126 -134 0
-122 -126 -135 0
-122 -126 -136 0
-122 -127 -128 0
-122 -127 -129 0
-122 -127 -130 0
-122 -127 -131 0
-122 -127 -132 0
-122 -127 -133 0
-122 -127 -134 0
-122 -127 -135 0
-122 -127 -136 0
-122 -128 -129 0
-122 -128 -130 0
-122 -128 -131 0
-122 -128 -132 0
-122 -128 -133 0
-122 -128 -134 0
-122 -128 -135 0
-122 -128 -136 0
-122 -129 -130 0
-122 -129 -131 0
-122 -129 -132 0
-122 -129 -133 0
-122 -129 -134 0
-122 -129 -135 0
-122 -129 -136 0
-122 -130 -131 0
-122 -130 -132 0
-122 -130 -133 0
-122 -130 -134 0
-122 -130 -135 0
-122 -130 -136 0
-122 -131 -132 0
-122 -131 -133 0
-122 -131 -134 0
-122 -131 -135 0
-122 -131 -136 0
-122 -132 -133 0
-122 -132 -134 0
-122 -132 -135 0
-122 -132 -136 0
-122 -133 -134 0
-122 -133 -135 0
-122 -133 -136 0
-122 -134 -135 0
-122 -134 -136 0
-122 -135 -136 0
-123 -124 -125 0
-123 -124 -126 0
-123 -124 -127 0
-123 -124 -128 0
-123 -124 -129 0
-123 -124 -130 0
-123 -124 -131 0
-123 -124 -132 0
-123 -124 -133 0
-123 -124 -134 0
-123 -124 -135 0
-123 -124 -136 0
-123 -125 -126 0
-123 -125 -127 0
-123 -125 -128 0
-123 -125 -129 0
-123 -125 -130 0
-123 -125 -131 0
-123 -125 -132 0
-123 -125 -133 0
-123 -125 -134 0
-123 -125 -135 0
-123 -125 -136 0
-123 -126 -127 0
-123 -126 -128 0
-123 -126 -129 0
-123 -126 -130 0
-123 -126 -131 0
-123 -126 -132 0
-123 -126 -133 0
-123 -126 -134 0
-123 -126 -135 0
-123 -126 -136 0
-123 -127 -128 0
-123 -127 -129 0
-123 -127 -130 0
-123 -127 -131 0
-123 -127 -132 0
-123 -127 -133 0
-123 -127 -134 0
-123 -127 -135 0
-123 -127 -136 0
-123 -128 -129 0
-123 -128 -130 0
-123 -128 -131 0
-123 -128 -132 0
-123 -128 -133 0
-123 -128 -134 0
-123 -128 -135 0
-123 -128 -136 0
-123 -129 -130 0
-123 -129 -131 0
-123 -129 -132 0
-123 -129 -133 0
-123 -129 -134 0
-123 -129 -135 0
-123 -129 -136 0
-123 -130 -131 0
-123 -130 -132 0
-123 -130 -133 0
-123 -130 -134 0
-123 -130 -135 0
-123 -130 -136 0
-123 -131 -132 0
-123 -131 -133 0
-123 -131 -134 0
-123 -131 -135 0
-123 -131 -136 0
-123 -132 -133 0
-123 -132 -134 0
-123 -132 -135 0
-123 -132 -136 0
-123 -133 -134 0
-123 -133 -135 0
-123 -133 -136 0
-123 -134 -135 0
-123 -134 -136 0
-123 -135 -136 0
-124 -125 -126 0
-124 -125 -127 0
-124 -125 -128 0
-124 -125 -129 0
-124 -125 -130 0
-124 -125 -131 0
-124 -125 -132 0
-124 -125 -133 0
-124 -125 -134 0
-124 -125 -135 0
-124 -125 -136 0
-124 -126 -127 0
-124 -126 -128 0
-124 -126 -129 0
-124 -126 -130 0
-124 -126 -131 0
-124 -126 -132 0
-124 -126 -133 0
-124 -126 -134 0
-124 -126 -135 0
-124 -126 -136 0
-124 -127 -128 0
-124 -127 -129 0
-124 -127 -130 0
-124 -127 -131 0
-124 -127 -132 0
-124 -127 -133 0
-124 -127 -134 0
-124 -127 -135 0
-124 -127 -136 0
-124 -128 -129 0
-124 -128 -130 0
-124 -128 -131 0
-124 -128 -132 0
-124 -128 -133 0
-124 -128 -134 0
-124 -128 -135 0
-124 -128 -136 0
-124 -129 -130 0
-124 -129 -131 0
-124 -129 -132 0
-124 -129 -133 0
-124 -129 -134 0
-124 -129 -135 0
-124 -129 -136 0
-124 -130 -131 0
-124 -130 -132 0
-124 -130 -133 0
-124 -130 -134 0
-124 -130 -135 0
-124 -130 -136 0
-124 -131 -132 0
-124 -131 -133 0
-124 -131 -134 0
-124 -131 -135 0
-124 -131 -136 0
-124 -132 -133 0
-124 -132 -134 0
-124 -132 -135 0
-124 -132 -136 0
-124 -133 -134 0
-124 -133 -135 0
-124 -133 -136 0
-124 -134 -135 0
-124 -134 -136 0
-124 -135 -136 0
-125 -126 -127 0
-125 -126 -128 0
-125 -126 -129 0
-125 -126 -130 0
-125 -126 -131 0
-125 -126 -132 0
-125 -126 -133 0
-125 -126 -134 0
-125 -126 -135 0
-125 -126 -136 0
-125 -127 -128 0
-125 -127 -129 0
-125 -127 -130 0
-125 -127 -131 0
-125 -127 -132 0
-125 -127 -133 0
-125 -127 -134 0
-125 -127 -135 0
-125 -127 -136 0
-125 -128 -129 0
-125 -128 -130 0
-125 -128 -131 0
-125 -128 -132 0
-125 -128 -133 0
-125 -128 -134 0
-125 -128 -135 0
-125 -128 -136 0
-125 -129 -130 0
-125 -129 -131 0
-125 -129 -132 0
-125 -129 -133 0
-125 -129 -134 0
-125 -129 -135 0
-125 -129 -136 0
-125 -130 -131 0
-125 -130 -132 0
-125 -130 -133 0
-125 -130 -134 0
-125 -130 -135 0
-125 -130 -136 0
-125 -131 -132 0
-125 -131 -133 0
-125 -131 -134 0
-125 -131 -135 0
-125 -131 -136 0
-125 -132 -133 0
-125 -132 -134 0
-125 -132 -135 0
-125 -132 -136 0
-125 -133 -134 0
-125 -133 -135 0
-125 -133 -136 0
-125 -134 -135 0
-125 -134 -136 0
-125 -135 -136 0
-126 -127 -128 0
-126 -127 -129 0
-126 -127 -130 0
-126 -127 -131 0
-126 -127 -132 0
-126 -127 -133 0
-126 -127 -134 0
-126 -127 -135 0
-126 -127 -136 0
-126 -128 -129 0
-126 -128 -130 0
-126 -128 -131 0
-126 -128 -132 0
-126 -128 -133 0
-126 -128 -134 0
-126 -128 -135 0
-126 -128 -136 0
-126 -129 -130 0
-126 -129 -131 0
-126 -129 -132 0
-126 -129 -133 0
-126 -129 -134 0
-126 -129 -135 0
-126 -129 -136 0
-126 -130 -131 0
-126 -130 -132 0
-126 -130 -133 0
-126 -130 -134 0
-126 -130 -135 0
-126 -130 -136 0
-126 -131 -132 0
-126 -131 -133 0
-126 -131 -134 0
-126 -131 -135 0
-126 -131 -136 0
-126 -132 -133 0
-126 -132 -134 0
-126 -132 -135 0
-126 -132 -136 0
-126 -133 -134 0
-126 -133 -135 0
-126 -133 -136 0
-126 -134 -135 0
-126 -134 -136 0
-126 -135 -136 0
-127 -128 -129 0
-127 -128 -130 0
-127 -128 -131 0
-127 -128 -132 0
-127 -128 -133 0
-127 -128 -134 0
-127 -128 -135 0
-127 -128 -136 0
-127 -129 -130 0
-127 -129 -131 0
-127 -129 -132 0
-127 -129 -133 0
-127 -129 -134 0
-127 -129 -135 0
-127 -129 -136 0
-127 -130 -131 0
-127 -130 -132 0
-127 -130 -133 0
-127 -130 -134 0
-127 -130 -135 0
-127 -130 -136 0
-127 -131 -132 0
-127 -131 -133 0
-127 -131 -134 0
-127 -131 -135 0
-127 -131 -136 0
-127 -132 -133 0
-127 -132 -134 0
-127 -132 -135 0
-127 -132 -136 0
-127 -133 -134 0
-127 -133 -135 0
-127 -133 -136 0
-127 -134 -135 0
-127 -134 -136 0
-127 -135 -136 0
-128 -129 -130 0
-128 -129 -131 0
-128 -129 -132 0
-128 -129 -133 0
-128 -129 -134 0
-128 -129 -135 0
-128 -129 -136 0
-128 -130 -131 0
-128 -130 -132 0
-128 -130 -133 0
-128 -130 -134 0
-128 -130 -135 0
-128 -130 -136 0
-128 -131 -132 0
-128 -131 -133 0
-128 -131 -134 0
-128 -131 -135 0
-128 -131 -136 0
-128 -132 -133 0
-128 -132 -134 0
-128 -132 -135 0
-128 -132 -136 0
-128 -133 -134 0
-128 -133 -135 0
-128 -133 -136 0
-128 -134 -135 0
-128 -134 -136 0
-128 -135 -136 0
-129 -130 -131 0
-129 -130 -132 0
-129 -130 -133 0
-129 -130 -134 0
-129 -130 -135 0
-129 -130 -136 0
-129 -131 -132 0
-129 -131 -133 0
-129 -131 -134 0
-129 -131 -135 0
-129 -131 -136 0
-129 -132 -133 0
-129 -132 -134 0
-129 -132 -135 0
-129 -132 -136 0
-129 -133 -134 0
-129 -133 -135 0
-129 -133 -136 0
-129 -134 -135 0
-129 -134 -136 0
-129 -135 -136 0
-130 -131 -132 0
-130 -131 -133 0
-130 -131 -134 0
-130 -131 -135 0
-130 -131 -136 0
-130 -132 -133 0
-130 -132 -134 0
-130 -132 -135 0
-130 -132 -136 0
-130 -133 -134 0
-130 -133 -135 0
-130 -133 -136 0
-130 -134 -135 0
-130 -134 -136 0
-130 -135 -136 0
-131 -132 -133 0
-131 -132 -134 0
-131 -132 -135 0
-131 -132 -136 0
-131 -133 -134 0
-131 -133 -135 0
-131 -133 -136 0
-131 -134 -135 0
-131 -134 -136 0
-131 -135 -136 0
-132 -133 -134 0
-132 -133 -135 0
-132 -133 -136 0
-132 -134 -135 0
-132 -134 -136 0
-132 -135 -136 0
-133 -134 -135 0
-133 -134 -136 0
-133 -135 -136 0
-134 -135 -136 0
-121 122 123 124 125 126 127 128 129 130 131 132 133 134 135 136 0
-122 121 123 124 125 126 127 128 129 130 131 132 133 134 135 136 0
-123 121 122 124 125 126 127 128 129 130 131 132 133 134 135 136 0
-124 121 122 123 125 126 127 128 129 130 131 132 133 134 135 136 0
-125 121 122 123 124 126 127 128 129 130 131 132 133 134 135 136 0
-126 121 122 123 124 125 127 128 129 130 131 132 133 134 135 136 0
-127 121 122 123 124 125 126 128 129 130 131 132 133 134 135 136 0
-128 121 122 123 124 125 126 127 129 130 131 132 133 134 135 136 0
-129 121 122 123 124 125 126 127 128 130 131 132 133 134 135 136 0
-130 121 122 123 124 125 126 127 128 129 131 132 133 134 135 136 0
-131 121 122 123 124 125 126 127 128 129 130 132 133 134 135 136 0
-132 121 122 123 124 125 126 127 128 129 130 131 133 134 135 136 0
-133 121 122 123 124 125 126 127 128 129 130 131 132 134 135 136 0
-134 121 122 123 124 125 126 127 128 129 130 131 132 133 135 136 0
-135 121 122 123 124 125 126 127 128 129 130 131 132 133 134 136 0
-136 121 122 123 124 125 126 127 128 129 130 131 132 133 134 135 0
-1 273 0
-1 274 0
-2 273 0
-2 275 0
-3 273 0
-3 277 0
-4 273 0
-4 281 0
-5 273 0
-5 288 0
-6 273 0
-6 290 0
-7 273 0
-7 291 0
-8 273 0
-8 293 0
-9 273 0
-9 297 0
-10 273 0
-10 304 0
-11 274 0
-11 276 0
-12 274 0
-12 278 0
-13 274 0
-13 282 0
-14 274 0
-14 287 0
-15 274 0
-15 289 0
-16 274 0
-16 292 0
-17 274 0
-17 294 0
-18 274 0
-18 298 0
-19 274 0
-19 303 0
-20 275 0
-20 276 0
-21 275 0
-21 279 0
-22 275 0
-22 283 0
-23 275 0
-23 286 0
-24 275 0
-24 289 0
-25 275 0
-25 292 0
-26 275 0
-26 295 0
-27 275 0
-27 299 0
-28 275 0
-28 302 0
-29 276 0
-29 280 0
-30 276 0
-30 284 0
-31 276 0
-31 285 0
-32 276 0
-32 290 0
-33 276 0
-33 291 0
-34 276 0
-34 296 0
-35 276 0
-35 300 0
-36 276 0
-36 301 0
-37 277 0
-37 278 0
-38 277 0
-38 279 0
-39 277 0
-39 284 0
-40 277 0
-40 285 0
-41 277 0
-41 289 0
-42 277 0
-42 294 0
-43 277 0
-43 295 0
-44 277 0
-44 300 0
-45 277 0
-45 301 0
-46 278 0
-46 280 0
-47 278 0
-47 283 0
-48 278 0
-48 286 0
-49 278 0
-49 290 0
-50 278 0
-50 293 0
-51 278 0
-51 296 0
-52 278 0
-52 299 0
-53 278 0
-53 302 0
-54 279 0
-54 280 0
-55 279 0
-55 282 0
-56 279 0
-56 287 0
-57 279 0
-57 291 0
-58 279 0
-58 293 0
-59 279 0
-59 296 0
-60 279 0
-60 298 0
-61 279 0
-61 303 0
-62 280 0
-62 281 0
-63 280 0
-63 288 0
-64 280 0
-64 292 0
-65 280 0
-65 294 0
-66 280 0
-66 295 0
-67 280 0
-67 297 0
-68 280 0
-68 304 0
-69 281 0
-69 282 0
-70 281 0
-70 283 0
-71 281 0
-71 285 0
-72 281 0
-72 289 0
-73 281 0
-73 296 0
-74 281 0
-74 298 0
-75 281 0
-75 299 0
-76 281 0
-76 301 0
-77 282 0
-77 284 0
-78 282 0
-78 286 0
-79 282 0
-79 290 0
-80 282 0
-80 295 0
-81 282 0
-81 297 0
-82 282 0
-82 300 0
-83 282 0
-83 302 0
-84 283 0
-84 284 0
-85 283 0
-85 287 0
-86 283 0
-86 291 0
-87 283 0
-87 294 0
-88 283 0
-88 297 0
-89 283 0
-89 300 0
-90 283 0
-90 303 0
-91 284 0
-91 288 0
-92 284 0
-92 292 0
-93 284 0
-93 293 0
-94 284 0
-94 298 0
-95 284 0
-95 299 0
-96 284 0
-96 304 0
-97 285 0
-97 286 0
-98 285 0
-98 287 0
-99 285 0
-99 292 0
-100 285 0
-100 293 0
-101 285 0
-101 297 0
-102 285 0
-102 302 0
-103 285 0
-103 303 0
-104 286 0
-104 288 0
-105 286 0
-105 291 0
-106 286 0
-106 294 0
-107 286 0
-107 298 0
-108 286 0
-108 301 0
-109 286 0
-109 304 0
-110 287 0
-110 288 0
-111 287 0
-111 290 0
-112 287 0
-112 295 0
-113 287 0
-113 299 0
-114 287 0
-114 301 0
-115 287 0
-115 304 0
-116 288 0
-116 289 0
-117 288 0
-117 296 0
-118 288 0
-118 300 0
-119 288 0
-119 302 0
-120 288 0
-120 303 0
-121 289 0
-121 305 0
-122 290 0
-122 305 0
-123 291 0
-123 305 0
-124 292 0
-124 305 0
-125 293 0
-125 305 0
-126 294 0
-126 305 0
-127 295 0
-127 305 0
-128 296 0
-128 305 0
-129 297 0
-129 305 0
-130 298 0
-130 305 0
-131 299 0
-131 305 0
-132 300 0
-132 305 0
-133 301 0
-133 305 0
-134 302 0
-134 305 0
-135 303 0
-135 305 0
-136 304 0
-136 305 0
-339 1 0
339 -1 0
-340 339 2 0
-340 -339 -2 0
340 -339 2 0
340 339 -2 0
-341 340 3 0
-341 -340 -3 0
341 -340 3 0
341 340 -3 0
-342 341 4 0
-342 -341 -4 0
342 -341 4 0
342 341 -4 0
-343 342 5 0
-343 -342 -5 0
343 -342 5 0
343 342 -5 0
-344 343 6 0
-344 -343 -6 0
344 -343 6 0
344 343 -6 0
-345 344 7 0
-345 -344 -7 0
345 -344 7 0
345 344 -7 0
-346 345 8 0
-346 -345 -8 0
346 -345 8 0
346 345 -8 0
-347 346 9 0
-347 -346 -9 0
347 -346 9 0
347 346 -9 0
-348 347 10 0
-348 -347 -10 0
348 -347 10 0
348 347 -10 0
-349 348 11 0
-349 -348 -11 0
349 -348 11 0
349 348 -11 0
-350 349 12 0
-350 -349 -12 0
350 -349 12 0
350 349 -12 0
-351 350 13 0
-351 -350 -13 0
351 -350 13 0
351 350 -13 0
-352 351 14 0
-352 -351 -14 0
352 -351 14 0
352 351 -14 0
-353 352 15 0
-353 -352 -15 0
353 -352 15 0
353 352 -15 0
-354 353 16 0
-354 -353 -16 0
354 -353 16 0
354 353 -16 0
-355 354 17 0
-355 -354 -17 0
355 -354 17 0
355 354 -17 0
-356 355 18 0
-356 -355 -18 0
356 -355 18 0
356 355 -18 0
-357 356 19 0
-357 -356 -19 0
357 -356 19 0
357 356 -19 0
-358 357 20 0
-358 -357 -20 0
358 -357 20 0
358 357 -20 0
-359 358 21 0
-359 -358 -21 0
359 -358 21 0
359 358 -21 0
-360 359 22 0
-360 -359 -22 0
360 -359 22 0
360 359 -22 0
-361 360 23 0
-361 -360 -23 0
361 -360 23 0
361 360 -23 0
-362 361 24 0
-362 -361 -24 0
362 -361 24 0
362 361 -24 0
-363 362 25 0
-363 -362 -25 0
363 -362 25 0
363 362 -25 0
-364 363 26 0
-364 -363 -26 0
364 -363 26 0
364 363 -26 0
-365 364 27 0
-365 -364 -27 0
365 -364 27 0
365 364 -27 0
-366 365 28 0
-366 -365 -28 0
366 -365 28 0
366 365 -28 0
-367 366 29 0
-367 -366 -29 0
367 -366 29 0
367 366 -29 0
-368 367 30 0
-368 -367 -30 0
368 -367 30 0
368 367 -30 0
-369 368 31 0
-369 -368 -31 0
369 -368 31 0
369 368 -31 0
-370 369 32 0
-370 -369 -32 0
370 -369 32 0
370 369 -32 0
-371 370 33 0
-371 -370 -33 0
371 -370 33 0
371 370 -33 0
-372 371 34 0
-372 -371 -34 0
372 -371 34 0
372 371 -34 0
-373 372 35 0
-373 -372 -35 0
373 -372 35 0
373 372 -35 0
-374 373 36 0
-374 -373 -36 0
374 -373 36 0
374 373 -36 0
-375 374 37 0
-375 -374 -37 0
375 -374 37 0
375 374 -37 0
-376 375 38 0
-376 -375 -38 0
376 -375 38 0
376 375 -38 0
-377 376 39 0
-377 -376 -39 0
377 -376 39 0
377 376 -39 0
-378 377 40 0
-378 -377 -40 0
378 -377 40 0
378 377 -40 0
-379 378 41 0
-379 -378 -41 0
379 -378 41 0
379 378 -41 0
-380 379 42 0
-380 -379 -42 0
380 -379 42 0
380 379 -42 0
-381 380 43 0
-381 -380 -43 0
381 -380 43 0
381 380 -43 0
-382 381 44 0
-382 -381 -44 0
382 -381 44 0
382 381 -44 0
-383 382 45 0
-383 -382 -45 0
383 -382 45 0
383 382 -45 0
-384 383 46 0
-384 -383 -46 0
384 -383 46 0
384 383 -46 0
-385 384 47 0
-385 -384 -47 0
385 -384 47 0
385 384 -47 0
-386 385 48 0
-386 -385 -48 0
386 -385 48 0
386 385 -48 0
-387 386 49 0
-387 -386 -49 0
387 -386 49 0
387 386 -49 0
-388 387 50 0
-388 -387 -50 0
388 -387 50 0
388 387 -50 0
-389 388 51 0
-389 -388 -51 0
389 -388 51 0
389 388 -51 0
-390 389 52 0
-390 -389 -52 0
390 -389 52 0
390 389 -52 0
-391 390 53 0
-391 -390 -53 0
391 -390 53 0
391 390 -53 0
-392 391 54 0
-392 -391 -54 0
392 -391 54 0
392 391 -54 0
-393 392 55 0
-393 -392 -55 0
393 -392 55 0
393 392 -55 0
-394 393 56 0
-394 -393 -56 0
394 -393 56 0
394 393 -56 0
-395 394 57 0
-395 -394 -57 0
395 -394 57 0
395 394 -57 0
-396 395 58 0
-396 -395 -58 0
396 -395 58 0
396 395 -58 0
-397 396 59 0
-397 -396 -59 0
397 -396 59 0
397 396 -59 0
-398 397 60 0
-398 -397 -60 0
398 -397 60 0
398 397 -60 0
-399 398 61 0
-399 -398 -61 0
399 -398 61 0
399 398 -61 0
-400 399 62 0
-400 -399 -62 0
400 -399 62 0
400 399 -62 0
-401 400 63 0
-401 -400 -63 0
401 -400 63 0
401 400 -63 0
-402 401 64 0
-402 -401 -64 0
402 -401 64 0
402 401 -64 0
-403 402 65 0
-403 -402 -65 0
403 -402 65 0
403 402 -65 0
-404 403 66 0
-404 -403 -66 0
404 -403 66 0
404 403 -66 0
-405 404 67 0
-405 -404 -67 0
405 -404 67 0
405 404 -67 0
-406 405 68 0
-406 -405 -68 0
406 -405 68 0
406 405 -68 0
-407 406 69 0
-407 -406 -69 0
407 -406 69 0
407 406 -69 0
-408 407 70 0
-408 -407 -70 0
408 -407 70 0
408 407 -70 0
-409 408 71 0
-409 -408 -71 0
409 -408 71 0
409 408 -71 0
-410 409 72 0
-410 -409 -72 0
410 -409 72 0
410 409 -72 0
-411 410 73 0
-411 -410 -73 0
411 -410 73 0
411 410 -73 0
-412 411 74 0
-412 -411 -74 0
412 -411 74 0
412 411 -74 0
-413 412 75 0
-413 -412 -75 0
413 -412 75 0
413 412 -75 0
-414 413 76 0
-414 -413 -76 0
414 -413 76 0
414 413 -76 0
-415 414 77 0
-415 -414 -77 0
415 -414 77 0
415 414 -77 0
-416 415 78 0
-416 -415 -78 0
416 -415 78 0
416 415 -78 0
-417 416 79 0
-417 -416 -79 0
417 -416 79 0
417 416 -79 0
-418 417 80 0
-418 -417 -80 0
418 -417 80 0
418 417 -80 0
-419 418 81 0
-419 -418 -81 0
419 -418 81 0
419 418 -81 0
-420 419 82 0
-420 -419 -82 0
420 -419 82 0
420 419 -82 0
-421 420 83 0
-421 -420 -83 0
421 -420 83 0
421 420 -83 0
-422 421 84 0
-422 -421 -84 0
422 -421 84 0
422 421 -84 0
-423 422 85 0
-423 -422 -85 0
423 -422 85 0
423 422 -85 0
-424 423 86 0
-424 -423 -86 0
424 -423 86 0
424 423 -86 0
-425 424 87 0
-425 -424 -87 0
425 -424 87 0
425 424 -87 0
-426 425 88 0
-426 -425 -88 0
426 -425 88 0
426 425 -88 0
-427 426 89 0
-427 -426 -89 0
427 -426 89 0
427 426 -89 0
-428 427 90 0
-428 -427 -90 0
428 -427 90 0
428 427 -90 0
-429 428 91 0
-429 -428 -91 0
429 -428 91 0
429 428 -91 0
-430 429 92 0
-430 -429 -92 0
430 -429 92 0
430 429 -92 0
-431 430 93 0
-431 -430 -93 0
431 -430 93 0
431 430 -93 0
-432 431 94 0
-432 -431 -94 0
432 -431 94 0
432 431 -94 0
-433 432 95 0
-433 -432 -95 0
433 -432 95 0
433 432 -95 0
-434 433 96 0
-434 -433 -96 0
434 -433 96 0
434 433 -96 0
-435 434 97 0
-435 -434 -97 0
435 -434 97 0
435 434 -97 0
-436 435 98 0
-436 -435 -98 0
436 -435 98 0
436 435 -98 0
-437 436 99 0
-437 -436 -99 0
437 -436 99 0
437 436 -99 0
-438 437 100 0
-438 -437 -100 0
438 -437 100 0
438 437 -100 0
-439 438 101 0
-439 -438 -101 0
439 -438 101 0
439 438 -101 0
-440 439 102 0
-440 -439 -102 0
440 -439 102 0
440 439 -102 0
-441 440 103 0
-441 -440 -103 0
441 -440 103 0
441 440 -103 0
-442 441 104 0
-442 -441 -104 0
442 -441 104 0
442 441 -104 0
-443 442 105 0
-443 -442 -105 0
443 -442 105 0
443 442 -105 0
-444 443 106 0
-444 -443 -106 0
444 -443 106 0
444 443 -106 0
-445 444 107 0
-445 -444 -107 0
445 -444 107 0
445 444 -107 0
-446 445 108 0
-446 -445 -108 0
446 -445 108 0
446 445 -108 0
-447 446 109 0
-447 -446 -109 0
447 -446 109 0
447 446 -109 0
-448 447 110 0
-448 -447 -110 0
448 -447 110 0
448 447 -110 0
-449 448 111 0
-449 -448 -111 0
449 -448 111 0
449 448 -111 0
-450 449 112 0
-450 -449 -112 0
450 -449 112 0
450 449 -112 0
-451 450 113 0
-451 -450 -113 0
451 -450 113 0
451 450 -113 0
-452 451 114 0
-452 -451 -114 0
452 -451 114 0
452 451 -114 0
-453 452 115 0
-453 -452 -115 0
453 -452 115 0
453 452 -115 0
-454 453 116 0
-454 -453 -116 0
454 -453 116 0
454 453 -116 0
-455 454 117 0
-455 -454 -117 0
455 -454 117 0
455 454 -117 0
-456 455 118 0
-456 -455 -118 0
456 -455 118 0
456 455 -118 0
-457 456 119 0
-457 -456 -119 0
457 -456 119 0
457 456 -119 0
-458 457 120 0
-458 -457 -120 0
458 -457 120 0
458 457 -120 0
-459 458 121 0
-459 -458 -121 0
459 -458 121 0
459 458 -121 0
-460 459 122 0
-460 -459 -122 0
460 -459 122 0
460 459 -122 0
-461 460 123 0
-461 -460 -123 0
461 -460 123 0
461 460 -123 0
-462 461 124 0
-462 -461 -124 0
462 -461 124 0
462 461 -124 0
-463 462 125 0
-463 -462 -125 0
463 -462 125 0
463 462 -125 0
-464 463 126 0
-464 -463 -126 0
464 -463 126 0
464 463 -126 0
-465 464 127 0
-465 -464 -127 0
465 -464 127 0
465 464 -127 0
-466 465 128 0
-466 -465 -128 0
466 -465 128 0
466 465 -128 0
-467 466 129 0
-467 -466 -129 0
467 -466 129 0
467 466 -129 0
-468 467 130 0
-468 -467 -130 0
468 -467 130 0
468 467 -130 0
-469 468 131 0
-469 -468 -131 0
469 -468 131 0
469 468 -131 0
-470 469 132 0
-470 -469 -132 0
470 -469 132 0
470 469 -132 0
-471 470 133 0
-471 -470 -133 0
471 -470 133 0
471 470 -133 0
-472 471 134 0
-472 -471 -134 0
472 -471 134 0
472 471 -134 0
-473 472 135 0
-473 -472 -135 0
473 -472 135 0
473 472 -135 0
-474 473 136 0
-474 -473 -136 0
474 -473 136 0
474 473 -136 0
474 0
-137 -138 -139 0
-137 -138 -140 0
-137 -138 -141 0
-137 -138 -142 0
-137 -138 -143 0
-137 -138 -144 0
-137 -138 -145 0
-137 -138 -146 0
-137 -139 -140 0
-137 -139 -141 0
-137 -139 -142 0
-137 -139 -143 0
-137 -139 -144 0
-137 -139 -145 0
-137 -139 -146 0
-137 -140 -141 0
-137 -140 -142 0
-137 -140 -143 0
-137 -140 -144 0
-137 -140 -145 0
-137 -140 -146 0
-137 -141 -142 0
-137 -141 -143 0
-137 -141 -144 0
-137 -141 -145 0
-137 -141 -146 0
-137 -142 -143 0
-137 -142 -144 0
-137 -142 -145 0
-137 -142 -146 0
-137 -143 -144 0
-137 -143 -145 0
-137 -143 -146 0
-137 -144 -145 0
-137 -144 -146 0
-137 -145 -146 0
-138 -139 -140 0
-138 -139 -141 0
-138 -139 -142 0
-138 -139 -143 0
-138 -139 -144 0
-138 -139 -145 0
-138 -139 -146 0
-138 -140 -141 0
-138 -140 -142 0
-138 -140 -143 0
-138 -140 -144 0
-138 -140 -145 0
-138 -140 -146 0
-138 -141 -142 0
-138 -141 -143 0
-138 -141 -144 0
-138 -141 -145 0
-138 -141 -146 0
-138 -142 -143 0
-138 -142 -144 0
-138 -142 -145 0
-138 -142 -146 0
-138 -143 -144 0
-138 -143 -145 0
-138 -143 -146 0
-138 -144 -145 0
-138 -144 -146 0
-138 -145 -146 0
-139 -140 -141 0
-139 -140 -142 0
-139 -140 -143 0
-139 -140 -144 0
-139 -140 -145 0
-139 -140 -146 0
-139 -141 -142 0
-139 -141 -143 0
-139 -141 -144 0
-139 -141 -145 0
-139 -141 -146 0
-139 -142 -143 0
-139 -142 -144 0
-139 -142 -145 0
-139 -142 -146 0
-139 -143 -144 0
-139 -143 -145 0
-139 -143 -146 0
-139 -144 -145 0
-139 -144 -146 0
-139 -145 -146 0
-140 -141 -142 0
-140 -141 -143 0
-140 -141 -144 0
-140 -141 -145 0
-140 -141 -146 0
-140 -142 -143 0
-140 -142 -144 0
-140 -142 -145 0
-140 -142 -146 0
-140 -143 -144 0
-140 -143 -145 0
-140 -143 -146 0
-140 -144 -145 0
-140 -144 -146 0
-140 -145 -146 0
-141 -142 -143 0
-141 -142 -144 0
-141 -142 -145 0
-141 -142 -146 0
-141 -143 -144 0
-141 -143 -145 0
-141 -143 -146 0
-141 -144 -145 0
-141 -144 -146 0
-141 -145 -146 0
-142 -143 -144 0
-142 -143 -145 0
-142 -143 -146 0
-142 -144 -145 0
-142 -144 -146 0
-142 -145 -146 0
-143 -144 -145 0
-143 -144 -146 0
-143 -145 -146 0
-144 -145 -146 0
-137 138 139 140 141 142 143 144 145 146 0
-138 137 139 140 141 142 143 144 145 146 0
-139 137 138 140 141 142 143 144 145 146 0
-140 137 138 139 141 142 143 144 145 146 0
-141 137 138 139 140 142 143 144 145 146 0
-142 137 138 139 140 141 143 144 145 146 0
-143 137 138 139 140 141 142 144 145 146 0
-144 137 138 139 140 141 142 143 145 146 0
-145 137 138 139 140 141 142 143 144 146 0
-146 137 138 139 140 141 142 143 144 145 0
-137 -147 -148 0
-137 -147 -149 0
-137 -147 -150 0
-137 -147 -151 0
-137 -147 -152 0
-137 -147 -153 0
-137 -147 -154 0
-137 -147 -155 0
-137 -148 -149 0
-137 -148 -150 0
-137 -148 -151 0
-137 -148 -152 0
-137 -148 -153 0
-137 -148 -154 0
-137 -148 -155 0
-137 -149 -150 0
-137 -149 -151 0
-137 -149 -152 0
-137 -149 -153 0
-137 -149 -154 0
-137 -149 -155 0
-137 -150 -151 0
-137 -150 -152 0
-137 -150 -153 0
-137 -150 -154 0
-137 -150 -155 0
-137 -151 -152 0
-137 -151 -153 0
-137 -151 -154 0
-137 -151 -155 0
-137 -152 -153 0
-137 -152 -154 0
-137 -152 -155 0
-137 -153 -154 0
-137 -153 -155 0
-137 -154 -155 0
-147 -148 -149 0
-147 -148 -150 0
-147 -148 -151 0
-147 -148 -152 0
-147 -148 -153 0
-147 -148 -154 0
-147 -148 -155 0
-147 -149 -150 0
-147 -149 -151 0
-147 -149 -152 0
-147 -149 -153 0
-147 -149 -154 0
-147 -149 -155 0
-147 -150 -151 0
-147 -150 -152 0
-147 -150 -153 0
-147 -150 -154 0
-147 -150 -155 0
-147 -151 -152 0
-147 -151 -153 0
-147 -151 -154 0
-147 -151 -155 0
-147 -152 -153 0
-147 -152 -154 0
-147 -152 -155 0
-147 -153 -154 0
-147 -153 -155 0
-147 -154 -155 0
-148 -149 -150 0
-148 -149 -151 0
-148 -149 -152 0
-148 -149 -153 0
-148 -149 -154 0
-148 -149 -155 0
-148 -150 -151 0
-148 -150 -152 0
-148 -150 -153 0
-148 -150 -154 0
-148 -150 -155 0
-148 -151 -152 0
-148 -151 -153 0
-148 -151 -154 0
-148 -151 -155 0
-148 -152 -153 0
-148 -152 -154 0
-148 -152 -155 0
-148 -153 -154 0
-148 -153 -155 0
-148 -154 -155 0
-149 -150 -151 0
-149 -150 -152 0
-149 -150 -153 0
-149 -150 -154 0
-149 -150 -155 0
-149 -151 -152 0
-149 -151 -153 0
-149 -151 -154 0
-149 -151 -155 0
-149 -152 -153 0
-149 -152 -154 0
-149 -152 -155 0
-149 -153 -154 0
-149 -153 -155 0
-149 -154 -155 0
-150 -151 -152 0
-150 -151 -153 0
-150 -151 -154 0
-150 -151 -155 0
-150 -152 -153 0
-150 -152 -154 0
-150 -152 -155 0
-150 -153 -154 0
-150 -153 -155 0
-150 -154 -155 0
-151 -152 -153 0
-151 -152 -154 0
-151 -152 -155 0
-151 -153 -154 0
-151 -153 -155 0
-151 -154 -155 0
-152 -153 -154 0
-152 -153 -155 0
-152 -154 -155 0
-153 -154 -155 0
-137 147 148 149 150 151 152 153 154 155 0
-147 137 148 149 150 151 152 153 154 155 0
-148 137 147 149 150 151 152 153 154 155 0
-149 137 147 148 150 151 152 153 154 155 0
-150 137 147 148 149 151 152 153 154 155 0
-151 137 147 148 149 150 152 153 154 155 0
-152 137 147 148 149 150 151 153 154 155 0
-153 137 147 148 149 150 151 152 154 155 0
-154 137 147 148 149 150 151 152 153 155 0
-155 137 147 148 149 150 151 152 153 154 0
-138 -156 -157 0
-138 -156 -158 0
-138 -156 -159 0
-138 -156 -160 0
-138 -156 -161 0
-138 -156 -162 0
-138 -156 -163 0
-138 -156 -164 0
-138 -157 -158 0
-138 -157 -159 0
-138 -157 -160 0
-138 -157 -161 0
-138 -157 -162 0
-138 -157 -163 0
-138 -157 -164 0
-138 -158 -159 0
-138 -158 -160 0
-138 -158 -161 0
-138 -158 -162 0
-138 -158 -163 0
-138 -158 -164 0
-138 -159 -160 0
-138 -159 -161 0
-138 -159 -162 0
-138 -159 -163 0
-138 -159 -164 0
-138 -160 -161 0
-138 -160 -162 0
-138 -160 -163 0
-138 -160 -164 0
-138 -161 -162 0
-138 -161 -163 0
-138 -161 -164 0
-138 -162 -163 0
-138 -162 -164 0
-138 -163 -164 0
-156 -157 -158 0
-156 -157 -159 0
-156 -157 -160 0
-156 -157 -161 0
-156 -157 -162 0
-156 -157 -163 0
-156 -157 -164 0
-156 -158 -159 0
-156 -158 -160 0
-156 -158 -161 0
-156 -158 -162 0
-156 -158 -163 0
-156 -158 -164 0
-156 -159 -160 0
-156 -159 -161 0
-156 -159 -162 0
-156 -159 -163 0
-156 -159 -164 0
-156 -160 -161 0
-156 -160 -162 0
-156 -160 -163 0
-156 -160 -164 0
-156 -161 -162 0
-156 -161 -163 0
-156 -161 -164 0
-156 -162 -163 0
-156 -162 -164 0
-156 -163 -164 0
-157 -158 -159 0
-157 -158 -160 0
-157 -158 -161 0
-157 -158 -162 0
-157 -158 -163 0
-157 -158 -164 0
-157 -159 -160 0
-157 -159 -161 0
-157 -159 -162 0
-157 -159 -163 0
-157 -159 -164 0
-157 -160 -161 0
-157 -160 -162 0
-157 -160 -163 0
-157 -160 -164 0
-157 -161 -162 0
-157 -161 -163 0
-157 -161 -164 0
-157 -162 -163 0
-157 -162 -164 0
-157 -163 -164 0
-158 -159 -160 0
-158 -159 -161 0
-158 -159 -162 0
-158 -159 -163 0
-158 -159 -164 0
-158 -160 -161 0
-158 -160 -162 0
-158 -160 -163 0
-158 -160 -164 0
-158 -161 -162 0
-158 -161 -163 0
-158 -161 -164 0
-158 -162 -163 0
-158 -162 -164 0
-158 -163 -164 0
-159 -160 -161 0
-159 -160 -162 0
-159 -160 -163 0
-159 -160 -164 0
-159 -161 -162 0
-159 -161 -163 0
-159 -161 -164 0
-159 -162 -163 0
-159 -162 -164 0
-159 -163 -164 0
-160 -161 -162 0
-160 -161 -163 0
-160 -161 -164 0
-160 -162 -163 0
-160 -162 -164 0
-160 -163 -164 0
-161 -162 -163 0
-161 -162 -164 0
-161 -163 -164 0
-162 -163 -164 0
-138 156 157 158 159 160 161 162 163 164 0
-156 138 157 158 159 160 161 162 163 164 0
-157 138 156 158 159 160 161 162 163 164 0
-158 138 156 157 159 160 161 162 163 164 0
-159 138 156 157 158 160 161 162 163 164 0
-160 138 156 157 158 159 161 162 163 164 0
-161 138 156 157 158 159 160 162 163 164 0
-162 138 156 157 158 159 160 161 163 164 0
-163 138 156 157 158 159 160 161 162 164 0
-164 138 156 157 158 159 160 161 162 163 0
-147 -156 -165 0
-147 -156 -166 0
-147 -156 -167 0
-147 -156 -168 0
-147 -156 -169 0
-147 -156 -170 0
-147 -156 -171 0
-147 -156 -172 0
-147 -165 -166 0
-147 -165 -167 0
-147 -165 -168 0
-147 -165 -169 0
-147 -165 -170 0
-147 -165 -171 0
-147 -165 -172 0
-147 -166 -167 0
-147 -166 -168 0
-147 -166 -169 0
-147 -166 -170 0
-147 -166 -171 0
-147 -166 -172 0
-147 -167 -168 0
-147 -167 -169 0
-147 -167 -170 0
-147 -167 -171 0
-147 -167 -172 0
-147 -168 -169 0
-147 -168 -170 0
-147 -168 -171 0
-147 -168 -172 0
-147 -169 -170 0
-147 -169 -171 0
-147 -169 -172 0
-147 -170 -171 0
-147 -170 -172 0
-147 -171 -172 0
-156 -165 -166 0
-156 -165 -167 0
-156 -165 -168 0
-156 -165 -169 0
-156 -165 -170 0
-156 -165 -171 0
-156 -165 -172 0
-156 -166 -167 0
-156 -166 -168 0
-156 -166 -169 0
-156 -166 -170 0
-156 -166 -171 0
-156 -166 -172 0
-156 -167 -168 0
-156 -167 -169 0
-156 -167 -170 0
-156 -167 -171 0
-156 -167 -172 0
-156 -168 -169 0
-156 -168 -170 0
-156 -168 -171 0
-156 -168 -172 0
-156 -169 -170 0
-156 -169 -171 0
-156 -169 -172 0
-156 -170 -171 0
-156 -170 -172 0
-156 -171 -172 0
-165 -166 -167 0
-165 -166 -168 0
-165 -166 -169 0
-165 -166 -170 0
-165 -166 -171 0
-165 -166 -172 0
-165 -167 -168 0
-165 -167 -169 0
-165 -167 -170 0
-165 -167 -171 0
-165 -167 -172 0
-165 -168 -169 0
-165 -168 -170 0
-165 -168 -171 0
-165 -168 -172 0
-165 -169 -170 0
-165 -169 -171 0
-165 -169 -172 0
-165 -170 -171 0
-165 -170 -172 0
-165 -171 -172 0
-166 -167 -168 0
-166 -167 -169 0
-166 -167 -170 0
-166 -167 -171 0
-166 -167 -172 0
-166 -168 -169 0
-166 -168 -170 0
-166 -168 -171 0
-166 -168 -172 0
-166 -169 -170 0
-166 -169 -171 0
-166 -169 -172 0
-166 -170 -171 0
-166 -170 -172 0
-166 -171 -172 0
-167 -168 -169 0
-167 -168 -170 0
-167 -168 -171 0
-167 -168 -172 0
-167 -169 -170 0
-167 -169 -171 0
-167 -169 -172 0
-167 -170 -171 0
-167 -170 -172 0
-167 -171 -172 0
-168 -169 -170 0
-168 -169 -171 0
-168 -169 -172 0
-168 -170 -171 0
-168 -170 -172 0
-168 -171 -172 0
-169 -170 -171 0
-169 -170 -172 0
-169 -171 -172 0
-170 -171 -172 0
-147 156 165 166 167 168 169 170 171 172 0
-156 147 165 166 167 168 169 170 171 172 0
-165 147 156 166 167 168 169 170 171 172 0
-166 147 156 165 167 168 169 170 171 172 0
-167 147 156 165 166 168 169 170 171 172 0
-168 147 156 165 166 167 169 170 171 172 0
-169 147 156 165 166 167 168 170 171 172 0
-170 147 156 165 166 167 168 169 171 172 0
-171 147 156 165 166 167 168 169 170 172 0
-172 147 156 165 166 167 168 169 170 171 0
-139 -173 -174 0
-139 -173 -175 0
-139 -173 -176 0
-139 -173 -177 0
-139 -173 -178 0
-139 -173 -179 0
-139 -173 -180 0
-139 -173 -181 0
-139 -174 -175 0
-139 -174 -176 0
-139 -174 -177 0
-139 -174 -178 0
-139 -174 -179 0
-139 -174 -180 0
-139 -174 -181 0
-139 -175 -176 0
-139 -175 -177 0
-139 -175 -178 0
-139 -175 -179 0
-139 -175 -180 0
-139 -175 -181 0
-139 -176 -177 0
-139 -176 -178 0
-139 -176 -179 0
-139 -176 -180 0
-139 -176 -181 0
-139 -177 -178 0
-139 -177 -179 0
-139 -177 -180 0
-139 -177 -181 0
-139 -178 -179 0
-139 -178 -180 0
-139 -178 -181 0
-139 -179 -180 0
-139 -179 -181 0
-139 -180 -181 0
-173 -174 -175 0
-173 -174 -176 0
-173 -174 -177 0
-173 -174 -178 0
-173 -174 -179 0
-173 -174 -180 0
-173 -174 -181 0
-173 -175 -176 0
-173 -175 -177 0
-173 -175 -178 0
-173 -175 -179 0
-173 -175 -180 0
-173 -175 -181 0
-173 -176 -177 0
-173 -176 -178 0
-173 -176 -179 0
-173 -176 -180 0
-173 -176 -181 0
-173 -177 -178 0
-173 -177 -179 0
-173 -177 -180 0
-173 -177 -181 0
-173 -178 -179 0
-173 -178 -180 0
-173 -178 -181 0
-173 -179 -180 0
-173 -179 -181 0
-173 -180 -181 0
-174 -175 -176 0
-174 -175 -177 0
-174 -175 -178 0
-174 -175 -179 0
-174 -175 -180 0
-174 -175 -181 0
-174 -176 -177 0
-174 -176 -178 0
-174 -176 -179 0
-174 -176 -180 0
-174 -176 -181 0
-174 -177 -178 0
-174 -177 -179 0
-174 -177 -180 0
-174 -177 -181 0
-174 -178 -179 0
-174 -178 -180 0
-174 -178 -181 0
-174 -179 -180 0
-174 -179 -181 0
-174 -180 -181 0
-175 -176 -177 0
-175 -176 -178 0
-175 -176 -179 0
-175 -176 -180 0
-175 -176 -181 0
-175 -177 -178 0
-175 -177 -179 0
-175 -177 -180 0
-175 -177 -181 0
-175 -178 -179 0
-175 -178 -180 0
-175 -178 -181 0
-175 -179 -180 0
-175 -179 -181 0
-175 -180 -181 0
-176 -177 -178 0
-176 -177 -179 0
-176 -177 -180 0
-176 -177 -181 0
-176 -178 -179 0
-176 -178 -180 0
-176 -178 -181 0
-176 -179 -180 0
-176 -179 -181 0
-176 -180 -181 0
-177 -178 -179 0
-177 -178 -180 0
-177 -178 -181 0
-177 -179 -180 0
-177 -179 -181 0
-177 -180 -181 0
-178 -179 -180 0
-178 -179 -181 0
-178 -180 -181 0
-179 -180 -181 0
-139 173 174 175 176 177 178 179 180 181 0
-173 139 174 175 176 177 178 179 180 181 0
-174 139 173 175 176 177 178 179 180 181 0
-175 139 173 174 176 177 178 179 180 181 0
-176 139 173 174 175 177 178 179 180 181 0
-177 139 173 174 175 176 178 179 180 181 0
-178 139 173 174 175 176 177 179 180 181 0
-179 139 173 174 175 176 177 178 180 181 0
-180 139 173 174 175 176 177 178 179 181 0
-181 139 173 174 175 176 177 178 179 180 0
-148 -173 -182 0
-148 -173 -183 0
-148 -173 -184 0
-148 -173 -185 0
-148 -173 -186 0
-148 -173 -187 0
-148 -173 -188 0
-148 -173 -189 0
-148 -182 -183 0
-148 -182 -184 0
-148 -182 -185 0
-148 -182 -186 0
-148 -182 -187 0
-148 -182 -188 0
-148 -182 -189 0
-148 -183 -184 0
-148 -183 -185 0
-148 -183 -186 0
-148 -183 -187 0
-148 -183 -188 0
-148 -183 -189 0
-148 -184 -185 0
-148 -184 -186 0
-148 -184 -187 0
-148 -184 -188 0
-148 -184 -189 0
-148 -185 -186 0
-148 -185 -187 0
-148 -185 -188 0
-148 -185 -189 0
-148 -186 -187 0
-148 -186 -188 0
-148 -186 -189 0
-148 -187 -188 0
-148 -187 -189 0
-148 -188 -189 0
-173 -182 -183 0
-173 -182 -184 0
-173 -182 -185 0
-173 -182 -186 0
-173 -182 -187 0
-173 -182 -188 0
-173 -182 -189 0
-173 -183 -184 0
-173 -183 -185 0
-173 -183 -186 0
-173 -183 -187 0
-173 -183 -188 0
-173 -183 -189 0
-173 -184 -185 0
-173 -184 -186 0
-173 -184 -187 0
-173 -184 -188 0
-173 -184 -189 0
-173 -185 -186 0
-173 -185 -187 0
-173 -185 -188 0
-173 -185 -189 0
-173 -186 -187 0
-173 -186 -188 0
-173 -186 -189 0
-173 -187 -188 0
-173 -187 -189 0
-173 -188 -189 0
-182 -183 -184 0
-182 -183 -185 0
-182 -183 -186 0
-182 -183 -187 0
-182 -183 -188 0
-182 -183 -189 0
-182 -184 -185 0
-182 -184 -186 0
-182 -184 -187 0
-182 -184 -188 0
-182 -184 -189 0
-182 -185 -186 0
-182 -185 -187 0
-182 -185 -188 0
-182 -185 -189 0
-182 -186 -187 0
-182 -186 -188 0
-182 -186 -189 0
-182 -187 -188 0
-182 -187 -189 0
-182 -188 -189 0
-183 -184 -185 0
-183 -184 -186 0
-183 -184 -187 0
-183 -184 -188 0
-183 -184 -189 0
-183 -185 -186 0
-183 -185 -187 0
-183 -185 -188 0
-183 -185 -189 0
-183 -186 -187 0
-183 -186 -188 0
-183 -186 -189 0
-183 -187 -188 0
-183 -187 -189 0
-183 -188 -189 0
-184 -185 -186 0
-184 -185 -187 0
-184 -185 -188 0
-184 -185 -189 0
-184 -186 -187 0
-184 -186 -188 0
-184 -186 -189 0
-184 -187 -188 0
-184 -187 -189 0
-184 -188 -189 0
-185 -186 -187 0
-185 -186 -188 0
-185 -186 -189 0
-185 -187 -188 0
-185 -187 -189 0
-185 -188 -189 0
-186 -187 -188 0
-186 -187 -189 0
-186 -188 -189 0
-187 -188 -189 0
-148 173 182 183 184 185 186 187 188 189 0
-173 148 182 183 184 185 186 187 188 189 0
-182 148 173 183 184 185 186 187 188 189 0
-183 148 173 182 184 185 186 187 188 189 0
-184 148 173 182 183 185 186 187 188 189 0
-185 148 173 182 183 184 186 187 188 189 0
-186 148 173 182 183 184 185 187 188 189 0
-187 148 173 182 183 184 185 186 188 189 0
-188 148 173 182 183 184 185 186 187 189 0
-189 148 173 182 183 184 185 186 187 188 0
-157 -174 -190 0
-157 -174 -191 0
-157 -174 -192 0
-157 -174 -193 0
-157 -174 -194 0
-157 -174 -195 0
-157 -174 -196 0
-157 -174 -197 0
-157 -190 -191 0
-157 -190 -192 0
-157 -190 -193 0
-157 -190 -194 0
-157 -190 -195 0
-157 -190 -196 0
-157 -190 -197 0
-157 -191 -192 0
-157 -191 -193 0
-157 -191 -194 0
-157 -191 -195 0
-157 -191 -196 0
-157 -191 -197 0
-157 -192 -193 0
-157 -192 -194 0
-157 -192 -195 0
-157 -192 -196 0
-157 -192 -197 0
-157 -193 -194 0
-157 -193 -195 0
-157 -193 -196 0
-157 -193 -197 0
-157 -194 -195 0
-157 -194 -196 0
-157 -194 -197 0
-157 -195 -196 0
-157 -195 -197 0
-157 -196 -197 0
-174 -190 -191 0
-174 -190 -192 0
-174 -190 -193 0
-174 -190 -194 0
-174 -190 -195 0
-174 -190 -196 0
-174 -190 -197 0
-174 -191 -192 0
-174 -191 -193 0
-174 -191 -194 0
-174 -191 -195 0
-174 -191 -196 0
-174 -191 -197 0
-174 -192 -193 0
-174 -192 -194 0
-174 -192 -195 0
-174 -192 -196 0
-174 -192 -197 0
-174 -193 -194 0
-174 -193 -195 0
-174 -193 -196 0
-174 -193 -197 0
-174 -194 -195 0
-174 -194 -196 0
-174 -194 -197 0
-174 -195 -196 0
-174 -195 -197 0
-174 -196 -197 0
-190 -191 -192 0
-190 -191 -193 0
-190 -191 -194 0
-190 -191 -195 0
-190 -191 -196 0
-190 -191 -197 0
-190 -192 -193 0
-190 -192 -194 0
-190 -192 -195 0
-190 -192 -196 0
-190 -192 -197 0
-190 -193 -194 0
-190 -193 -195 0
-190 -193 -196 0
-190 -193 -197 0
-190 -194 -195 0
-190 -194 -196 0
-190 -194 -197 0
-190 -195 -196 0
-190 -195 -197 0
-190 -196 -197 0
-191 -192 -193 0
-191 -192 -194 0
-191 -192 -195 0
-191 -192 -196 0
-191 -192 -197 0
-191 -193 -194 0
-191 -193 -195 0
-191 -193 -196 0
-191 -193 -197 0
-191 -194 -195 0
-191 -194 -196 0
-191 -194 -197 0
-191 -195 -196 0
-191 -195 -197 0
-191 -196 -197 0
-192 -193 -194 0
-192 -193 -195 0
-192 -193 -196 0
-192 -193 -197 0
-192 -194 -195 0
-192 -194 -196 0
-192 -194 -197 0
-192 -195 -196 0
-192 -195 -197 0
-192 -196 -197 0
-193 -194 -195 0
-193 -194 -196 0
-193 -194 -197 0
-193 -195 -196 0
-193 -195 -197 0
-193 -196 -197 0
-194 -195 -196 0
-194 -195 -197 0
-194 -196 -197 0
-195 -196 -197 0
-157 174 190 191 192 193 194 195 196 197 0
-174 157 190 191 192 193 194 195 196 197 0
-190 157 174 191 192 193 194 195 196 197 0
-191 157 174 190 192 193 194 195 196 197 0
-192 157 174 190 191 193 194 195 196 197 0
-193 157 174 190 191 192 194 195 196 197 0
-194 157 174 190 191 192 193 195 196 197 0
-195 157 174 190 191 192 193 194 196 197 0
-196 157 174 190 191 192 193 194 195 197 0
-197 157 174 190 191 192 193 194 195 196 0
-165 -182 -190 0
-165 -182 -198 0
-165 -182 -199 0
-165 -182 -200 0
-165 -182 -201 0
-165 -182 -202 0
-165 -182 -203 0
-165 -182 -204 0
-165 -190 -198 0
-165 -190 -199 0
-165 -190 -200 0
-165 -190 -201 0
-165 -190 -202 0
-165 -190 -203 0
-165 -190 -204 0
-165 -198 -199 0
-165 -198 -200 0
-165 -198 -201 0
-165 -198 -202 0
-165 -198 -203 0
-165 -198 -204 0
-165 -199 -200 0
-165 -199 -201 0
-165 -199 -202 0
-165 -199 -203 0
-165 -199 -204 0
-165 -200 -201 0
-165 -200 -202 0
-165 -200 -203 0
-165 -200 -204 0
-165 -201 -202 0
-165 -201 -203 0
-165 -201 -204 0
-165 -202 -203 0
-165 -202 -204 0
-165 -203 -204 0
-182 -190 -198 0
-182 -190 -199 0
-182 -190 -200 0
-182 -190 -201 0
-182 -190 -202 0
-182 -190 -203 0
-182 -190 -204 0
-182 -198 -199 0
-182 -198 -200 0
-182 -198 -201 0
-182 -198 -202 0
-182 -198 -203 0
-182 -198 -204 0
-182 -199 -200 0
-182 -199 -201 0
-182 -199 -202 0
-182 -199 -203 0
-182 -199 -204 0
-182 -200 -201 0
-182 -200 -202 0
-182 -200 -203 0
-182 -200 -204 0
-182 -201 -202 0
-182 -201 -203 0
-182 -201 -204 0
-182 -202 -203 0
-182 -202 -204 0
-182 -203 -204 0
-190 -198 -199 0
-190 -198 -200 0
-190 -198 -201 0
-190 -198 -202 0
-190 -198 -203 0
-190 -198 -204 0
-190 -199 -200 0
-190 -199 -201 0
-190 -199 -202 0
-190 -199 -203 0
-190 -199 -204 0
-190 -200 -201 0
-190 -200 -202 0
-190 -200 -203 0
-190 -200 -204 0
-190 -201 -202 0
-190 -201 -203 0
-190 -201 -204 0
-190 -202 -203 0
-190 -202 -204 0
-190 -203 -204 0
-198 -199 -200 0
-198 -199 -201 0
-198 -199 -202 0
-198 -199 -203 0
-198 -199 -204 0
-198 -200 -201 0
-198 -200 -202 0
-198 -200 -203 0
-198 -200 -204 0
-198 -201 -202 0
-198 -201 -203 0
-198 -201 -204 0
-198 -202 -203 0
-198 -202 -204 0
-198 -203 -204 0
-199 -200 -201 0
-199 -200 -202 0
-199 -200 -203 0
-199 -200 -204 0
-199 -201 -202 0
-199 -201 -203 0
-199 -201 -204 0
-199 -202 -203 0
-199 -202 -204 0
-199 -203 -204 0
-200 -201 -202 0
-200 -201 -203 0
-200 -201 -204 0
-200 -202 -203 0
-200 -202 -204 0
-200 -203 -204 0
-201 -202 -203 0
-201 -202 -204 0
-201 -203 -204 0
-202 -203 -204 0
-165 182 190 198 199 200 201 202 203 204 0
-182 165 190 198 199 200 201 202 203 204 0
-190 165 182 198 199 200 201 202 203 204 0
-198 165 182 190 199 200 201 202 203 204 0
-199 165 182 190 198 200 201 202 203 204 0
-200 165 182 190 198 199 201 202 203 204 0
-201 165 182 190 198 199 200 202 203 204 0
-202 165 182 190 198 199 200 201 203 204 0
-203 165 182 190 198 199 200 201 202 204 0
-204 165 182 190 198 199 200 201 202 203 0
-140 -198 -205 0
-140 -198 -206 0
-140 -198 -207 0
-140 -198 -208 0
-140 -198 -209 0
-140 -198 -210 0
-140 -198 -211 0
-140 -198 -212 0
-140 -205 -206 0
-140 -205 -207 0
-140 -205 -208 0
-140 -205 -209 0
-140 -205 -210 0
-140 -205 -211 0
-140 -205 -212 0
-140 -206 -207 0
-140 -206 -208 0
-140 -206 -209 0
-140 -206 -210 0
-140 -206 -211 0
-140 -206 -212 0
-140 -207 -208 0
-140 -207 -209 0
-140 -207 -210 0
-140 -207 -211 0
-140 -207 -212 0
-140 -208 -209 0
-140 -208 -210 0
-140 -208 -211 0
-140 -208 -212 0
-140 -209 -210 0
-140 -209 -211 0
-140 -209 -212 0
-140 -210 -211 0
-140 -210 -212 0
-140 -211 -212 0
-198 -205 -206 0
-198 -205 -207 0
-198 -205 -208 0
-198 -205 -209 0
-198 -205 -210 0
-198 -205 -211 0
-198 -205 -212 0
-198 -206 -207 0
-198 -206 -208 0
-198 -206 -209 0
-198 -206 -210 0
-198 -206 -211 0
-198 -206 -212 0
-198 -207 -208 0
-198 -207 -209 0
-198 -207 -210 0
-198 -207 -211 0
-198 -207 -212 0
-198 -208 -209 0
-198 -208 -210 0
-198 -208 -211 0
-198 -208 -212 0
-198 -209 -210 0
-198 -209 -211 0
-198 -209 -212 0
-198 -210 -211 0
-198 -210 -212 0
-198 -211 -212 0
-205 -206 -207 0
-205 -206 -208 0
-205 -206 -209 0
-205 -206 -210 0
-205 -206 -211 0
-205 -206 -212 0
-205 -207 -208 0
-205 -207 -209 0
-205 -207 -210 0
-205 -207 -211 0
-205 -207 -212 0
-205 -208 -209 0
-205 -208 -210 0
-205 -208 -211 0
-205 -208 -212 0
-205 -209 -210 0
-205 -209 -211 0
-205 -209 -212 0
-205 -210 -211 0
-205 -210 -212 0
-205 -211 -212 0
-206 -207 -208 0
-206 -207 -209 0
-206 -207 -210 0
-206 -207 -211 0
-206 -207 -212 0
-206 -208 -209 0
-206 -208 -210 0
-206 -208 -211 0
-206 -208 -212 0
-206 -209 -210 0
-206 -209 -211 0
-206 -209 -212 0
-206 -210 -211 0
-206 -210 -212 0
-206 -211 -212 0
-207 -208 -209 0
-207 -208 -210 0
-207 -208 -211 0
-207 -208 -212 0
-207 -209 -210 0
-207 -209 -211 0
-207 -209 -212 0
-207 -210 -211 0
-207 -210 -212 0
-207 -211 -212 0
-208 -209 -210 0
-208 -209 -211 0
-208 -209 -212 0
-208 -210 -211 0
-208 -210 -212 0
-208 -211 -212 0
-209 -210 -211 0
-209 -210 -212 0
-209 -211 -212 0
-210 -211 -212 0
-140 198 205 206 207 208 209 210 211 212 0
-198 140 205 206 207 208 209 210 211 212 0
-205 140 198 206 207 208 209 210 211 212 0
-206 140 198 205 207 208 209 210 211 212 0
-207 140 198 205 206 208 209 210 211 212 0
-208 140 198 205 206 207 209 210 211 212 0
-209 140 198 205 206 207 208 210 211 212 0
-210 140 198 205 206 207 208 209 211 212 0
-211 140 198 205 206 207 208 209 210 212 0
-212 140 198 205 206 207 208 209 210 211 0
-149 -191 -205 0
-149 -191 -213 0
-149 -191 -214 0
-149 -191 -215 0
-149 -191 -216 0
-149 -191 -217 0
-149 -191 -218 0
-149 -191 -219 0
-149 -205 -213 0
-149 -205 -214 0
-149 -205 -215 0
-149 -205 -216 0
-149 -205 -217 0
-149 -205 -218 0
-149 -205 -219 0
-149 -213 -214 0
-149 -213 -215 0
-149 -213 -216 0
-149 -213 -217 0
-149 -213 -218 0
-149 -213 -219 0
-149 -214 -215 0
-149 -214 -216 0
-149 -214 -217 0
-149 -214 -218 0
-149 -214 -219 0
-149 -215 -216 0
-149 -215 -217 0
-149 -215 -218 0
-149 -215 -219 0
-149 -216 -217 0
-149 -216 -218 0
-149 -216 -219 0
-149 -217 -218 0
-149 -217 -219 0
-149 -218 -219 0
-191 -205 -213 0
-191 -205 -214 0
-191 -205 -215 0
-191 -205 -216 0
-191 -205 -217 0
-191 -205 -218 0
-191 -205 -219 0
-191 -213 -214 0
-191 -213 -215 0
-191 -213 -216 0
-191 -213 -217 0
-191 -213 -218 0
-191 -213 -219 0
-191 -214 -215 0
-191 -214 -216 0
-191 -214 -217 0
-191 -214 -218 0
-191 -214 -219 0
-191 -215 -216 0
-191 -215 -217 0
-191 -215 -218 0
-191 -215 -219 0
-191 -216 -217 0
-191 -216 -218 0
-191 -216 -219 0
-191 -217 -218 0
-191 -217 -219 0
-191 -218 -219 0
-205 -213 -214 0
-205 -213 -215 0
-205 -213 -216 0
-205 -213 -217 0
-205 -213 -218 0
-205 -213 -219 0
-205 -214 -215 0
-205 -214 -216 0
-205 -214 -217 0
-205 -214 -218 0
-205 -214 -219 0
-205 -215 -216 0
-205 -215 -217 0
-205 -215 -218 0
-205 -215 -219 0
-205 -216 -217 0
-205 -216 -218 0
-205 -216 -219 0
-205 -217 -218 0
-205 -217 -219 0
-205 -218 -219 0
-213 -214 -215 0
-213 -214 -216 0
-213 -214 -217 0
-213 -214 -218 0
-213 -214 -219 0
-213 -215 -216 0
-213 -215 -217 0
-213 -215 -218 0
-213 -215 -219 0
-213 -216 -217 0
-213 -216 -218 0
-213 -216 -219 0
-213 -217 -218 0
-213 -217 -219 0
-213 -218 -219 0
-214 -215 -216 0
-214 -215 -217 0
-214 -215 -218 0
-214 -215 -219 0
-214 -216 -217 0
-214 -216 -218 0
-214 -216 -219 0
-214 -217 -218 0
-214 -217 -219 0
-214 -218 -219 0
-215 -216 -217 0
-215 -216 -218 0
-215 -216 -219 0
-215 -217 -218 0
-215 -217 -219 0
-215 -218 -219 0
-216 -217 -218 0
-216 -217 -219 0
-216 -218 -219 0
-217 -218 -219 0
-149 191 205 213 214 215 216 217 218 219 0
-191 149 205 213 214 215 216 217 218 219 0
-205 149 191 213 214 215 216 217 218 219 0
-213 149 191 205 214 215 216 217 218 219 0
-214 149 191 205 213 215 216 217 218 219 0
-215 149 191 205 213 214 216 217 218 219 0
-216 149 191 205 213 214 215 217 218 219 0
-217 149 191 205 213 214 215 216 218 219 0
-218 149 191 205 213 214 215 216 217 219 0
-219 149 191 205 213 214 215 216 217 218 0
-158 -183 -206 0
-158 -183 -220 0
-158 -183 -221 0
-158 -183 -222 0
-158 -183 -223 0
-158 -183 -224 0
-158 -183 -225 0
-158 -183 -226 0
-158 -206 -220 0
-158 -206 -221 0
-158 -206 -222 0
-158 -206 -223 0
-158 -206 -224 0
-158 -206 -225 0
-158 -206 -226 0
-158 -220 -221 0
-158 -220 -222 0
-158 -220 -223 0
-158 -220 -224 0
-158 -220 -225 0
-158 -220 -226 0
-158 -221 -222 0
-158 -221 -223 0
-158 -221 -224 0
-158 -221 -225 0
-158 -221 -226 0
-158 -222 -223 0
-158 -222 -224 0
-158 -222 -225 0
-158 -222 -226 0
-158 -223 -224 0
-158 -223 -225 0
-158 -223 -226 0
-158 -224 -225 0
-158 -224 -226 0
-158 -225 -226 0
-183 -206 -220 0
-183 -206 -221 0
-183 -206 -222 0
-183 -206 -223 0
-183 -206 -224 0
-183 -206 -225 0
-183 -206 -226 0
-183 -220 -221 0
-183 -220 -222 0
-183 -220 -223 0
-183 -220 -224 0
-183 -220 -225 0
-183 -220 -226 0
-183 -221 -222 0
-183 -221 -223 0
-183 -221 -224 0
-183 -221 -225 0
-183 -221 -226 0
-183 -222 -223 0
-183 -222 -224 0
-183 -222 -225 0
-183 -222 -226 0
-183 -223 -224 0
-183 -223 -225 0
-183 -223 -226 0
-183 -224 -225 0
-183 -224 -226 0
-183 -225 -226 0
-206 -220 -221 0
-206 -220 -222 0
-206 -220 -223 0
-206 -220 -224 0
-206 -220 -225 0
-206 -220 -226 0
-206 -221 -222 0
-206 -221 -223 0
-206 -221 -224 0
-206 -221 -225 0
-206 -221 -226 0
-206 -222 -223 0
-206 -222 -224 0
-206 -222 -225 0
-206 -222 -226 0
-206 -223 -224 0
-206 -223 -225 0
-206 -223 -226 0
-206 -224 -225 0
-206 -224 -226 0
-206 -225 -226 0
-220 -221 -222 0
-220 -221 -223 0
-220 -221 -224 0
-220 -221 -225 0
-220 -221 -226 0
-220 -222 -223 0
-220 -222 -224 0
-220 -222 -225 0
-220 -222 -226 0
-220 -223 -224 0
-220 -223 -225 0
-220 -223 -226 0
-220 -224 -225 0
-220 -224 -226 0
-220 -225 -226 0
-221 -222 -223 0
-221 -222 -224 0
-221 -222 -225 0
-221 -222 -226 0
-221 -223 -224 0
-221 -223 -225 0
-221 -223 -226 0
-221 -224 -225 0
-221 -224 -226 0
-221 -225 -226 0
-222 -223 -224 0
-222 -223 -225 0
-222 -223 -226 0
-222 -224 -225 0
-222 -224 -226 0
-222 -225 -226 0
-223 -224 -225 0
-223 -224 -226 0
-223 -225 -226 0
-224 -225 -226 0
-158 183 206 220 221 222 223 224 225 226 0
-183 158 206 220 221 222 223 224 225 226 0
-206 158 183 220 221 222 223 224 225 226 0
-220 158 183 206 221 222 223 224 225 226 0
-221 158 183 206 220 222 223 224 225 226 0
-222 158 183 206 220 221 223 224 225 226 0
-223 158 183 206 220 221 222 224 225 226 0
-224 158 183 206 220 221 222 223 225 226 0
-225 158 183 206 220 221 222 223 224 226 0
-226 158 183 206 220 221 222 223 224 225 0
-166 -175 -213 0
-166 -175 -220 0
-166 -175 -227 0
-166 -175 -228 0
-166 -175 -229 0
-166 -175 -230 0
-166 -175 -231 0
-166 -175 -232 0
-166 -213 -220 0
-166 -213 -227 0
-166 -213 -228 0
-166 -213 -229 0
-166 -213 -230 0
-166 -213 -231 0
-166 -213 -232 0
-166 -220 -227 0
-166 -220 -228 0
-166 -220 -229 0
-166 -220 -230 0
-166 -220 -231 0
-166 -220 -232 0
-166 -227 -228 0
-166 -227 -229 0
-166 -227 -230 0
-166 -227 -231 0
-166 -227 -232 0
-166 -228 -229 0
-166 -228 -230 0
-166 -228 -231 0
-166 -228 -232 0
-166 -229 -230 0
-166 -229 -231 0
-166 -229 -232 0
-166 -230 -231 0
-166 -230 -232 0
-166 -231 -232 0
-175 -213 -220 0
-175 -213 -227 0
-175 -213 -228 0
-175 -213 -229 0
-175 -213 -230 0
-175 -213 -231 0
-175 -213 -232 0
-175 -220 -227 0
-175 -220 -228 0
-175 -220 -229 0
-175 -220 -230 0
-175 -220 -231 0
-175 -220 -232 0
-175 -227 -228 0
-175 -227 -229 0
-175 -227 -230 0
-175 -227 -231 0
-175 -227 -232 0
-175 -228 -229 0
-175 -228 -230 0
-175 -228 -231 0
-175 -228 -232 0
-175 -229 -230 0
-175 -229 -231 0
-175 -229 -232 0
-175 -230 -231 0
-175 -230 -232 0
-175 -231 -232 0
-213 -220 -227 0
-213 -220 -228 0
-213 -220 -229 0
-213 -220 -230 0
-213 -220 -231 0
-213 -220 -232 0
-213 -227 -228 0
-213 -227 -229 0
-213 -227 -230 0
-213 -227 -231 0
-213 -227 -232 0
-213 -228 -229 0
-213 -228 -230 0
-213 -228 -231 0
-213 -228 -232 0
-213 -229 -230 0
-213 -229 -231 0
-213 -229 -232 0
-213 -230 -231 0
-213 -230 -232 0
-213 -231 -232 0
-220 -227 -228 0
-220 -227 -229 0
-220 -227 -230 0
-220 -227 -231 0
-220 -227 -232 0
-220 -228 -229 0
-220 -228 -230 0
-220 -228 -231 0
-220 -228 -232 0
-220 -229 -230 0
-220 -229 -231 0
-220 -229 -232 0
-220 -230 -231 0
-220 -230 -232 0
-220 -231 -232 0
-227 -228 -229 0
-227 -228 -230 0
-227 -228 -231 0
-227 -228 -232 0
-227 -229 -230 0
-227 -229 -231 0
-227 -229 -232 0
-227 -230 -231 0
-227 -230 -232 0
-227 -231 -232 0
-228 -229 -230 0
-228 -229 -231 0
-228 -229 -232 0
-228 -230 -231 0
-228 -230 -232 0
-228 -231 -232 0
-229 -230 -231 0
-229 -230 -232 0
-229 -231 -232 0
-230 -231 -232 0
-166 175 213 220 227 228 229 230 231 232 0
-175 166 213 220 227 228 229 230 231 232 0
-213 166 175 220 227 228 229 230 231 232 0
-220 166 175 213 227 228 229 230 231 232 0
-227 166 175 213 220 228 229 230 231 232 0
-228 166 175 213 220 227 229 230 231 232 0
-229 166 175 213 220 227 228 230 231 232 0
-230 166 175 213 220 227 228 229 231 232 0
-231 166 175 213 220 227 228 229 230 232 0
-232 166 175 213 220 227 228 229 230 231 0
-167 -176 -207 0
-167 -176 -233 0
-167 -176 -234 0
-167 -176 -235 0
-167 -176 -236 0
-167 -176 -237 0
-167 -176 -238 0
-167 -176 -239 0
-167 -207 -233 0
-167 -207 -234 0
-167 -207 -235 0
-167 -207 -236 0
-167 -207 -237 0
-167 -207 -238 0
-167 -207 -239 0
-167 -233 -234 0
-167 -233 -235 0
-167 -233 -236 0
-167 -233 -237 0
-167 -233 -238 0
-167 -233 -239 0
-167 -234 -235 0
-167 -234 -236 0
-167 -234 -237 0
-167 -234 -238 0
-167 -234 -239 0
-167 -235 -236 0
-167 -235 -237 0
-167 -235 -238 0
-167 -235 -239 0
-167 -236 -237 0
-167 -236 -238 0
-167 -236 -239 0
-167 -237 -238 0
-167 -237 -239 0
-167 -238 -239 0
-176 -207 -233 0
-176 -207 -234 0
-176 -207 -235 0
-176 -207 -236 0
-176 -207 -237 0
-176 -207 -238 0
-176 -207 -239 0
-176 -233 -234 0
-176 -233 -235 0
-176 -233 -236 0
-176 -233 -237 0
-176 -233 -238 0
-176 -233 -239 0
-176 -234 -235 0
-176 -234 -236 0
-176 -234 -237 0
-176 -234 -238 0
-176 -234 -239 0
-176 -235 -236 0
-176 -235 -237 0
-176 -235 -238 0
-176 -235 -239 0
-176 -236 -237 0
-176 -236 -238 0
-176 -236 -239 0
-176 -237 -238 0
-176 -237 -239 0
-176 -238 -239 0
-207 -233 -234 0
-207 -233 -235 0
-207 -233 -236 0
-207 -233 -237 0
-207 -233 -238 0
-207 -233 -239 0
-207 -234 -235 0
-207 -234 -236 0
-207 -234 -237 0
-207 -234 -238 0
-207 -234 -239 0
-207 -235 -236 0
-207 -235 -237 0
-207 -235 -238 0
-207 -235 -239 0
-207 -236 -237 0
-207 -236 -238 0
-207 -236 -239 0
-207 -237 -238 0
-207 -237 -239 0
-207 -238 -239 0
-233 -234 -235 0
-233 -234 -236 0
-233 -234 -237 0
-233 -234 -238 0
-233 -234 -239 0
-233 -235 -236 0
-233 -235 -237 0
-233 -235 -238 0
-233 -235 -239 0
-233 -236 -237 0
-233 -236 -238 0
-233 -236 -239 0
-233 -237 -238 0
-233 -237 -239 0
-233 -238 -239 0
-234 -235 -236 0
-234 -235 -237 0
-234 -235 -238 0
-234 -235 -239 0
-234 -236 -237 0
-234 -236 -238 0
-234 -236 -239 0
-234 -237 -238 0
-234 -237 -239 0
-234 -238 -239 0
-235 -236 -237 0
-235 -236 -238 0
-235 -236 -239 0
-235 -237 -238 0
-235 -237 -239 0
-235 -238 -239 0
-236 -237 -238 0
-236 -237 -239 0
-236 -238 -239 0
-237 -238 -239 0
-167 176 207 233 234 235 236 237 238 239 0
-176 167 207 233 234 235 236 237 238 239 0
-207 167 176 233 234 235 236 237 238 239 0
-233 167 176 207 234 235 236 237 238 239 0
-234 167 176 207 233 235 236 237 238 239 0
-235 167 176 207 233 234 236 237 238 239 0
-236 167 176 207 233 234 235 237 238 239 0
-237 167 176 207 233 234 235 236 238 239 0
-238 167 176 207 233 234 235 236 237 239 0
-239 167 176 207 233 234 235 236 237 238 0
-159 -184 -214 0
-159 -184 -233 0
-159 -184 -240 0
-159 -184 -241 0
-159 -184 -242 0
-159 -184 -243 0
-159 -184 -244 0
-159 -184 -245 0
-159 -214 -233 0
-159 -214 -240 0
-159 -214 -241 0
-159 -214 -242 0
-159 -214 -243 0
-159 -214 -244 0
-159 -214 -245 0
-159 -233 -240 0
-159 -233 -241 0
-159 -233 -242 0
-159 -233 -243 0
-159 -233 -244 0
-159 -233 -245 0
-159 -240 -241 0
-159 -240 -242 0
-159 -240 -243 0
-159 -240 -244 0
-159 -240 -245 0
-159 -241 -242 0
-159 -241 -243 0
-159 -241 -244 0
-159 -241 -245 0
-159 -242 -243 0
-159 -242 -244 0
-159 -242 -245 0
-159 -243 -244 0
-159 -243 -245 0
-159 -244 -245 0
-184 -214 -233 0
-184 -214 -240 0
-184 -214 -241 0
-184 -214 -242 0
-184 -214 -243 0
-184 -214 -244 0
-184 -214 -245 0
-184 -233 -240 0
-184 -233 -241 0
-184 -233 -242 0
-184 -233 -243 0
-184 -233 -244 0
-184 -233 -245 0
-184 -240 -241 0
-184 -240 -242 0
-184 -240 -243 0
-184 -240 -244 0
-184 -240 -245 0
-184 -241 -242 0
-184 -241 -243 0
-184 -241 -244 0
-184 -241 -245 0
-184 -242 -243 0
-184 -242 -244 0
-184 -242 -245 0
-184 -243 -244 0
-184 -243 -245 0
-184 -244 -245 0
-214 -233 -240 0
-214 -233 -241 0
-214 -233 -242 0
-214 -233 -243 0
-214 -233 -244 0
-214 -233 -245 0
-214 -240 -241 0
-214 -240 -242 0
-214 -240 -243 0
-214 -240 -244 0
-214 -240 -245 0
-214 -241 -242 0
-214 -241 -243 0
-214 -241 -244 0
-214 -241 -245 0
-214 -242 -243 0
-214 -242 -244 0
-214 -242 -245 0
-214 -243 -244 0
-214 -243 -245 0
-214 -244 -245 0
-233 -240 -241 0
-233 -240 -242 0
-233 -240 -243 0
-233 -240 -244 0
-233 -240 -245 0
-233 -241 -242 0
-233 -241 -243 0
-233 -241 -244 0
-233 -241 -245 0
-233 -242 -243 0
-233 -242 -244 0
-233 -242 -245 0
-233 -243 -244 0
-233 -243 -245 0
-233 -244 -245 0
-240 -241 -242 0
-240 -241 -243 0
-240 -241 -244 0
-240 -241 -245 0
-240 -242 -243 0
-240 -242 -244 0
-240 -242 -245 0
-240 -243 -244 0
-240 -243 -245 0
-240 -244 -245 0
-241 -242 -243 0
-241 -242 -244 0
-241 -242 -245 0
-241 -243 -244 0
-241 -243 -245 0
-241 -244 -245 0
-242 -243 -244 0
-242 -243 -245 0
-242 -244 -245 0
-243 -244 -245 0
-159 184 214 233 240 241 242 243 244 245 0
-184 159 214 233 240 241 242 243 244 245 0
-214 159 184 233 240 241 242 243 244 245 0
-233 159 184 214 240 241 242 243 244 245 0
-240 159 184 214 233 241 242 243 244 245 0
-241 159 184 214 233 240 242 243 244 245 0
-242 159 184 214 233 240 241 243 244 245 0
-243 159 184 214 233 240 241 242 244 245 0
-244 159 184 214 233 240 241 242 243 245 0
-245 159 184 214 233 240 241 242 243 244 0
-150 -192 -221 0
-150 -192 -234 0
-150 -192 -246 0
-150 -192 -247 0
-150 -192 -248 0
-150 -192 -249 0
-150 -192 -250 0
-150 -192 -251 0
-150 -221 -234 0
-150 -221 -246 0
-150 -221 -247 0
-150 -221 -248 0
-150 -221 -249 0
-150 -221 -250 0
-150 -221 -251 0
-150 -234 -246 0
-150 -234 -247 0
-150 -234 -248 0
-150 -234 -249 0
-150 -234 -250 0
-150 -234 -251 0
-150 -246 -247 0
-150 -246 -248 0
-150 -246 -249 0
-150 -246 -250 0
-150 -246 -251 0
-150 -247 -248 0
-150 -247 -249 0
-150 -247 -250 0
-150 -247 -251 0
-150 -248 -249 0
-150 -248 -250 0
-150 -248 -251 0
-150 -249 -250 0
-150 -249 -251 0
-150 -250 -251 0
-192 -221 -234 0
-192 -221 -246 0
-192 -221 -247 0
-192 -221 -248 0
-192 -221 -249 0
-192 -221 -250 0
-192 -221 -251 0
-192 -234 -246 0
-192 -234 -247 0
-192 -234 -248 0
-192 -234 -249 0
-192 -234 -250 0
-192 -234 -251 0
-192 -246 -247 0
-192 -246 -248 0
-192 -246 -249 0
-192 -246 -250 0
-192 -246 -251 0
-192 -247 -248 0
-192 -247 -249 0
-192 -247 -250 0
-192 -247 -251 0
-192 -248 -249 0
-192 -248 -250 0
-192 -248 -251 0
-192 -249 -250 0
-192 -249 -251 0
-192 -250 -251 0
-221 -234 -246 0
-221 -234 -247 0
-221 -234 -248 0
-221 -234 -249 0
-221 -234 -250 0
-221 -234 -251 0
-221 -246 -247 0
-221 -246 -248 0
-221 -246 -249 0
-221 -246 -250 0
-221 -246 -251 0
-221 -247 -248 0
-221 -247 -249 0
-221 -247 -250 0
-221 -247 -251 0
-221 -248 -249 0
-221 -248 -250 0
-221 -248 -251 0
-221 -249 -250 0
-221 -249 -251 0
-221 -250 -251 0
-234 -246 -247 0
-234 -246 -248 0
-234 -246 -249 0
-234 -246 -250 0
-234 -246 -251 0
-234 -247 -248 0
-234 -247 -249 0
-234 -247 -250 0
-234 -247 -251 0
-234 -248 -249 0
-234 -248 -250 0
-234 -248 -251 0
-234 -249 -250 0
-234 -249 -251 0
-234 -250 -251 0
-246 -247 -248 0
-246 -247 -249 0
-246 -247 -250 0
-246 -247 -251 0
-246 -248 -249 0
-246 -248 -250 0
-246 -248 -251 0
-246 -249 -250 0
-246 -249 -251 0
-246 -250 -251 0
-247 -248 -249 0
-247 -248 -250 0
-247 -248 -251 0
-247 -249 -250 0
-247 -249 -251 0
-247 -250 -251 0
-248 -249 -250 0
-248 -249 -251 0
-248 -250 -251 0
-249 -250 -251 0
-150 192 221 234 246 247 248 249 250 251 0
-192 150 221 234 246 247 248 249 250 251 0
-221 150 192 234 246 247 248 249 250 251 0
-234 150 192 221 246 247 248 249 250 251 0
-246 150 192 221 234 247 248 249 250 251 0
-247 150 192 221 234 246 248 249 250 251 0
-248 150 192 221 234 246 247 249 250 251 0
-249 150 192 221 234 246 247 248 250 251 0
-250 150 192 221 234 246 247 248 249 251 0
-251 150 192 221 234 246 247 248 249 250 0
-141 -199 -227 0
-141 -199 -240 0
-141 -199 -246 0
-141 -199 -252 0
-141 -199 -253 0
-141 -199 -254 0
-141 -199 -255 0
-141 -199 -256 0
-141 -227 -240 0
-141 -227 -246 0
-141 -227 -252 0
-141 -227 -253 0
-141 -227 -254 0
-141 -227 -255 0
-141 -227 -256 0
-141 -240 -246 0
-141 -240 -252 0
-141 -240 -253 0
-141 -240 -254 0
-141 -240 -255 0
-141 -240 -256 0
-141 -246 -252 0
-141 -246 -253 0
-141 -246 -254 0
-141 -246 -255 0
-141 -246 -256 0
-141 -252 -253 0
-141 -252 -254 0
-141 -252 -255 0
-141 -252 -256 0
-141 -253 -254 0
-141 -253 -255 0
-141 -253 -256 0
-141 -254 -255 0
-141 -254 -256 0
-141 -255 -256 0
-199 -227 -240 0
-199 -227 -246 0
-199 -227 -252 0
-199 -227 -253 0
-199 -227 -254 0
-199 -227 -255 0
-199 -227 -256 0
-199 -240 -246 0
-199 -240 -252 0
-199 -240 -253 0
-199 -240 -254 0
-199 -240 -255 0
-199 -240 -256 0
-199 -246 -252 0
-199 -246 -253 0
-199 -246 -254 0
-199 -246 -255 0
-199 -246 -256 0
-199 -252 -253 0
-199 -252 -254 0
-199 -252 -255 0
-199 -252 -256 0
-199 -253 -254 0
-199 -253 -255 0
-199 -253 -256 0
-199 -254 -255 0
-199 -254 -256 0
-199 -255 -256 0
-227 -240 -246 0
-227 -240 -252 0
-227 -240 -253 0
-227 -240 -254 0
-227 -240 -255 0
-227 -240 -256 0
-227 -246 -252 0
-227 -246 -253 0
-227 -246 -254 0
-227 -246 -255 0
-227 -246 -256 0
-227 -252 -253 0
-227 -252 -254 0
-227 -252 -255 0
-227 -252 -256 0
-227 -253 -254 0
-227 -253 -255 0
-227 -253 -256 0
-227 -254 -255 0
-227 -254 -256 0
-227 -255 -256 0
-240 -246 -252 0
-240 -246 -253 0
-240 -246 -254 0
-240 -246 -255 0
-240 -246 -256 0
-240 -252 -253 0
-240 -252 -254 0
-240 -252 -255 0
-240 -252 -256 0
-240 -253 -254 0
-240 -253 -255 0
-240 -253 -256 0
-240 -254 -255 0
-240 -254 -256 0
-240 -255 -256 0
-246 -252 -253 0
-246 -252 -254 0
-246 -252 -255 0
-246 -252 -256 0
-246 -253 -254 0
-246 -253 -255 0
-246 -253 -256 0
-246 -254 -255 0
-246 -254 -256 0
-246 -255 -256 0
-252 -253 -254 0
-252 -253 -255 0
-252 -253 -256 0
-252 -254 -255 0
-252 -254 -256 0
-252 -255 -256 0
-253 -254 -255 0
-253 -254 -256 0
-253 -255 -256 0
-254 -255 -256 0
-141 199 227 240 246 252 253 254 255 256 0
-199 141 227 240 246 252 253 254 255 256 0
-227 141 199 240 246 252 253 254 255 256 0
-240 141 199 227 246 252 253 254 255 256 0
-246 141 199 227 240 252 253 254 255 256 0
-252 141 199 227 240 246 253 254 255 256 0
-253 141 199 227 240 246 252 254 255 256 0
-254 141 199 227 240 246 252 253 255 256 0
-255 141 199 227 240 246 252 253 254 256 0
-256 141 199 227 240 246 252 253 254 255 0
-151 -160 -177 0
-151 -160 -208 0
-151 -160 -252 0
-151 -160 -257 0
-151 -177 -208 0
-151 -177 -252 0
-151 -177 -257 0
-151 -208 -252 0
-151 -208 -257 0
-151 -252 -257 0
-160 -177 -208 0
-160 -177 -252 0
-160 -177 -257 0
-160 -208 -252 0
-160 -208 -257 0
-160 -252 -257 0
-177 -208 -252 0
-177 -208 -257 0
-177 -252 -257 0
-208 -252 -257 0
-151 160 177 208 252 257 0
-160 151 177 208 252 257 0
-177 151 160 208 252 257 0
-208 151 160 177 252 257 0
-252 151 160 177 208 257 0
-257 151 160 177 208 252 0
-142 -168 -185 0
-142 -168 -215 0
-142 -168 -247 0
-142 -168 -258 0
-142 -185 -215 0
-142 -185 -247 0
-142 -185 -258 0
-142 -215 -247 0
-142 -215 -258 0
-142 -247 -258 0
-168 -185 -215 0
-168 -185 -247 0
-168 -185 -258 0
-168 -215 -247 0
-168 -215 -258 0
-168 -247 -258 0
-185 -215 -247 0
-185 -215 -258 0
-185 -247 -258 0
-215 -247 -258 0
-142 168 185 215 247 258 0
-168 142 185 215 247 258 0
-185 142 168 215 247 258 0
-215 142 168 185 247 258 0
-247 142 168 185 215 258 0
-258 142 168 185 215 247 0
-143 -169 -193 0
-143 -169 -222 0
-143 -169 -241 0
-143 -169 -259 0
-143 -193 -222 0
-143 -193 -241 0
-143 -193 -259 0
-143 -222 -241 0
-143 -222 -259 0
-143 -241 -259 0
-169 -193 -222 0
-169 -193 -241 0
-169 -193 -259 0
-169 -222 -241 0
-169 -222 -259 0
-169 -241 -259 0
-193 -222 -241 0
-193 -222 -259 0
-193 -241 -259 0
-222 -241 -259 0
-143 169 193 222 241 259 0
-169 143 193 222 241 259 0
-193 143 169 222 241 259 0
-222 143 169 193 241 259 0
-241 143 169 193 222 259 0
-259 143 169 193 222 241 0
-152 -161 -200 0
-152 -161 -228 0
-152 -161 -235 0
-152 -161 -260 0
-152 -200 -228 0
-152 -200 -235 0
-152 -200 -260 0
-152 -228 -235 0
-152 -228 -260 0
-152 -235 -260 0
-161 -200 -228 0
-161 -200 -235 0
-161 -200 -260 0
-161 -228 -235 0
-161 -228 -260 0
-161 -235 -260 0
-200 -228 -235 0
-200 -228 -260 0
-200 -235 -260 0
-228 -235 -260 0
-152 161 200 228 235 260 0
-161 152 200 228 235 260 0
-200 152 161 228 235 260 0
-228 152 161 200 235 260 0
-235 152 161 200 228 260 0
-260 152 161 200 228 235 0
-144 -186 -194 0
-144 -186 -229 0
-144 -186 -236 0
-144 -186 -261 0
-144 -194 -229 0
-144 -194 -236 0
-144 -194 -261 0
-144 -229 -236 0
-144 -229 -261 0
-144 -236 -261 0
-186 -194 -229 0
-186 -194 -236 0
-186 -194 -261 0
-186 -229 -236 0
-186 -229 -261 0
-186 -236 -261 0
-194 -229 -236 0
-194 -229 -261 0
-194 -236 -261 0
-229 -236 -261 0
-144 186 194 229 236 261 0
-186 144 194 229 236 261 0
-194 144 186 229 236 261 0
-229 144 186 194 236 261 0
-236 144 186 194 229 261 0
-261 144 186 194 229 236 0
-153 -178 -201 0
-153 -178 -223 0
-153 -178 -242 0
-153 -178 -262 0
-153 -201 -223 0
-153 -201 -242 0
-153 -201 -262 0
-153 -223 -242 0
-153 -223 -262 0
-153 -242 -262 0
-178 -201 -223 0
-178 -201 -242 0
-178 -201 -262 0
-178 -223 -242 0
-178 -223 -262 0
-178 -242 -262 0
-201 -223 -242 0
-201 -223 -262 0
-201 -242 -262 0
-223 -242 -262 0
-153 178 201 223 242 262 0
-178 153 201 223 242 262 0
-201 153 178 223 242 262 0
-223 153 178 201 242 262 0
-242 153 178 201 223 262 0
-262 153 178 201 223 242 0
-162 -179 -202 0
-162 -179 -216 0
-162 -179 -248 0
-162 -179 -263 0
-162 -202 -216 0
-162 -202 -248 0
-162 -202 -263 0
-162 -216 -248 0
-162 -216 -263 0
-162 -248 -263 0
-179 -202 -216 0
-179 -202 -248 0
-179 -202 -263 0
-179 -216 -248 0
-179 -216 -263 0
-179 -248 -263 0
-202 -216 -248 0
-202 -216 -263 0
-202 -248 -263 0
-216 -248 -263 0
-162 179 202 216 248 263 0
-179 162 202 216 248 263 0
-202 162 179 216 248 263 0
-216 162 179 202 248 263 0
-248 162 179 202 216 263 0
-263 162 179 202 216 248 0
-170 -187 -195 0
-170 -187 -209 0
-170 -187 -253 0
-170 -187 -264 0
-170 -195 -209 0
-170 -195 -253 0
-170 -195 -264 0
-170 -209 -253 0
-170 -209 -264 0
-170 -253 -264 0
-187 -195 -209 0
-187 -195 -253 0
-187 -195 -264 0
-187 -209 -253 0
-187 -209 -264 0
-187 -253 -264 0
-195 -209 -253 0
-195 -209 -264 0
-195 -253 -264 0
-209 -253 -264 0
-170 187 195 209 253 264 0
-187 170 195 209 253 264 0
-195 170 187 209 253 264 0
-209 170 187 195 253 264 0
-253 170 187 195 209 264 0
-264 170 187 195 209 253 0
-145 -203 -217 0
-145 -203 -224 0
-145 -203 -237 0
-145 -203 -265 0
-145 -217 -224 0
-145 -217 -237 0
-145 -217 -265 0
-145 -224 -237 0
-145 -224 -265 0
-145 -237 -265 0
-203 -217 -224 0
-203 -217 -237 0
-203 -217 -265 0
-203 -224 -237 0
-203 -224 -265 0
-203 -237 -265 0
-217 -224 -237 0
-217 -224 -265 0
-217 -237 -265 0
-224 -237 -265 0
-145 203 217 224 237 265 0
-203 145 217 224 237 265 0
-217 145 203 224 237 265 0
-224 145 203 217 237 265 0
-237 145 203 217 224 265 0
-265 145 203 217 224 237 0
-154 -196 -210 0
-154 -196 -230 0
-154 -196 -243 0
-154 -196 -266 0
-154 -210 -230 0
-154 -210 -243 0
-154 -210 -266 0
-154 -230 -243 0
-154 -230 -266 0
-154 -243 -266 0
-196 -210 -230 0
-196 -210 -243 0
-196 -210 -266 0
-196 -230 -243 0
-196 -230 -266 0
-196 -243 -266 0
-210 -230 -243 0
-210 -230 -266 0
-210 -243 -266 0
-230 -243 -266 0
-154 196 210 230 243 266 0
-196 154 210 230 243 266 0
-210 154 196 230 243 266 0
-230 154 196 210 243 266 0
-243 154 196 210 230 266 0
-266 154 196 210 230 243 0
-163 -188 -211 0
-163 -188 -231 0
-163 -188 -249 0
-163 -188 -267 0
-163 -211 -231 0
-163 -211 -249 0
-163 -211 -267 0
-163 -231 -249 0
-163 -231 -267 0
-163 -249 -267 0
-188 -211 -231 0
-188 -211 -249 0
-188 -211 -267 0
-188 -231 -249 0
-188 -231 -267 0
-188 -249 -267 0
-211 -231 -249 0
-211 -231 -267 0
-211 -249 -267 0
-231 -249 -267 0
-163 188 211 231 249 267 0
-188 163 211 231 249 267 0
-211 163 188 231 249 267 0
-231 163 188 211 249 267 0
-249 163 188 211 231 267 0
-267 163 188 211 231 249 0
-171 -180 -218 0
-171 -180 -225 0
-171 -180 -254 0
-171 -180 -268 0
-171 -218 -225 0
-171 -218 -254 0
-171 -218 -268 0
-171 -225 -254 0
-171 -225 -268 0
-171 -254 -268 0
-180 -218 -225 0
-180 -218 -254 0
-180 -218 -268 0
-180 -225 -254 0
-180 -225 -268 0
-180 -254 -268 0
-218 -225 -254 0
-218 -225 -268 0
-218 -254 -268 0
-225 -254 -268 0
-171 180 218 225 254 268 0
-180 171 218 225 254 268 0
-218 171 180 225 254 268 0
-225 171 180 218 254 268 0
-254 171 180 218 225 268 0
-268 171 180 218 225 254 0
-172 -181 -212 0
-172 -181 -244 0
-172 -181 -250 0
-172 -181 -269 0
-172 -212 -244 0
-172 -212 -250 0
-172 -212 -269 0
-172 -244 -250 0
-172 -244 -269 0
-172 -250 -269 0
-181 -212 -244 0
-181 -212 -250 0
-181 -212 -269 0
-181 -244 -250 0
-181 -244 -269 0
-181 -250 -269 0
-212 -244 -250 0
-212 -244 -269 0
-212 -250 -269 0
-244 -250 -269 0
-172 181 212 244 250 269 0
-181 172 212 244 250 269 0
-212 172 181 244 250 269 0
-244 172 181 212 250 269 0
-250 172 181 212 244 269 0
-269 172 181 212 244 250 0
-164 -189 -219 0
-164 -189 -238 0
-164 -189 -255 0
-164 -189 -270 0
-164 -219 -238 0
-164 -219 -255 0
-164 -219 -270 0
-164 -238 -255 0
-164 -238 -270 0
-164 -255 -270 0
-189 -219 -238 0
-189 -219 -255 0
-189 -219 -270 0
-189 -238 -255 0
-189 -238 -270 0
-189 -255 -270 0
-219 -238 -255 0
-219 -238 -270 0
-219 -255 -270 0
-238 -255 -270 0
-164 189 219 238 255 270 0
-189 164 219 238 255 270 0
-219 164 189 238 255 270 0
-238 164 189 219 255 270 0
-255 164 189 219 238 270 0
-270 164 189 219 238 255 0
-155 -197 -226 0
-155 -197 -239 0
-155 -197 -256 0
-155 -197 -271 0
-155 -226 -239 0
-155 -226 -256 0
-155 -226 -271 0
-155 -239 -256 0
-155 -239 -271 0
-155 -256 -271 0
-197 -226 -239 0
-197 -226 -256 0
-197 -226 -271 0
-197 -239 -256 0
-197 -239 -271 0
-197 -256 -271 0
-226 -239 -256 0
-226 -239 -271 0
-226 -256 -271 0
-239 -256 -271 0
-155 197 226 239 256 271 0
-197 155 226 239 256 271 0
-226 155 197 239 256 271 0
-239 155 197 226 256 271 0
-256 155 197 226 239 271 0
-271 155 197 226 239 256 0
-146 -204 -232 0
-146 -204 -245 0
-146 -204 -251 0
-146 -204 -272 0
-146 -232 -245 0
-146 -232 -251 0
-146 -232 -272 0
-146 -245 -251 0
-146 -245 -272 0
-146 -251 -272 0
-204 -232 -245 0
-204 -232 -251 0
-204 -232 -272 0
-204 -245 -251 0
-204 -245 -272 0
-204 -251 -272 0
-232 -245 -251 0
-232 -245 -272 0
-232 -251 -272 0
-245 -251 -272 0
-146 204 232 245 251 272 0
-204 146 232 245 251 272 0
-232 146 204 245 251 272 0
-245 146 204 232 251 272 0
-251 146 204 232 245 272 0
-272 146 204 232 245 251 0
-257 -258 -259 0
-257 -258 -260 0
-257 -258 -261 0
-257 -258 -262 0
-257 -258 -263 0
-257 -258 -264 0
-257 -258 -265 0
-257 -258 -266 0
-257 -258 -267 0
-257 -258 -268 0
-257 -258 -269 0
-257 -258 -270 0
-257 -258 -271 0
-257 -258 -272 0
-257 -259 -260 0
-257 -259 -261 0
-257 -259 -262 0
-257 -259 -263 0
-257 -259 -264 0
-257 -259 -265 0
-257 -259 -266 0
-257 -259 -267 0
-257 -259 -268 0
-257 -259 -269 0
-257 -259 -270 0
-257 -259 -271 0
-257 -259 -272 0
-257 -260 -261 0
-257 -260 -262 0
-257 -260 -263 0
-257 -260 -264 0
-257 -260 -265 0
-257 -260 -266 0
-257 -260 -267 0
-257 -260 -268 0
-257 -260 -269 0
-257 -260 -270 0
-257 -260 -271 0
-257 -260 -272 0
-257 -261 -262 0
-257 -261 -263 0
-257 -261 -264 0
-257 -261 -265 0
-257 -261 -266 0
-257 -261 -267 0
-257 -261 -268 0
-257 -261 -269 0
-257 -261 -270 0
-257 -261 -271 0
-257 -261 -272 0
-257 -262 -263 0
-257 -262 -264 0
-257 -262 -265 0
-257 -262 -266 0
-257 -262 -267 0
-257 -262 -268 0
-257 -262 -269 0
-257 -262 -270 0
-257 -262 -271 0
-257 -262 -272 0
-257 -263 -264 0
-257 -263 -265 0
-257 -263 -266 0
-257 -263 -267 0
-257 -263 -268 0
-257 -263 -269 0
-257 -263 -270 0
-257 -263 -271 0
-257 -263 -272 0
-257 -264 -265 0
-257 -264 -266 0
-257 -264 -267 0
-257 -264 -268 0
-257 -264 -269 0
-257 -264 -270 0
-257 -264 -271 0
-257 -264 -272 0
-257 -265 -266 0
-257 -265 -267 0
-257 -265 -268 0
-257 -265 -269 0
-257 -265 -270 0
-257 -265 -271 0
-257 -265 -272 0
-257 -266 -267 0
-257 -266 -268 0
-257 -266 -269 0
-257 -266 -270 0
-257 -266 -271 0
-257 -266 -272 0
-257 -267 -268 0
-257 -267 -269 0
-257 -267 -270 0
-257 -267 -271 0
-257 -267 -272 0
-257 -268 -269 0
-257 -268 -270 0
-257 -268 -271 0
-257 -268 -272 0
-257 -269 -270 0
-257 -269 -271 0
-257 -269 -272 0
-257 -270 -271 0
-257 -270 -272 0
-257 -271 -272 0
-258 -259 -260 0
-258 -259 -261 0
-258 -259 -262 0
-258 -259 -263 0
-258 -259 -264 0
-258 -259 -265 0
-258 -259 -266 0
-258 -259 -267 0
-258 -259 -268 0
-258 -259 -269 0
-258 -259 -270 0
-258 -259 -271 0
-258 -259 -272 0
-258 -260 -261 0
-258 -260 -262 0
-258 -260 -263 0
-258 -260 -264 0
-258 -260 -265 0
-258 -260 -266 0
-258 -260 -267 0
-258 -260 -268 0
-258 -260 -269 0
-258 -260 -270 0
-258 -260 -271 0
-258 -260 -272 0
-258 -261 -262 0
-258 -261 -263 0
-258 -261 -264 0
-258 -261 -265 0
-258 -261 -266 0
-258 -261 -267 0
-258 -261 -268 0
-258 -261 -269 0
-258 -261 -270 0
-258 -261 -271 0
-258 -261 -272 0
-258 -262 -263 0
-258 -262 -264 0
-258 -262 -265 0
-258 -262 -266 0
-258 -262 -267 0
-258 -262 -268 0
-258 -262 -269 0
-258 -262 -270 0
-258 -262 -271 0
-258 -262 -272 0
-258 -263 -264 0
-258 -263 -265 0
-258 -263 -266 0
-258 -263 -267 0
-258 -263 -268 0
-258 -263 -269 0
-258 -263 -270 0
-258 -263 -271 0
-258 -263 -272 0
-258 -264 -265 0
-258 -264 -266 0
-258 -264 -267 0
-258 -264 -268 0
-258 -264 -269 0
-258 -264 -270 0
-258 -264 -271 0
-258 -264 -272 0
-258 -265 -266 0
-258 -265 -267 0
-258 -265 -268 0
-258 -265 -269 0
-258 -265 -270 0
-258 -265 -271 0
-258 -265 -272 0
-258 -266 -267 0
-258 -266 -268 0
-258 -266 -269 0
-258 -266 -270 0
-258 -266 -271 0
-258 -266 -272 0
-258 -267 -268 0
-258 -267 -269 0
-258 -267 -270 0
-258 -267 -271 0
-258 -267 -272 0
-258 -268 -269 0
-258 -268 -270 0
-258 -268 -271 0
-258 -268 -272 0
-258 -269 -270 0
-258 -269 -271 0
-258 -269 -272 0
-258 -270 -271 0
-258 -270 -272 0
-258 -271 -272 0
-259 -260 -261 0
-259 -260 -262 0
-259 -260 -263 0
-259 -260 -264 0
-259 -260 -265 0
-259 -260 -266 0
-259 -260 -267 0
-259 -260 -268 0
-259 -260 -269 0
-259 -260 -270 0
-259 -260 -271 0
-259 -260 -272 0
-259 -261 -262 0
-259 -261 -263 0
-259 -261 -264 0
-259 -261 -265 0
-259 -261 -266 0
-259 -261 -267 0
-259 -261 -268 0
-259 -261 -269 0
-259 -261 -270 0
-259 -261 -271 0
-259 -261 -272 0
-259 -262 -263 0
-259 -262 -264 0
-259 -262 -265 0
-259 -262 -266 0
-259 -262 -267 0
-259 -262 -268 0
-259 -262 -269 0
-259 -262 -270 0
-259 -262 -271 0
-259 -262 -272 0
-259 -263 -264 0
-259 -263 -265 0
-259 -263 -266 0
-259 -263 -267 0
-259 -263 -268 0
-259 -263 -269 0
-259 -263 -270 0
-259 -263 -271 0
-259 -263 -272 0
-259 -264 -265 0
-259 -264 -266 0
-259 -264 -267 0
-259 -264 -268 0
-259 -264 -269 0
-259 -264 -270 0
-259 -264 -271 0
-259 -264 -272 0
-259 -265 -266 0
-259 -265 -267 0
-259 -265 -268 0
-259 -265 -269 0
-259 -265 -270 0
-259 -265 -271 0
-259 -265 -272 0
-259 -266 -267 0
-259 -266 -268 0
-259 -266 -269 0
-259 -266 -270 0
-259 -266 -271 0
-259 -266 -272 0
-259 -267 -268 0
-259 -267 -269 0
-259 -267 -270 0
-259 -267 -271 0
-259 -267 -272 0
-259 -268 -269 0
-259 -268 -270 0
-259 -268 -271 0
-259 -268 -272 0
-259 -269 -270 0
-259 -269 -271 0
-259 -269 -272 0
-259 -270 -271 0
-259 -270 -272 0
-259 -271 -272 0
-260 -261 -262 0
-260 -261 -263 0
-260 -261 -264 0
-260 -261 -265 0
-260 -261 -266 0
-260 -261 -267 0
-260 -261 -268 0
-260 -261 -269 0
-260 -261 -270 0
-260 -261 -271 0
-260 -261 -272 0
-260 -262 -263 0
-260 -262 -264 0
-260 -262 -265 0
-260 -262 -266 0
-260 -262 -267 0
-260 -262 -268 0
-260 -262 -269 0
-260 -262 -270 0
-260 -262 -271 0
-260 -262 -272 0
-260 -263 -264 0
-260 -263 -265 0
-260 -263 -266 0
-260 -263 -267 0
-260 -263 -268 0
-260 -263 -269 0
-260 -263 -270 0
-260 -263 -271 0
-260 -263 -272 0
-260 -264 -265 0
-260 -264 -266 0
-260 -264 -267 0
-260 -264 -268 0
-260 -264 -269 0
-260 -264 -270 0
-260 -264 -271 0
-260 -264 -272 0
-260 -265 -266 0
-260 -265 -267 0
-260 -265 -268 0
-260 -265 -269 0
-260 -265 -270 0
-260 -265 -271 0
-260 -265 -272 0
-260 -266 -267 0
-260 -266 -268 0
-260 -266 -269 0
-260 -266 -270 0
-260 -266 -271 0
-260 -266 -272 0
-260 -267 -268 0
-260 -267 -269 0
-260 -267 -270 0
-260 -267 -271 0
-260 -267 -272 0
-260 -268 -269 0
-260 -268 -270 0
-260 -268 -271 0
-260 -268 -272 0
-260 -269 -270 0
-260 -269 -271 0
-260 -269 -272 0
-260 -270 -271 0
-260 -270 -272 0
-260 -271 -272 0
-261 -262 -263 0
-261 -262 -264 0
-261 -262 -265 0
-261 -262 -266 0
-261 -262 -267 0
-261 -262 -268 0
-261 -262 -269 0
-261 -262 -270 0
-261 -262 -271 0
-261 -262 -272 0
-261 -263 -264 0
-261 -263 -265 0
-261 -263 -266 0
-261 -263 -267 0
-261 -263 -268 0
-261 -263 -269 0
-261 -263 -270 0
-261 -263 -271 0
-261 -263 -272 0
-261 -264 -265 0
-261 -264 -266 0
-261 -264 -267 0
-261 -264 -268 0
-261 -264 -269 0
-261 -264 -270 0
-261 -264 -271 0
-261 -264 -272 0
-261 -265 -266 0
-261 -265 -267 0
-261 -265 -268 0
-261 -265 -269 0
-261 -265 -270 0
-261 -265 -271 0
-261 -265 -272 0
-261 -266 -267 0
-261 -266 -268 0
-261 -266 -269 0
-261 -266 -270 0
-261 -266 -271 0
-261 -266 -272 0
-261 -267 -268 0
-261 -267 -269 0
-261 -267 -270 0
-261 -267 -271 0
-261 -267 -272 0
-261 -268 -269 0
-261 -268 -270 0
-261 -268 -271 0
-261 -268 -272 0
-261 -269 -270 0
-261 -269 -271 0
-261 -269 -272 0
-261 -270 -271 0
-261 -270 -272 0
-261 -271 -272 0
-262 -263 -264 0
-262 -263 -265 0
-262 -263 -266 0
-262 -263 -267 0
-262 -263 -268 0
-262 -263 -269 0
-262 -263 -270 0
-262 -263 -271 0
-262 -263 -272 0
-262 -264 -265 0
-262 -264 -266 0
-262 -264 -267 0
-262 -264 -268 0
-262 -264 -269 0
-262 -264 -270 0
-262 -264 -271 0
-262 -264 -272 0
-262 -265 -266 0
-262 -265 -267 0
-262 -265 -268 0
-262 -265 -269 0
-262 -265 -270 0
-262 -265 -271 0
-262 -265 -272 0
-262 -266 -267 0
-262 -266 -268 0
-262 -266 -269 0
-262 -266 -270 0
-262 -266 -271 0
-262 -266 -272 0
-262 -267 -268 0
-262 -267 -269 0
-262 -267 -270 0
-262 -267 -271 0
-262 -267 -272 0
-262 -268 -269 0
-262 -268 -270 0
-262 -268 -271 0
-262 -268 -272 0
-262 -269 -270 0
-262 -269 -271 0
-262 -269 -272 0
-262 -270 -271 0
-262 -270 -272 0
-262 -271 -272 0
-263 -264 -265 0
-263 -264 -266 0
-263 -264 -267 0
-263 -264 -268 0
-263 -264 -269 0
-263 -264 -270 0
-263 -264 -271 0
-263 -264 -272 0
-263 -265 -266 0
-263 -265 -267 0
-263 -265 -268 0
-263 -265 -269 0
-263 -265 -270 0
-263 -265 -271 0
-263 -265 -272 0
-263 -266 -267 0
-263 -266 -268 0
-263 -266 -269 0
-263 -266 -270 0
-263 -266 -271 0
-263 -266 -272 0
-263 -267 -268 0
-263 -267 -269 0
-263 -267 -270 0
-263 -267 -271 0
-263 -267 -272 0
-263 -268 -269 0
-263 -268 -270 0
-263 -268 -271 0
-263 -268 -272 0
-263 -269 -270 0
-263 -269 -271 0
-263 -269 -272 0
-263 -270 -271 0
-263 -270 -272 0
-263 -271 -272 0
-264 -265 -266 0
-264 -265 -267 0
-264 -265 -268 0
-264 -265 -269 0
-264 -265 -270 0
-264 -265 -271 0
-264 -265 -272 0
-264 -266 -267 0
-264 -266 -268 0
-264 -266 -269 0
-264 -266 -270 0
-264 -266 -271 0
-264 -266 -272 0
-264 -267 -268 0
-264 -267 -269 0
-264 -267 -270 0
-264 -267 -271 0
-264 -267 -272 0
-264 -268 -269 0
-264 -268 -270 0
-264 -268 -271 0
-264 -268 -272 0
-264 -269 -270 0
-264 -269 -271 0
-264 -269 -272 0
-264 -270 -271 0
-264 -270 -272 0
-264 -271 -272 0
-265 -266 -267 0
-265 -266 -268 0
-265 -266 -269 0
-265 -266 -270 0
-265 -266 -271 0
-265 -266 -272 0
-265 -267 -268 0
-265 -267 -269 0
-265 -267 -270 0
-265 -267 -271 0
-265 -267 -272 0
-265 -268 -269 0
-265 -268 -270 0
-265 -268 -271 0
-265 -268 -272 0
-265 -269 -270 0
-265 -269 -271 0
-265 -269 -272 0
-265 -270 -271 0
-265 -270 -272 0
-265 -271 -272 0
-266 -267 -268 0
-266 -267 -269 0
-266 -267 -270 0
-266 -267 -271 0
-266 -267 -272 0
-266 -268 -269 0
-266 -268 -270 0
-266 -268 -271 0
-266 -268 -272 0
-266 -269 -270 0
-266 -269 -271 0
-266 -269 -272 0
-266 -270 -271 0
-266 -270 -272 0
-266 -271 -272 0
-267 -268 -269 0
-267 -268 -270 0
-267 -268 -271 0
-267 -268 -272 0
-267 -269 -270 0
-267 -269 -271 0
-267 -269 -272 0
-267 -270 -271 0
-267 -270 -272 0
-267 -271 -272 0
-268 -269 -270 0
-268 -269 -271 0
-268 -269 -272 0
-268 -270 -271 0
-268 -270 -272 0
-268 -271 -272 0
-269 -270 -271 0
-269 -270 -272 0
-269 -271 -272 0
-270 -271 -272 0
-257 258 259 260 261 262 263 264 265 266 267 268 269 270 271 272 0
-258 257 259 260 261 262 263 264 265 266 267 268 269 270 271 272 0
-259 257 258 260 261 262 263 264 265 266 267 268 269 270 271 272 0
-260 257 258 259 261 262 263 264 265 266 267 268 269 270 271 272 0
-261 257 258 259 260 262 263 264 265 266 267 268 269 270 271 272 0
-262 257 258 259 260 261 263 264 265 266 267 268 269 270 271 272 0
-263 257 258 259 260 261 262 264 265 266 267 268 269 270 271 272 0
-264 257 258 259 260 261 262 263 265 266 267 268 269 270 271 272 0
-265 257 258 259 260 261 262 263 264 266 267 268 269 270 271 272 0
-266 257 258 259 260 261 262 263 264 265 267 268 269 270 271 272 0
-267 257 258 259 260 261 262 263 264 265 266 268 269 270 271 272 0
-268 257 258 259 260 261 262 263 264 265 266 267 269 270 271 272 0
-269 257 258 259 260 261 262 263 264 265 266 267 268 270 271 272 0
-270 257 258 259 260 261 262 263 264 265 266 267 268 269 271 272 0
-271 257 258 259 260 261 262 263 264 265 266 267 268 269 270 272 0
-272 257 258 259 260 261 262 263 264 265 266 267 268 269 270 271 0
-137 306 0
-137 307 0
-138 306 0
-138 308 0
-139 306 0
-139 310 0
-140 306 0
-140 314 0
-141 306 0
-141 321 0
-142 306 0
-142 323 0
-143 306 0
-143 324 0
-144 306 0
-144 326 0
-145 306 0
-145 330 0
-146 306 0
-146 337 0
-147 307 0
-147 309 0
-148 307 0
-148 311 0
-149 307 0
-149 315 0
-150 307 0
-150 320 0
-151 307 0
-151 322 0
-152 307 0
-152 325 0
-153 307 0
-153 327 0
-154 307 0
-154 331 0
-155 307 0
-155 336 0
-156 308 0
-156 309 0
-157 308 0
-157 312 0
-158 308 0
-158 316 0
-159 308 0
-159 319 0
-160 308 0
-160 322 0
-161 308 0
-161 325 0
-162 308 0
-162 328 0
-163 308 0
-163 332 0
-164 308 0
-164 335 0
-165 309 0
-165 313 0
-166 309 0
-166 317 0
-167 309 0
-167 318 0
-168 309 0
-168 323 0
-169 309 0
-169 324 0
-170 309 0
-170 329 0
-171 309 0
-171 333 0
-172 309 0
-172 334 0
-173 310 0
-173 311 0
-174 310 0
-174 312 0
-175 310 0
-175 317 0
-176 310 0
-176 318 0
-177 310 0
-177 322 0
-178 310 0
-178 327 0
-179 310 0
-179 328 0
-180 310 0
-180 333 0
-181 310 0
-181 334 0
-182 311 0
-182 313 0
-183 311 0
-183 316 0
-184 311 0
-184 319 0
-185 311 0
-185 323 0
-186 311 0
-186 326 0
-187 311 0
-187 329 0
-188 311 0
-188 332 0
-189 311 0
-189 335 0
-190 312 0
-190 313 0
-191 312 0
-191 315 0
-192 312 0
-192 320 0
-193 312 0
-193 324 0
-194 312 0
-194 326 0
-195 312 0
-195 329 0
-196 312 0
-196 331 0
-197 312 0
-197 336 0
-198 313 0
-198 314 0
-199 313 0
-199 321 0
-200 313 0
-200 325 0
-201 313 0
-201 327 0
-202 313 0
-202 328 0
-203 313 0
-203 330 0
-204 313 0
-204 337 0
-205 314 0
-205 315 0
-206 314 0
-206 316 0
-207 314 0
-207 318 0
-208 314 0
-208 322 0
-209 314 0
-209 329 0
-210 314 0
-210 331 0
-211 314 0
-211 332 0
-212 314 0
-212 334 0
-213 315 0
-213 317 0
-214 315 0
-214 319 0
-215 315 0
-215 323 0
-216 315 0
-216 328 0
-217 315 0
-217 330 0
-218 315 0
-218 333 0
-219 315 0
-219 335 0
-220 316 0
-220 317 0
-221 316 0
-221 320 0
-222 316 0
-222 324 0
-223 316 0
-223 327 0
-224 316 0
-224 330 0
-225 316 0
-225 333 0
-226 316 0
-226 336 0
-227 317 0
-227 321 0
-228 317 0
-228 325 0
-229 317 0
-229 326 0
-230 317 0
-230 331 0
-231 317 0
-231 332 0
-232 317 0
-232 337 0
-233 318 0
-233 319 0
-234 318 0
-234 320 0
-235 318 0
-235 325 0
-236 318 0
-236 326 0
-237 318 0
-237 330 0
-238 318 0
-238 335 0
-239 318 0
-239 336 0
-240 319 0
-240 321 0
-241 319 0
-241 324 0
-242 319 0
-242 327 0
-243 319 0
-243 331 0
-244 319 0
-244 334 0
-245 319 0
-245 337 0
-246 320 0
-246 321 0
-247 320 0
-247 323 0
-248 320 0
-248 328 0
-249 320 0
-249 332 0
-250 320 0
-250 334 0
-251 320 0
-251 337 0
-252 321 0
-252 322 0
-253 321 0
-253 329 0
-254 321 0
-254 333 0
-255 321 0
-255 335 0
-256 321 0
-256 336 0
-257 322 0
-257 338 0
-258 323 0
-258 338 0
-259 324 0
-259 338 0
-260 325 0
-260 338 0
-261 326 0
-261 338 0
-262 327 0
-262 338 0
-263 328 0
-263 338 0
-264 329 0
-264 338 0
-265 330 0
-265 338 0
-266 331 0
-266 338 0
-267 332 0
-267 338 0
-268 333 0
-268 338 0
-269 334 0
-269 338 0
-270 335 0
-270 338 0
-271 336 0
-271 338 0
-272 337 0
-272 338 0
-475 137 0
475 -137 0
-476 475 138 0
-476 -475 -138 0
476 -475 138 0
476 475 -138 0
-477 476 139 0
-477 -476 -139 0
477 -476 139 0
477 476 -139 0
-478 477 140 0
-478 -477 -140 0
478 -477 140 0
478 477 -140 0
-479 478 141 0
-479 -478 -141 0
479 -478 141 0
479 478 -141 0
-480 479 142 0
-480 -479 -142 0
480 -479 142 0
480 479 -142 0
-481 480 143 0
-481 -480 -143 0
481 -480 143 0
481 480 -143 0
-482 481 144 0
-482 -481 -144 0
482 -481 144 0
482 481 -144 0
-483 482 145 0
-483 -482 -145 0
483 -482 145 0
483 482 -145 0
-484 483 146 0
-484 -483 -146 0
484 -483 146 0
484 483 -146 0
-485 484 147 0
-485 -484 -147 0
485 -484 147 0
485 484 -147 0
-486 485 148 0
-486 -485 -148 0
486 -485 148 0
486 485 -148 0
-487 486 149 0
-487 -486 -149 0
487 -486 149 0
487 486 -149 0
-488 487 150 0
-488 -487 -150 0
488 -487 150 0
488 487 -150 0
-489 488 151 0
-489 -488 -151 0
489 -488 151 0
489 488 -151 0
-490 489 152 0
-490 -489 -152 0
490 -489 152 0
490 489 -152 0
-491 490 153 0
-491 -490 -153 0
491 -490 153 0
491 490 -153 0
-492 491 154 0
-492 -491 -154 0
492 -491 154 0
492 491 -154 0
-493 492 155 0
-493 -492 -155 0
493 -492 155 0
493 492 -155 0
-494 493 156 0
-494 -493 -156 0
494 -493 156 0
494 493 -156 0
-495 494 157 0
-495 -494 -157 0
495 -494 157 0
495 494 -157 0
-496 495 158 0
-496 -495 -158 0
496 -495 158 0
496 495 -158 0
-497 496 159 0
-497 -496 -159 0
497 -496 159 0
497 496 -159 0
-498 497 160 0
-498 -497 -160 0
498 -497 160 0
498 497 -160 0
-499 498 161 0
-499 -498 -161 0
499 -498 161 0
499 498 -161 0
-500 499 162 0
-500 -499 -162 0
500 -499 162 0
500 499 -162 0
-501 500 163 0
-501 -500 -163 0
501 -500 163 0
501 500 -163 0
-502 501 164 0
-502 -501 -164 0
502 -501 164 0
502 501 -164 0
-503 502 165 0
-503 -502 -165 0
503 -502 165 0
503 502 -165 0
-504 503 166 0
-504 -503 -166 0
504 -503 166 0
504 503 -166 0
-505 504 167 0
-505 -504 -167 0
505 -504 167 0
505 504 -167 0
-506 505 168 0
-506 -505 -168 0
506 -505 168 0
506 505 -168 0
-507 506 169 0
-507 -506 -169 0
507 -506 169 0
507 506 -169 0
-508 507 170 0
-508 -507 -170 0
508 -507 170 0
508 507 -170 0
-509 508 171 0
-509 -508 -171 0
509 -508 171 0
509 508 -171 0
-510 509 172 0
-510 -509 -172 0
510 -509 172 0
510 509 -172 0
-511 510 173 0
-511 -510 -173 0
511 -510 173 0
511 510 -173 0
-512 511 174 0
-512 -511 -174 0
512 -511 174 0
512 511 -174 0
-513 512 175 0
-513 -512 -175 0
513 -512 175 0
513 512 -175 0
-514 513 176 0
-514 -513 -176 0
514 -513 176 0
514 513 -176 0
-515 514 177 0
-515 -514 -177 0
515 -514 177 0
515 514 -177 0
-516 515 178 0
-516 -515 -178 0
516 -515 178 0
516 515 -178 0
-517 516 179 0
-517 -516 -179 0
517 -516 179 0
517 516 -179 0
-518 517 180 0
-518 -517 -180 0
518 -517 180 0
518 517 -180 0
-519 518 181 0
-519 -518 -181 0
519 -518 181 0
519 518 -181 0
-520 519 182 0
-520 -519 -182 0
520 -519 182 0
520 519 -182 0
-521 520 183 0
-521 -520 -183 0
521 -520 183 0
521 520 -183 0
-522 521 184 0
-522 -521 -184 0
522 -521 184 0
522 521 -184 0
-523 522 185 0
-523 -522 -185 0
523 -522 185 0
523 522 -185 0
-524 523 186 0
-524 -523 -186 0
524 -523 186 0
524 523 -186 0
-525 524 187 0
-525 -524 -187 0
525 -524 187 0
525 524 -187 0
-526 525 188 0
-526 -525 -188 0
526 -525 188 0
526 525 -188 0
-527 526 189 0
-527 -526 -189 0
527 -526 189 0
527 526 -189 0
-528 527 190 0
-528 -527 -190 0
528 -527 190 0
528 527 -190 0
-529 528 191 0
-529 -528 -191 0
529 -528 191 0
529 528 -191 0
-530 529 192 0
-530 -529 -192 0
530 -529 192 0
530 529 -192 0
-531 530 193 0
-531 -530 -193 0
531 -530 193 0
531 530 -193 0
-532 531 194 0
-532 -531 -194 0
532 -531 194 0
532 531 -194 0
-533 532 195 0
-533 -532 -195 0
533 -532 195 0
533 532 -195 0
-534 533 196 0
-534 -533 -196 0
534 -533 196 0
534 533 -196 0
-535 534 197 0
-535 -534 -197 0
535 -534 197 0
535 534 -197 0
-536 535 198 0
-536 -535 -198 0
536 -535 198 0
536 535 -198 0
-537 536 199 0
-537 -536 -199 0
537 -536 199 0
537 536 -199 0
-538 537 200 0
-538 -537 -200 0
538 -537 200 0
538 537 -200 0
-539 538 201 0
-539 -538 -201 0
539 -538 201 0
539 538 -201 0
-540 539 202 0
-540 -539 -202 0
540 -539 202 0
540 539 -202 0
-541 540 203 0
-541 -540 -203 0
541 -540 203 0
541 540 -203 0
-542 541 204 0
-542 -541 -204 0
542 -541 204 0
542 541 -204 0
-543 542 205 0
-543 -542 -205 0
543 -542 205 0
543 542 -205 0
-544 543 206 0
-544 -543 -206 0
544 -543 206 0
544 543 -206 0
-545 544 207 0
-545 -544 -207 0
545 -544 207 0
545 544 -207 0
-546 545 208 0
-546 -545 -208 0
546 -545 208 0
546 545 -208 0
-547 546 209 0
-547 -546 -209 0
547 -546 209 0
547 546 -209 0
-548 547 210 0
-548 -547 -210 0
548 -547 210 0
548 547 -210 0
-549 548 211 0
-549 -548 -211 0
549 -548 211 0
549 548 -211 0
-550 549 212 0
-550 -549 -212 0
550 -549 212 0
550 549 -212 0
-551 550 213 0
-551 -550 -213 0
551 -550 213 0
551 550 -213 0
-552 551 214 0
-552 -551 -214 0
552 -551 214 0
552 551 -214 0
-553 552 215 0
-553 -552 -215 0
553 -552 215 0
553 552 -215 0
-554 553 216 0
-554 -553 -216 0
554 -553 216 0
554 553 -216 0
-555 554 217 0
-555 -554 -217 0
555 -554 217 0
555 554 -217 0
-556 555 218 0
-556 -555 -218 0
556 -555 218 0
556 555 -218 0
-557 556 219 0
-557 -556 -219 0
557 -556 219 0
557 556 -219 0
-558 557 220 0
-558 -557 -220 0
558 -557 220 0
558 557 -220 0
-559 558 221 0
-559 -558 -221 0
559 -558 221 0
559 558 -221 0
-560 559 222 0
-560 -559 -222 0
560 -559 222 0
560 559 -222 0
-561 560 223 0
-561 -560 -223 0
561 -560 223 0
561 560 -223 0
-562 561 224 0
-562 -561 -224 0
562 -561 224 0
562 561 -224 0
-563 562 225 0
-563 -562 -225 0
563 -562 225 0
563 562 -225 0
-564 563 226 0
-564 -563 -226 0
564 -563 226 0
564 563 -226 0
-565 564 227 0
-565 -564 -227 0
565 -564 227 0
565 564 -227 0
-566 565 228 0
-566 -565 -228 0
566 -565 228 0
566 565 -228 0
-567 566 229 0
-567 -566 -229 0
567 -566 229 0
567 566 -229 0
-568 567 230 0
-568 -567 -230 0
568 -567 230 0
568 567 -230 0
-569 568 231 0
-569 -568 -231 0
569 -568 231 0
569 568 -231 0
-570 569 232 0
-570 -569 -232 0
570 -569 232 0
570 569 -232 0
-571 570 233 0
-571 -570 -233 0
571 -570 233 0
571 570 -233 0
-572 571 234 0
-572 -571 -234 0
572 -571 234 0
572 571 -234 0
-573 572 235 0
-573 -572 -235 0
573 -572 235 0
573 572 -235 0
-574 573 236 0
-574 -573 -236 0
574 -573 236 0
574 573 -236 0
-575 574 237 0
-575 -574 -237 0
575 -574 237 0
575 574 -237 0
-576 575 238 0
-576 -575 -238 0
576 -575 238 0
576 575 -238 0
-577 576 239 0
-577 -576 -239 0
577 -576 239 0
577 576 -239 0
-578 577 240 0
-578 -577 -240 0
578 -577 240 0
578 577 -240 0
-579 578 241 0
-579 -578 -241 0
579 -578 241 0
579 578 -241 0
-580 579 242 0
-580 -579 -242 0
580 -579 242 0
580 579 -242 0
-581 580 243 0
-581 -580 -243 0
581 -580 243 0
581 580 -243 0
-582 581 244 0
-582 -581 -244 0
582 -581 244 0
582 581 -244 0
-583 582 245 0
-583 -582 -245 0
583 -582 245 0
583 582 -245 0
-584 583 246 0
-584 -583 -246 0
584 -583 246 0
584 583 -246 0
-585 584 247 0
-585 -584 -247 0
585 -584 247 0
585 584 -247 0
-586 585 248 0
-586 -585 -248 0
586 -585 248 0
586 585 -248 0
-587 586 249 0
-587 -586 -249 0
587 -586 249 0
587 586 -249 0
-588 587 250 0
-588 -587 -250 0
588 -587 250 0
588 587 -250 0
-589 588 251 0
-589 -588 -251 0
589 -588 251 0
589 588 -251 0
-590 589 252 0
-590 -589 -252 0
590 -589 252 0
590 589 -252 0
-591 590 253 0
-591 -590 -253 0
591 -590 253 0
591 590 -253 0
-592 591 254 0
-592 -591 -254 0
592 -591 254 0
592 591 -254 0
-593 592 255 0
-593 -592 -255 0
593 -592 255 0
593 592 -255 0
-594 593 256 0
-594 -593 -256 0
594 -593 256 0
594 593 -256 0
-595 594 257 0
-595 -594 -257 0
595 -594 257 0
595 594 -257 0
-596 595 258 0
-596 -595 -258 0
596 -595 258 0
596 595 -258 0
-597 596 259 0
-597 -596 -259 0
597 -596 259 0
597 596 -259 0
-598 597 260 0
-598 -597 -260 0
598 -597 260 0
598 597 -260 0
-599 598 261 0
-599 -598 -261 0
599 -598 261 0
599 598 -261 0
-600 599 262 0
-600 -599 -262 0
600 -599 262 0
600 599 -262 0
-601 600 263 0
-601 -600 -263 0
601 -600 263 0
601 600 -263 0
-602 601 264 0
-602 -601 -264 0
602 -601 264 0
602 601 -264 0
-603 602 265 0
-603 -602 -265 0
603 -602 265 0
603 602 -265 0
-604 603 266 0
-604 -603 -266 0
604 -603 266 0
604 603 -266 0
-605 604 267 0
-605 -604 -267 0
605 -604 267 0
605 604 -267 0
-606 605 268 0
-606 -605 -268 0
606 -605 268 0
606 605 -268 0
-607 606 269 0
-607 -606 -269 0
607 -606 269 0
607 606 -269 0
-608 607 270 0
-608 -607 -270 0
608 -607 270 0
608 607 -270 0
-609 608 271 0
-609 -608 -271 0
609 -608 271 0
609 608 -271 0
-610 609 272 0
-610 -609 -272 0
610 -609 272 0
610 609 -272 0
610 0
-273 -306 0
-274 -307 0
-275 -308 0
-276 -309 0
-277 -310 0
-278 -311 0
-279 -312 0
-280 -313 0
-281 -314 0
-282 -315 0
-283 -316 0
-284 -317 0
-285 -318 0
-286 -319 0
-287 -320 0
-288 -321 0
-289 -322 0
-290 -323 0
-291 -324 0
-292 -325 0
-293 -326 0
-294 -327 0
-295 -328 0
-296 -329 0
-297 -330 0
-298 -331 0
-299 -332 0
-300 -333 0
-301 -334 0
-302 -335 0
-303 -336 0
-304 -337 0
-305 -338 0
-273 -307 0
-274 -306 0
-273 -308 0
-275 -306 0
-273 -310 0
-277 -306 0
-273 -314 0
-281 -306 0
-273 -321 0
-288 -306 0
-273 -323 0
-290 -306 0
-273 -324 0
-291 -306 0
-273 -326 0
-293 -306 0
-273 -330 0
-297 -306 0
-273 -337 0
-304 -306 0
-274 -309 0
-276 -307 0
-274 -311 0
-278 -307 0
-274 -315 0
-282 -307 0
-274 -320 0
-287 -307 0
-274 -322 0
-289 -307 0
-274 -325 0
-292 -307 0
-274 -327 0
-294 -307 0
-274 -331 0
-298 -307 0
-274 -336 0
-303 -307 0
-275 -309 0
-276 -308 0
-275 -312 0
-279 -308 0
-275 -316 0
-283 -308 0
-275 -319 0
-286 -308 0
-275 -322 0
-289 -308 0
-275 -325 0
-292 -308 0
-275 -328 0
-295 -308 0
-275 -332 0
-299 -308 0
-275 -335 0
-302 -308 0
-276 -313 0
-280 -309 0
-276 -317 0
-284 -309 0
-276 -318 0
-285 -309 0
-276 -323 0
-290 -309 0
-276 -324 0
-291 -309 0
-276 -329 0
-296 -309 0
-276 -333 0
-300 -309 0
-276 -334 0
-301 -309 0
-277 -311 0
-278 -310 0
-277 -312 0
-279 -310 0
-277 -317 0
-284 -310 0
-277 -318 0
-285 -310 0
-277 -322 0
-289 -310 0
-277 -327 0
-294 -310 0
-277 -328 0
-295 -310 0
-277 -333 0
-300 -310 0
-277 -334 0
-301 -310 0
-278 -313 0
-280 -311 0
-278 -316 0
-283 -311 0
-278 -319 0
-286 -311 0
-278 -323 0
-290 -311 0
-278 -326 0
-293 -311 0
-278 -329 0
-296 -311 0
-278 -332 0
-299 -311 0
-278 -335 0
-302 -311 0
-279 -313 0
-280 -312 0
-279 -315 0
-282 -312 0
-279 -320 0
-287 -312 0
-279 -324 0
-291 -312 0
-279 -326 0
-293 -312 0
-279 -329 0
-296 -312 0
-279 -331 0
-298 -312 0
-279 -336 0
-303 -312 0
-280 -314 0
-281 -313 0
-280 -321 0
-288 -313 0
-280 -325 0
-292 -313 0
-280 -327 0
-294 -313 0
-280 -328 0
-295 -313 0
-280 -330 0
-297 -313 0
-280 -337 0
-304 -313 0
-281 -315 0
-282 -314 0
-281 -316 0
-283 -314 0
-281 -318 0
-285 -314 0
-281 -322 0
-289 -314 0
-281 -329 0
-296 -314 0
-281 -331 0
-298 -314 0
-281 -332 0
-299 -314 0
-281 -334 0
-301 -314 0
-282 -317 0
-284 -315 0
-282 -319 0
-286 -315 0
-282 -323 0
-290 -315 0
-282 -328 0
-295 -315 0
-282 -330 0
-297 -315 0
-282 -333 0
-300 -315 0
-282 -335 0
-302 -315 0
-283 -317 0
-284 -316 0
-283 -320 0
-287 -316 0
-283 -324 0
-291 -316 0
-283 -327 0
-294 -316 0
-283 -330 0
-297 -316 0
-283 -333 0
-300 -316 0
-283 -336 0
-303 -316 0
-284 -321 0
-288 -317 0
-284 -325 0
-292 -317 0
-284 -326 0
-293 -317 0
-284 -331 0
-298 -317 0
-284 -332 0
-299 -317 0
-284 -337 0
-304 -317 0
-285 -319 0
-286 -318 0
-285 -320 0
-287 -318 0
-285 -325 0
-292 -318 0
-285 -326 0
-293 -318 0
-285 -330 0
-297 -318 0
-285 -335 0
-302 -318 0
-285 -336 0
-303 -318 0
-286 -321 0
-288 -319 0
-286 -324 0
-291 -319 0
-286 -327 0
-294 -319 0
-286 -331 0
-298 -319 0
-286 -334 0
-301 -319 0
-286 -337 0
-304 -319 0
-287 -321 0
-288 -320 0
-287 -323 0
-290 -320 0
-287 -328 0
-295 -320 0
-287 -332 0
-299 -320 0
-287 -334 0
-301 -320 0
-287 -337 0
-304 -320 0
-288 -322 0
-289 -321 0
-288 -329 0
-296 -321 0
-288 -333 0
-300 -321 0
-288 -335 0
-302 -321 0
-288 -336 0
-303 -321 0
-289 -338 0
-305 -322 0
-290 -338 0
-305 -323 0
-291 -338 0
-305 -324 0
-292 -338 0
-305 -325 0
-293 -338 0
-305 -326 0
-294 -338 0
-305 -327 0
-295 -338 0
-305 -328 0
-296 -338 0
-305 -329 0
-297 -338 0
-305 -330 0
-298 -338 0
-305 -331 0
-299 -338 0
-305 -332 0
-300 -338 0
-305 -333 0
-301 -338 0
-305 -334 0
-302 -338 0
-305 -335 0
-303 -338 0
-305 -336 0
-304 -338 0
-305 -337 0
