p cnf 132 579
1 2 3 4 0
5 6 7 8 0
9 10 11 12 0
13 14 15 16 0
17 18 19 20 0
21 22 23 24 0
25 26 27 28 0
29 30 31 32 0
33 34 35 36 0
37 38 39 40 0
41 42 43 44 0
45 46 47 48 0
49 50 51 52 0
53 54 55 56 0
57 58 59 60 0
61 62 63 64 0
65 66 67 68 0
69 70 71 72 0
73 74 75 76 0
77 78 79 80 0
81 82 83 84 0
85 86 87 88 0
89 90 91 92 0
93 94 95 96 0
97 98 99 100 0
101 102 103 104 0
105 106 107 108 0
109 110 111 112 0
113 114 115 116 0
117 118 119 120 0
121 122 123 124 0
125 126 127 128 0
129 130 131 132 0
-1 -5 0
-2 -6 0
-3 -7 0
-4 -8 0
-1 -9 0
-2 -10 0
-3 -11 0
-4 -12 0
-1 -17 0
-2 -18 0
-3 -19 0
-4 -20 0
-1 -33 0
-2 -34 0
-3 -35 0
-4 -36 0
-1 -61 0
-2 -62 0
-3 -63 0
-4 -64 0
-1 -69 0
-2 -70 0
-3 -71 0
-4 -72 0
-1 -73 0
-2 -74 0
-3 -75 0
-4 -76 0
-1 -81 0
-2 -82 0
-3 -83 0
-4 -84 0
-1 -97 0
-2 -98 0
-3 -99 0
-4 -100 0
-1 -125 0
-2 -126 0
-3 -127 0
-4 -128 0
-5 -13 0
-6 -14 0
-7 -15 0
-8 -16 0
-5 -21 0
-6 -22 0
-7 -23 0
-8 -24 0
-5 -37 0
-6 -38 0
-7 -39 0
-8 -40 0
-5 -57 0
-6 -58 0
-7 -59 0
-8 -60 0
-5 -65 0
-6 -66 0
-7 -67 0
-8 -68 0
-5 -77 0
-6 -78 0
-7 -79 0
-8 -80 0
-5 -85 0
-6 -86 0
-7 -87 0
-8 -88 0
-5 -101 0
-6 -102 0
-7 -103 0
-8 -104 0
-5 -121 0
-6 -122 0
-7 -123 0
-8 -124 0
-9 -13 0
-10 -14 0
-11 -15 0
-12 -16 0
-9 -25 0
-10 -26 0
-11 -27 0
-12 -28 0
-9 -41 0
-10 -42 0
-11 -43 0
-12 -44 0
-9 -53 0
-10 -54 0
-11 -55 0
-12 -56 0
-9 -65 0
-10 -66 0
-11 -67 0
-12 -68 0
-9 -77 0
-10 -78 0
-11 -79 0
-12 -80 0
-9 -89 0
-10 -90 0
-11 -91 0
-12 -92 0
-9 -105 0
-10 -106 0
-11 -107 0
-12 -108 0
-9 -117 0
-10 -118 0
-11 -119 0
-12 -120 0
-13 -29 0
-14 -30 0
-15 -31 0
-16 -32 0
-13 -45 0
-14 -46 0
-15 -47 0
-16 -48 0
-13 -49 0
-14 -50 0
-15 -51 0
-16 -52 0
-13 -69 0
-14 -70 0
-15 -71 0
-16 -72 0
-13 -73 0
-14 -74 0
-15 -75 0
-16 -76 0
-13 -93 0
-14 -94 0
-15 -95 0
-16 -96 0
-13 -109 0
-14 -110 0
-15 -111 0
-16 -112 0
-13 -113 0
-14 -114 0
-15 -115 0
-16 -116 0
-17 -21 0
-18 -22 0
-19 -23 0
-20 -24 0
-17 -25 0
-18 -26 0
-19 -27 0
-20 -28 0
-17 -45 0
-18 -46 0
-19 -47 0
-20 -48 0
-17 -49 0
-18 -50 0
-19 -51 0
-20 -52 0
-17 -65 0
-18 -66 0
-19 -67 0
-20 -68 0
-17 -85 0
-18 -86 0
-19 -87 0
-20 -88 0
-17 -89 0
-18 -90 0
-19 -91 0
-20 -92 0
-17 -109 0
-18 -110 0
-19 -111 0
-20 -112 0
-17 -113 0
-18 -114 0
-19 -115 0
-20 -116 0
-21 -29 0
-22 -30 0
-23 -31 0
-24 -32 0
-21 -41 0
-22 -42 0
-23 -43 0
-24 -44 0
-21 -53 0
-22 -54 0
-23 -55 0
-24 -56 0
-21 -69 0
-22 -70 0
-23 -71 0
-24 -72 0
-21 -81 0
-22 -82 0
-23 -83 0
-24 -84 0
-21 -93 0
-22 -94 0
-23 -95 0
-24 -96 0
-21 -105 0
-22 -106 0
-23 -107 0
-24 -108 0
-21 -117 0
-22 -118 0
-23 -119 0
-24 -120 0
-25 -29 0
-26 -30 0
-27 -31 0
-28 -32 0
-25 -37 0
-26 -38 0
-27 -39 0
-28 -40 0
-25 -57 0
-26 -58 0
-27 -59 0
-28 -60 0
-25 -73 0
-26 -74 0
-27 -75 0
-28 -76 0
-25 -81 0
-26 -82 0
-27 -83 0
-28 -84 0
-25 -93 0
-26 -94 0
-27 -95 0
-28 -96 0
-25 -101 0
-26 -102 0
-27 -103 0
-28 -104 0
-25 -121 0
-26 -122 0
-27 -123 0
-28 -124 0
-29 -33 0
-30 -34 0
-31 -35 0
-32 -36 0
-29 -61 0
-30 -62 0
-31 -63 0
-32 -64 0
-29 -77 0
-30 -78 0
-31 -79 0
-32 -80 0
-29 -85 0
-30 -86 0
-31 -87 0
-32 -88 0
-29 -89 0
-30 -90 0
-31 -91 0
-32 -92 0
-29 -97 0
-30 -98 0
-31 -99 0
-32 -100 0
-29 -125 0
-30 -126 0
-31 -127 0
-32 -128 0
-33 -37 0
-34 -38 0
-35 -39 0
-36 -40 0
-33 -41 0
-34 -42 0
-35 -43 0
-36 -44 0
-33 -49 0
-34 -50 0
-35 -51 0
-36 -52 0
-33 -65 0
-34 -66 0
-35 -67 0
-36 -68 0
-33 -93 0
-34 -94 0
-35 -95 0
-36 -96 0
-33 -101 0
-34 -102 0
-35 -103 0
-36 -104 0
-33 -105 0
-34 -106 0
-35 -107 0
-36 -108 0
-33 -113 0
-34 -114 0
-35 -115 0
-36 -116 0
-37 -45 0
-38 -46 0
-39 -47 0
-40 -48 0
-37 -53 0
-38 -54 0
-39 -55 0
-40 -56 0
-37 -69 0
-38 -70 0
-39 -71 0
-40 -72 0
-37 -89 0
-38 -90 0
-39 -91 0
-40 -92 0
-37 -97 0
-38 -98 0
-39 -99 0
-40 -100 0
-37 -109 0
-38 -110 0
-39 -111 0
-40 -112 0
-37 -117 0
-38 -118 0
-39 -119 0
-40 -120 0
-41 -45 0
-42 -46 0
-43 -47 0
-44 -48 0
-41 -57 0
-42 -58 0
-43 -59 0
-44 -60 0
-41 -73 0
-42 -74 0
-43 -75 0
-44 -76 0
-41 -85 0
-42 -86 0
-43 -87 0
-44 -88 0
-41 -97 0
-42 -98 0
-43 -99 0
-44 -100 0
-41 -109 0
-42 -110 0
-43 -111 0
-44 -112 0
-41 -121 0
-42 -122 0
-43 -123 0
-44 -124 0
-45 -61 0
-46 -62 0
-47 -63 0
-48 -64 0
-45 -77 0
-46 -78 0
-47 -79 0
-48 -80 0
-45 -81 0
-46 -82 0
-47 -83 0
-48 -84 0
-45 -101 0
-46 -102 0
-47 -103 0
-48 -104 0
-45 -105 0
-46 -106 0
-47 -107 0
-48 -108 0
-45 -125 0
-46 -126 0
-47 -127 0
-48 -128 0
-49 -53 0
-50 -54 0
-51 -55 0
-52 -56 0
-49 -57 0
-50 -58 0
-51 -59 0
-52 -60 0
-49 -77 0
-50 -78 0
-51 -79 0
-52 -80 0
-49 -81 0
-50 -82 0
-51 -83 0
-52 -84 0
-49 -97 0
-50 -98 0
-51 -99 0
-52 -100 0
-49 -117 0
-50 -118 0
-51 -119 0
-52 -120 0
-49 -121 0
-50 -122 0
-51 -123 0
-52 -124 0
-53 -61 0
-54 -62 0
-55 -63 0
-56 -64 0
-53 -73 0
-54 -74 0
-55 -75 0
-56 -76 0
-53 -85 0
-54 -86 0
-55 -87 0
-56 -88 0
-53 -101 0
-54 -102 0
-55 -103 0
-56 -104 0
-53 -113 0
-54 -114 0
-55 -115 0
-56 -116 0
-53 -125 0
-54 -126 0
-55 -127 0
-56 -128 0
-57 -61 0
-58 -62 0
-59 -63 0
-60 -64 0
-57 -69 0
-58 -70 0
-59 -71 0
-60 -72 0
-57 -89 0
-58 -90 0
-59 -91 0
-60 -92 0
-57 -105 0
-58 -106 0
-59 -107 0
-60 -108 0
-57 -113 0
-58 -114 0
-59 -115 0
-60 -116 0
-57 -125 0
-58 -126 0
-59 -127 0
-60 -128 0
-61 -65 0
-62 -66 0
-63 -67 0
-64 -68 0
-61 -93 0
-62 -94 0
-63 -95 0
-64 -96 0
-61 -109 0
-62 -110 0
-63 -111 0
-64 -112 0
-61 -117 0
-62 -118 0
-63 -119 0
-64 -120 0
-61 -121 0
-62 -122 0
-63 -123 0
-64 -124 0
-65 -129 0
-66 -130 0
-67 -131 0
-68 -132 0
-69 -129 0
-70 -130 0
-71 -131 0
-72 -132 0
-73 -129 0
-74 -130 0
-75 -131 0
-76 -132 0
-77 -129 0
-78 -130 0
-79 -131 0
-80 -132 0
-81 -129 0
-82 -130 0
-83 -131 0
-84 -132 0
-85 -129 0
-86 -130 0
-87 -131 0
-88 -132 0
-89 -129 0
-90 -130 0
-91 -131 0
-92 -132 0
-93 -129 0
-94 -130 0
-95 -131 0
-96 -132 0
-97 -129 0
-98 -130 0
-99 -131 0
-100 -132 0
-101 -129 0
-102 -130 0
-103 -131 0
-104 -132 0
-105 -129 0
-106 -130 0
-107 -131 0
-108 -132 0
-109 -129 0
-110 -130 0
-111 -131 0
-112 -132 0
-113 -129 0
-114 -130 0
-115 -131 0
-116 -132 0
-117 -129 0
-118 -130 0
-119 -131 0
-120 -132 0
-121 -129 0
-122 -130 0
-123 -131 0
-124 -132 0
-125 -129 0
-126 -130 0
-127 -131 0
-128 -132 0
1 0
6 0
