p cnf 330 2809
-1 -2 -3 0
-1 -2 -4 0
-1 -2 -5 0
-1 -2 -6 0
-1 -2 -7 0
-1 -2 -8 0
-1 -3 -4 0
-1 -3 -5 0
-1 -3 -6 0
-1 -3 -7 0
-1 -3 -8 0
-1 -4 -5 0
-1 -4 -6 0
-1 -4 -7 0
-1 -4 -8 0
-1 -5 -6 0
-1 -5 -7 0
-1 -5 -8 0
-1 -6 -7 0
-1 -6 -8 0
-1 -7 -8 0
-2 -3 -4 0
-2 -3 -5 0
-2 -3 -6 0
-2 -3 -7 0
-2 -3 -8 0
-2 -4 -5 0
-2 -4 -6 0
-2 -4 -7 0
-2 -4 -8 0
-2 -5 -6 0
-2 -5 -7 0
-2 -5 -8 0
-2 -6 -7 0
-2 -6 -8 0
-2 -7 -8 0
-3 -4 -5 0
-3 -4 -6 0
-3 -4 -7 0
-3 -4 -8 0
-3 -5 -6 0
-3 -5 -7 0
-3 -5 -8 0
-3 -6 -7 0
-3 -6 -8 0
-3 -7 -8 0
-4 -5 -6 0
-4 -5 -7 0
-4 -5 -8 0
-4 -6 -7 0
-4 -6 -8 0
-4 -7 -8 0
-5 -6 -7 0
-5 -6 -8 0
-5 -7 -8 0
-6 -7 -8 0
-1 2 3 4 5 6 7 8 0
-2 1 3 4 5 6 7 8 0
-3 1 2 4 5 6 7 8 0
-4 1 2 3 5 6 7 8 0
-5 1 2 3 4 6 7 8 0
-6 1 2 3 4 5 7 8 0
-7 1 2 3 4 5 6 8 0
-8 1 2 3 4 5 6 7 0
-1 -9 -10 0
-1 -9 -11 0
-1 -9 -12 0
-1 -9 -13 0
-1 -9 -14 0
-1 -9 -15 0
-1 -10 -11 0
-1 -10 -12 0
-1 -10 -13 0
-1 -10 -14 0
-1 -10 -15 0
-1 -11 -12 0
-1 -11 -13 0
-1 -11 -14 0
-1 -11 -15 0
-1 -12 -13 0
-1 -12 -14 0
-1 -12 -15 0
-1 -13 -14 0
-1 -13 -15 0
-1 -14 -15 0
-9 -10 -11 0
-9 -10 -12 0
-9 -10 -13 0
-9 -10 -14 0
-9 -10 -15 0
-9 -11 -12 0
-9 -11 -13 0
-9 -11 -14 0
-9 -11 -15 0
-9 -12 -13 0
-9 -12 -14 0
-9 -12 -15 0
-9 -13 -14 0
-9 -13 -15 0
-9 -14 -15 0
-10 -11 -12 0
-10 -11 -13 0
-10 -11 -14 0
-10 -11 -15 0
-10 -12 -13 0
-10 -12 -14 0
-10 -12 -15 0
-10 -13 -14 0
-10 -13 -15 0
-10 -14 -15 0
-11 -12 -13 0
-11 -12 -14 0
-11 -12 -15 0
-11 -13 -14 0
-11 -13 -15 0
-11 -14 -15 0
-12 -13 -14 0
-12 -13 -15 0
-12 -14 -15 0
-13 -14 -15 0
-1 9 10 11 12 13 14 15 0
-9 1 10 11 12 13 14 15 0
-10 1 9 11 12 13 14 15 0
-11 1 9 10 12 13 14 15 0
-12 1 9 10 11 13 14 15 0
-13 1 9 10 11 12 14 15 0
-14 1 9 10 11 12 13 15 0
-15 1 9 10 11 12 13 14 0
-9 -16 -17 0
-9 -16 -18 0
-9 -16 -19 0
-9 -16 -20 0
-9 -16 -21 0
-9 -16 -22 0
-9 -17 -18 0
-9 -17 -19 0
-9 -17 -20 0
-9 -17 -21 0
-9 -17 -22 0
-9 -18 -19 0
-9 -18 -20 0
-9 -18 -21 0
-9 -18 -22 0
-9 -19 -20 0
-9 -19 -21 0
-9 -19 -22 0
-9 -20 -21 0
-9 -20 -22 0
-9 -21 -22 0
-16 -17 -18 0
-16 -17 -19 0
-16 -17 -20 0
-16 -17 -21 0
-16 -17 -22 0
-16 -18 -19 0
-16 -18 -20 0
-16 -18 -21 0
-16 -18 -22 0
-16 -19 -20 0
-16 -19 -21 0
-16 -19 -22 0
-16 -20 -21 0
-16 -20 -22 0
-16 -21 -22 0
-17 -18 -19 0
-17 -18 -20 0
-17 -18 -21 0
-17 -18 -22 0
-17 -19 -20 0
-17 -19 -21 0
-17 -19 -22 0
-17 -20 -21 0
-17 -20 -22 0
-17 -21 -22 0
-18 -19 -20 0
-18 -19 -21 0
-18 -19 -22 0
-18 -20 -21 0
-18 -20 -22 0
-18 -21 -22 0
-19 -20 -21 0
-19 -20 -22 0
-19 -21 -22 0
-20 -21 -22 0
-9 16 17 18 19 20 21 22 0
-16 9 17 18 19 20 21 22 0
-17 9 16 18 19 20 21 22 0
-18 9 16 17 19 20 21 22 0
-19 9 16 17 18 20 21 22 0
-20 9 16 17 18 19 21 22 0
-21 9 16 17 18 19 20 22 0
-22 9 16 17 18 19 20 21 0
-16 -23 -24 0
-16 -23 -25 0
-16 -23 -26 0
-16 -23 -27 0
-16 -23 -28 0
-16 -23 -29 0
-16 -24 -25 0
-16 -24 -26 0
-16 -24 -27 0
-16 -24 -28 0
-16 -24 -29 0
-16 -25 -26 0
-16 -25 -27 0
-16 -25 -28 0
-16 -25 -29 0
-16 -26 -27 0
-16 -26 -28 0
-16 -26 -29 0
-16 -27 -28 0
-16 -27 -29 0
-16 -28 -29 0
-23 -24 -25 0
-23 -24 -26 0
-23 -24 -27 0
-23 -24 -28 0
-23 -24 -29 0
-23 -25 -26 0
-23 -25 -27 0
-23 -25 -28 0
-23 -25 -29 0
-23 -26 -27 0
-23 -26 -28 0
-23 -26 -29 0
-23 -27 -28 0
-23 -27 -29 0
-23 -28 -29 0
-24 -25 -26 0
-24 -25 -27 0
-24 -25 -28 0
-24 -25 -29 0
-24 -26 -27 0
-24 -26 -28 0
-24 -26 -29 0
-24 -27 -28 0
-24 -27 -29 0
-24 -28 -29 0
-25 -26 -27 0
-25 -26 -28 0
-25 -26 -29 0
-25 -27 -28 0
-25 -27 -29 0
-25 -28 -29 0
-26 -27 -28 0
-26 -27 -29 0
-26 -28 -29 0
-27 -28 -29 0
-16 23 24 25 26 27 28 29 0
-23 16 24 25 26 27 28 29 0
-24 16 23 25 26 27 28 29 0
-25 16 23 24 26 27 28 29 0
-26 16 23 24 25 27 28 29 0
-27 16 23 24 25 26 28 29 0
-28 16 23 24 25 26 27 29 0
-29 16 23 24 25 26 27 28 0
-2 -23 -30 0
-2 -23 -31 0
-2 -23 -32 0
-2 -23 -33 0
-2 -23 -34 0
-2 -23 -35 0
-2 -30 -31 0
-2 -30 -32 0
-2 -30 -33 0
-2 -30 -34 0
-2 -30 -35 0
-2 -31 -32 0
-2 -31 -33 0
-2 -31 -34 0
-2 -31 -35 0
-2 -32 -33 0
-2 -32 -34 0
-2 -32 -35 0
-2 -33 -34 0
-2 -33 -35 0
-2 -34 -35 0
-23 -30 -31 0
-23 -30 -32 0
-23 -30 -33 0
-23 -30 -34 0
-23 -30 -35 0
-23 -31 -32 0
-23 -31 -33 0
-23 -31 -34 0
-23 -31 -35 0
-23 -32 -33 0
-23 -32 -34 0
-23 -32 -35 0
-23 -33 -34 0
-23 -33 -35 0
-23 -34 -35 0
-30 -31 -32 0
-30 -31 -33 0
-30 -31 -34 0
-30 -31 -35 0
-30 -32 -33 0
-30 -32 -34 0
-30 -32 -35 0
-30 -33 -34 0
-30 -33 -35 0
-30 -34 -35 0
-31 -32 -33 0
-31 -32 -34 0
-31 -32 -35 0
-31 -33 -34 0
-31 -33 -35 0
-31 -34 -35 0
-32 -33 -34 0
-32 -33 -35 0
-32 -34 -35 0
-33 -34 -35 0
-2 23 30 31 32 33 34 35 0
-23 2 30 31 32 33 34 35 0
-30 2 23 31 32 33 34 35 0
-31 2 23 30 32 33 34 35 0
-32 2 23 30 31 33 34 35 0
-33 2 23 30 31 32 34 35 0
-34 2 23 30 31 32 33 35 0
-35 2 23 30 31 32 33 34 0
-10 -30 -36 0
-10 -30 -37 0
-10 -30 -38 0
-10 -30 -39 0
-10 -36 -37 0
-10 -36 -38 0
-10 -36 -39 0
-10 -37 -38 0
-10 -37 -39 0
-10 -38 -39 0
-30 -36 -37 0
-30 -36 -38 0
-30 -36 -39 0
-30 -37 -38 0
-30 -37 -39 0
-30 -38 -39 0
-36 -37 -38 0
-36 -37 -39 0
-36 -38 -39 0
-37 -38 -39 0
-10 30 36 37 38 39 0
-30 10 36 37 38 39 0
-36 10 30 37 38 39 0
-37 10 30 36 38 39 0
-38 10 30 36 37 39 0
-39 10 30 36 37 38 0
-3 -17 -40 0
-3 -17 -41 0
-3 -17 -42 0
-3 -17 -43 0
-3 -40 -41 0
-3 -40 -42 0
-3 -40 -43 0
-3 -41 -42 0
-3 -41 -43 0
-3 -42 -43 0
-17 -40 -41 0
-17 -40 -42 0
-17 -40 -43 0
-17 -41 -42 0
-17 -41 -43 0
-17 -42 -43 0
-40 -41 -42 0
-40 -41 -43 0
-40 -42 -43 0
-41 -42 -43 0
-3 17 40 41 42 43 0
-17 3 40 41 42 43 0
-40 3 17 41 42 43 0
-41 3 17 40 42 43 0
-42 3 17 40 41 43 0
-43 3 17 40 41 42 0
-11 -24 -44 0
-11 -24 -45 0
-11 -24 -46 0
-11 -24 -47 0
-11 -44 -45 0
-11 -44 -46 0
-11 -44 -47 0
-11 -45 -46 0
-11 -45 -47 0
-11 -46 -47 0
-24 -44 -45 0
-24 -44 -46 0
-24 -44 -47 0
-24 -45 -46 0
-24 -45 -47 0
-24 -46 -47 0
-44 -45 -46 0
-44 -45 -47 0
-44 -46 -47 0
-45 -46 -47 0
-11 24 44 45 46 47 0
-24 11 44 45 46 47 0
-44 11 24 45 46 47 0
-45 11 24 44 46 47 0
-46 11 24 44 45 47 0
-47 11 24 44 45 46 0
-18 -31 -48 0
-18 -31 -49 0
-18 -31 -50 0
-18 -31 -51 0
-18 -48 -49 0
-18 -48 -50 0
-18 -48 -51 0
-18 -49 -50 0
-18 -49 -51 0
-18 -50 -51 0
-31 -48 -49 0
-31 -48 -50 0
-31 -48 -51 0
-31 -49 -50 0
-31 -49 -51 0
-31 -50 -51 0
-48 -49 -50 0
-48 -49 -51 0
-48 -50 -51 0
-49 -50 -51 0
-18 31 48 49 50 51 0
-31 18 48 49 50 51 0
-48 18 31 49 50 51 0
-49 18 31 48 50 51 0
-50 18 31 48 49 51 0
-51 18 31 48 49 50 0
-4 -25 -52 0
-4 -25 -53 0
-4 -25 -54 0
-4 -25 -55 0
-4 -52 -53 0
-4 -52 -54 0
-4 -52 -55 0
-4 -53 -54 0
-4 -53 -55 0
-4 -54 -55 0
-25 -52 -53 0
-25 -52 -54 0
-25 -52 -55 0
-25 -53 -54 0
-25 -53 -55 0
-25 -54 -55 0
-52 -53 -54 0
-52 -53 -55 0
-52 -54 -55 0
-53 -54 -55 0
-4 25 52 53 54 55 0
-25 4 52 53 54 55 0
-52 4 25 53 54 55 0
-53 4 25 52 54 55 0
-54 4 25 52 53 55 0
-55 4 25 52 53 54 0
-36 -40 -44 0
-36 -40 -48 0
-36 -40 -52 0
-36 -40 -56 0
-36 -40 -57 0
-36 -40 -58 0
-36 -40 -59 0
-36 -40 -60 0
-36 -44 -48 0
-36 -44 -52 0
-36 -44 -56 0
-36 -44 -57 0
-36 -44 -58 0
-36 -44 -59 0
-36 -44 -60 0
-36 -48 -52 0
-36 -48 -56 0
-36 -48 -57 0
-36 -48 -58 0
-36 -48 -59 0
-36 -48 -60 0
-36 -52 -56 0
-36 -52 -57 0
-36 -52 -58 0
-36 -52 -59 0
-36 -52 -60 0
-36 -56 -57 0
-36 -56 -58 0
-36 -56 -59 0
-36 -56 -60 0
-36 -57 -58 0
-36 -57 -59 0
-36 -57 -60 0
-36 -58 -59 0
-36 -58 -60 0
-36 -59 -60 0
-40 -44 -48 0
-40 -44 -52 0
-40 -44 -56 0
-40 -44 -57 0
-40 -44 -58 0
-40 -44 -59 0
-40 -44 -60 0
-40 -48 -52 0
-40 -48 -56 0
-40 -48 -57 0
-40 -48 -58 0
-40 -48 -59 0
-40 -48 -60 0
-40 -52 -56 0
-40 -52 -57 0
-40 -52 -58 0
-40 -52 -59 0
-40 -52 -60 0
-40 -56 -57 0
-40 -56 -58 0
-40 -56 -59 0
-40 -56 -60 0
-40 -57 -58 0
-40 -57 -59 0
-40 -57 -60 0
-40 -58 -59 0
-40 -58 -60 0
-40 -59 -60 0
-44 -48 -52 0
-44 -48 -56 0
-44 -48 -57 0
-44 -48 -58 0
-44 -48 -59 0
-44 -48 -60 0
-44 -52 -56 0
-44 -52 -57 0
-44 -52 -58 0
-44 -52 -59 0
-44 -52 -60 0
-44 -56 -57 0
-44 -56 -58 0
-44 -56 -59 0
-44 -56 -60 0
-44 -57 -58 0
-44 -57 -59 0
-44 -57 -60 0
-44 -58 -59 0
-44 -58 -60 0
-44 -59 -60 0
-48 -52 -56 0
-48 -52 -57 0
-48 -52 -58 0
-48 -52 -59 0
-48 -52 -60 0
-48 -56 -57 0
-48 -56 -58 0
-48 -56 -59 0
-48 -56 -60 0
-48 -57 -58 0
-48 -57 -59 0
-48 -57 -60 0
-48 -58 -59 0
-48 -58 -60 0
-48 -59 -60 0
-52 -56 -57 0
-52 -56 -58 0
-52 -56 -59 0
-52 -56 -60 0
-52 -57 -58 0
-52 -57 -59 0
-52 -57 -60 0
-52 -58 -59 0
-52 -58 -60 0
-52 -59 -60 0
-56 -57 -58 0
-56 -57 -59 0
-56 -57 -60 0
-56 -58 -59 0
-56 -58 -60 0
-56 -59 -60 0
-57 -58 -59 0
-57 -58 -60 0
-57 -59 -60 0
-58 -59 -60 0
-36 40 44 48 52 56 57 58 59 60 0
-40 36 44 48 52 56 57 58 59 60 0
-44 36 40 48 52 56 57 58 59 60 0
-48 36 40 44 52 56 57 58 59 60 0
-52 36 40 44 48 56 57 58 59 60 0
-56 36 40 44 48 52 57 58 59 60 0
-57 36 40 44 48 52 56 58 59 60 0
-58 36 40 44 48 52 56 57 59 60 0
-59 36 40 44 48 52 56 57 58 60 0
-60 36 40 44 48 52 56 57 58 59 0
-12 -32 -41 0
-12 -32 -53 0
-12 -32 -61 0
-12 -41 -53 0
-12 -41 -61 0
-12 -53 -61 0
-32 -41 -53 0
-32 -41 -61 0
-32 -53 -61 0
-41 -53 -61 0
-12 32 41 53 61 0
-32 12 41 53 61 0
-41 12 32 53 61 0
-53 12 32 41 61 0
-61 12 32 41 53 0
-5 -19 -37 0
-5 -19 -45 0
-5 -19 -62 0
-5 -37 -45 0
-5 -37 -62 0
-5 -45 -62 0
-19 -37 -45 0
-19 -37 -62 0
-19 -45 -62 0
-37 -45 -62 0
-5 19 37 45 62 0
-19 5 37 45 62 0
-37 5 19 45 62 0
-45 5 19 37 62 0
-62 5 19 37 45 0
-13 -26 -42 0
-13 -26 -49 0
-13 -26 -63 0
-13 -42 -49 0
-13 -42 -63 0
-13 -49 -63 0
-26 -42 -49 0
-26 -42 -63 0
-26 -49 -63 0
-42 -49 -63 0
-13 26 42 49 63 0
-26 13 42 49 63 0
-42 13 26 49 63 0
-49 13 26 42 63 0
-63 13 26 42 49 0
-20 -33 -46 0
-20 -33 -54 0
-20 -33 -64 0
-20 -46 -54 0
-20 -46 -64 0
-20 -54 -64 0
-33 -46 -54 0
-33 -46 -64 0
-33 -54 -64 0
-46 -54 -64 0
-20 33 46 54 64 0
-33 20 46 54 64 0
-46 20 33 54 64 0
-54 20 33 46 64 0
-64 20 33 46 54 0
-6 -27 -38 0
-6 -27 -50 0
-6 -27 -65 0
-6 -38 -50 0
-6 -38 -65 0
-6 -50 -65 0
-27 -38 -50 0
-27 -38 -65 0
-27 -50 -65 0
-38 -50 -65 0
-6 27 38 50 65 0
-27 6 38 50 65 0
-38 6 27 50 65 0
-50 6 27 38 65 0
-65 6 27 38 50 0
-14 -34 -56 0
-14 -34 -66 0
-14 -56 -66 0
-34 -56 -66 0
-14 34 56 66 0
-34 14 56 66 0
-56 14 34 66 0
-66 14 34 56 0
-7 -21 -57 0
-7 -21 -67 0
-7 -57 -67 0
-21 -57 -67 0
-7 21 57 67 0
-21 7 57 67 0
-57 7 21 67 0
-67 7 21 57 0
-15 -28 -58 0
-15 -28 -68 0
-15 -58 -68 0
-28 -58 -68 0
-15 28 58 68 0
-28 15 58 68 0
-58 15 28 68 0
-68 15 28 58 0
-22 -35 -59 0
-22 -35 -69 0
-22 -59 -69 0
-35 -59 -69 0
-22 35 59 69 0
-35 22 59 69 0
-59 22 35 69 0
-69 22 35 59 0
-8 -29 -60 0
-8 -29 -70 0
-8 -60 -70 0
-29 -60 -70 0
-8 29 60 70 0
-29 8 60 70 0
-60 8 29 70 0
-70 8 29 60 0
-39 -43 -47 0
-39 -43 -51 0
-39 -43 -55 0
-39 -43 -71 0
-39 -47 -51 0
-39 -47 -55 0
-39 -47 -71 0
-39 -51 -55 0
-39 -51 -71 0
-39 -55 -71 0
-43 -47 -51 0
-43 -47 -55 0
-43 -47 -71 0
-43 -51 -55 0
-43 -51 -71 0
-43 -55 -71 0
-47 -51 -55 0
-47 -51 -71 0
-47 -55 -71 0
-51 -55 -71 0
-39 43 47 51 55 71 0
-43 39 47 51 55 71 0
-47 39 43 51 55 71 0
-51 39 43 47 55 71 0
-55 39 43 47 51 71 0
-71 39 43 47 51 55 0
-61 -62 -63 0
-61 -62 -64 0
-61 -62 -65 0
-61 -62 -66 0
-61 -62 -67 0
-61 -62 -68 0
-61 -62 -69 0
-61 -62 -70 0
-61 -62 -71 0
-61 -63 -64 0
-61 -63 -65 0
-61 -63 -66 0
-61 -63 -67 0
-61 -63 -68 0
-61 -63 -69 0
-61 -63 -70 0
-61 -63 -71 0
-61 -64 -65 0
-61 -64 -66 0
-61 -64 -67 0
-61 -64 -68 0
-61 -64 -69 0
-61 -64 -70 0
-61 -64 -71 0
-61 -65 -66 0
-61 -65 -67 0
-61 -65 -68 0
-61 -65 -69 0
-61 -65 -70 0
-61 -65 -71 0
-61 -66 -67 0
-61 -66 -68 0
-61 -66 -69 0
-61 -66 -70 0
-61 -66 -71 0
-61 -67 -68 0
-61 -67 -69 0
-61 -67 -70 0
-61 -67 -71 0
-61 -68 -69 0
-61 -68 -70 0
-61 -68 -71 0
-61 -69 -70 0
-61 -69 -71 0
-61 -70 -71 0
-62 -63 -64 0
-62 -63 -65 0
-62 -63 -66 0
-62 -63 -67 0
-62 -63 -68 0
-62 -63 -69 0
-62 -63 -70 0
-62 -63 -71 0
-62 -64 -65 0
-62 -64 -66 0
-62 -64 -67 0
-62 -64 -68 0
-62 -64 -69 0
-62 -64 -70 0
-62 -64 -71 0
-62 -65 -66 0
-62 -65 -67 0
-62 -65 -68 0
-62 -65 -69 0
-62 -65 -70 0
-62 -65 -71 0
-62 -66 -67 0
-62 -66 -68 0
-62 -66 -69 0
-62 -66 -70 0
-62 -66 -71 0
-62 -67 -68 0
-62 -67 -69 0
-62 -67 -70 0
-62 -67 -71 0
-62 -68 -69 0
-62 -68 -70 0
-62 -68 -71 0
-62 -69 -70 0
-62 -69 -71 0
-62 -70 -71 0
-63 -64 -65 0
-63 -64 -66 0
-63 -64 -67 0
-63 -64 -68 0
-63 -64 -69 0
-63 -64 -70 0
-63 -64 -71 0
-63 -65 -66 0
-63 -65 -67 0
-63 -65 -68 0
-63 -65 -69 0
-63 -65 -70 0
-63 -65 -71 0
-63 -66 -67 0
-63 -66 -68 0
-63 -66 -69 0
-63 -66 -70 0
-63 -66 -71 0
-63 -67 -68 0
-63 -67 -69 0
-63 -67 -70 0
-63 -67 -71 0
-63 -68 -69 0
-63 -68 -70 0
-63 -68 -71 0
-63 -69 -70 0
-63 -69 -71 0
-63 -70 -71 0
-64 -65 -66 0
-64 -65 -67 0
-64 -65 -68 0
-64 -65 -69 0
-64 -65 -70 0
-64 -65 -71 0
-64 -66 -67 0
-64 -66 -68 0
-64 -66 -69 0
-64 -66 -70 0
-64 -66 -71 0
-64 -67 -68 0
-64 -67 -69 0
-64 -67 -70 0
-64 -67 -71 0
-64 -68 -69 0
-64 -68 -70 0
-64 -68 -71 0
-64 -69 -70 0
-64 -69 -71 0
-64 -70 -71 0
-65 -66 -67 0
-65 -66 -68 0
-65 -66 -69 0
-65 -66 -70 0
-65 -66 -71 0
-65 -67 -68 0
-65 -67 -69 0
-65 -67 -70 0
-65 -67 -71 0
-65 -68 -69 0
-65 -68 -70 0
-65 -68 -71 0
-65 -69 -70 0
-65 -69 -71 0
-65 -70 -71 0
-66 -67 -68 0
-66 -67 -69 0
-66 -67 -70 0
-66 -67 -71 0
-66 -68 -69 0
-66 -68 -70 0
-66 -68 -71 0
-66 -69 -70 0
-66 -69 -71 0
-66 -70 -71 0
-67 -68 -69 0
-67 -68 -70 0
-67 -68 -71 0
-67 -69 -70 0
-67 -69 -71 0
-67 -70 -71 0
-68 -69 -70 0
-68 -69 -71 0
-68 -70 -71 0
-69 -70 -71 0
-61 62 63 64 65 66 67 68 69 70 71 0
-62 61 63 64 65 66 67 68 69 70 71 0
-63 61 62 64 65 66 67 68 69 70 71 0
-64 61 62 63 65 66 67 68 69 70 71 0
-65 61 62 63 64 66 67 68 69 70 71 0
-66 61 62 63 64 65 67 68 69 70 71 0
-67 61 62 63 64 65 66 68 69 70 71 0
-68 61 62 63 64 65 66 67 69 70 71 0
-69 61 62 63 64 65 66 67 68 70 71 0
-70 61 62 63 64 65 66 67 68 69 71 0
-71 61 62 63 64 65 66 67 68 69 70 0
-1 143 0
-1 144 0
-2 143 0
-2 147 0
-3 143 0
-3 149 0
-4 143 0
-4 152 0
-5 143 0
-5 155 0
-6 143 0
-6 158 0
-7 143 0
-7 160 0
-8 143 0
-8 163 0
-9 144 0
-9 145 0
-10 144 0
-10 148 0
-11 144 0
-11 150 0
-12 144 0
-12 154 0
-13 144 0
-13 156 0
-14 144 0
-14 159 0
-15 144 0
-15 161 0
-16 145 0
-16 146 0
-17 145 0
-17 149 0
-18 145 0
-18 151 0
-19 145 0
-19 155 0
-20 145 0
-20 157 0
-21 145 0
-21 160 0
-22 145 0
-22 162 0
-23 146 0
-23 147 0
-24 146 0
-24 150 0
-25 146 0
-25 152 0
-26 146 0
-26 156 0
-27 146 0
-27 158 0
-28 146 0
-28 161 0
-29 146 0
-29 163 0
-30 147 0
-30 148 0
-31 147 0
-31 151 0
-32 147 0
-32 154 0
-33 147 0
-33 157 0
-34 147 0
-34 159 0
-35 147 0
-35 162 0
-36 148 0
-36 153 0
-37 148 0
-37 155 0
-38 148 0
-38 158 0
-39 148 0
-39 164 0
-40 149 0
-40 153 0
-41 149 0
-41 154 0
-42 149 0
-42 156 0
-43 149 0
-43 164 0
-44 150 0
-44 153 0
-45 150 0
-45 155 0
-46 150 0
-46 157 0
-47 150 0
-47 164 0
-48 151 0
-48 153 0
-49 151 0
-49 156 0
-50 151 0
-50 158 0
-51 151 0
-51 164 0
-52 152 0
-52 153 0
-53 152 0
-53 154 0
-54 152 0
-54 157 0
-55 152 0
-55 164 0
-56 153 0
-56 159 0
-57 153 0
-57 160 0
-58 153 0
-58 161 0
-59 153 0
-59 162 0
-60 153 0
-60 163 0
-61 154 0
-61 165 0
-62 155 0
-62 165 0
-63 156 0
-63 165 0
-64 157 0
-64 165 0
-65 158 0
-65 165 0
-66 159 0
-66 165 0
-67 160 0
-67 165 0
-68 161 0
-68 165 0
-69 162 0
-69 165 0
-70 163 0
-70 165 0
-71 164 0
-71 165 0
-189 1 0
189 -1 0
-190 189 2 0
-190 -189 -2 0
190 -189 2 0
190 189 -2 0
-191 190 3 0
-191 -190 -3 0
191 -190 3 0
191 190 -3 0
-192 191 4 0
-192 -191 -4 0
192 -191 4 0
192 191 -4 0
-193 192 5 0
-193 -192 -5 0
193 -192 5 0
193 192 -5 0
-194 193 6 0
-194 -193 -6 0
194 -193 6 0
194 193 -6 0
-195 194 7 0
-195 -194 -7 0
195 -194 7 0
195 194 -7 0
-196 195 8 0
-196 -195 -8 0
196 -195 8 0
196 195 -8 0
-197 196 9 0
-197 -196 -9 0
197 -196 9 0
197 196 -9 0
-198 197 10 0
-198 -197 -10 0
198 -197 10 0
198 197 -10 0
-199 198 11 0
-199 -198 -11 0
199 -198 11 0
199 198 -11 0
-200 199 12 0
-200 -199 -12 0
200 -199 12 0
200 199 -12 0
-201 200 13 0
-201 -200 -13 0
201 -200 13 0
201 200 -13 0
-202 201 14 0
-202 -201 -14 0
202 -201 14 0
202 201 -14 0
-203 202 15 0
-203 -202 -15 0
203 -202 15 0
203 202 -15 0
-204 203 16 0
-204 -203 -16 0
204 -203 16 0
204 203 -16 0
-205 204 17 0
-205 -204 -17 0
205 -204 17 0
205 204 -17 0
-206 205 18 0
-206 -205 -18 0
206 -205 18 0
206 205 -18 0
-207 206 19 0
-207 -206 -19 0
207 -206 19 0
207 206 -19 0
-208 207 20 0
-208 -207 -20 0
208 -207 20 0
208 207 -20 0
-209 208 21 0
-209 -208 -21 0
209 -208 21 0
209 208 -21 0
-210 209 22 0
-210 -209 -22 0
210 -209 22 0
210 209 -22 0
-211 210 23 0
-211 -210 -23 0
211 -210 23 0
211 210 -23 0
-212 211 24 0
-212 -211 -24 0
212 -211 24 0
212 211 -24 0
-213 212 25 0
-213 -212 -25 0
213 -212 25 0
213 212 -25 0
-214 213 26 0
-214 -213 -26 0
214 -213 26 0
214 213 -26 0
-215 214 27 0
-215 -214 -27 0
215 -214 27 0
215 214 -27 0
-216 215 28 0
-216 -215 -28 0
216 -215 28 0
216 215 -28 0
-217 216 29 0
-217 -216 -29 0
217 -216 29 0
217 216 -29 0
-218 217 30 0
-218 -217 -30 0
218 -217 30 0
218 217 -30 0
-219 218 31 0
-219 -218 -31 0
219 -218 31 0
219 218 -31 0
-220 219 32 0
-220 -219 -32 0
220 -219 32 0
220 219 -32 0
-221 220 33 0
-221 -220 -33 0
221 -220 33 0
221 220 -33 0
-222 221 34 0
-222 -221 -34 0
222 -221 34 0
222 221 -34 0
-223 222 35 0
-223 -222 -35 0
223 -222 35 0
223 222 -35 0
-224 223 36 0
-224 -223 -36 0
224 -223 36 0
224 223 -36 0
-225 224 37 0
-225 -224 -37 0
225 -224 37 0
225 224 -37 0
-226 225 38 0
-226 -225 -38 0
226 -225 38 0
226 225 -38 0
-227 226 39 0
-227 -226 -39 0
227 -226 39 0
227 226 -39 0
-228 227 40 0
-228 -227 -40 0
228 -227 40 0
228 227 -40 0
-229 228 41 0
-229 -228 -41 0
229 -228 41 0
229 228 -41 0
-230 229 42 0
-230 -229 -42 0
230 -229 42 0
230 229 -42 0
-231 230 43 0
-231 -230 -43 0
231 -230 43 0
231 230 -43 0
-232 231 44 0
-232 -231 -44 0
232 -231 44 0
232 231 -44 0
-233 232 45 0
-233 -232 -45 0
233 -232 45 0
233 232 -45 0
-234 233 46 0
-234 -233 -46 0
234 -233 46 0
234 233 -46 0
-235 234 47 0
-235 -234 -47 0
235 -234 47 0
235 234 -47 0
-236 235 48 0
-236 -235 -48 0
236 -235 48 0
236 235 -48 0
-237 236 49 0
-237 -236 -49 0
237 -236 49 0
237 236 -49 0
-238 237 50 0
-238 -237 -50 0
238 -237 50 0
238 237 -50 0
-239 238 51 0
-239 -238 -51 0
239 -238 51 0
239 238 -51 0
-240 239 52 0
-240 -239 -52 0
240 -239 52 0
240 239 -52 0
-241 240 53 0
-241 -240 -53 0
241 -240 53 0
241 240 -53 0
-242 241 54 0
-242 -241 -54 0
242 -241 54 0
242 241 -54 0
-243 242 55 0
-243 -242 -55 0
243 -242 55 0
243 242 -55 0
-244 243 56 0
-244 -243 -56 0
244 -243 56 0
244 243 -56 0
-245 244 57 0
-245 -244 -57 0
245 -244 57 0
245 244 -57 0
-246 245 58 0
-246 -245 -58 0
246 -245 58 0
246 245 -58 0
-247 246 59 0
-247 -246 -59 0
247 -246 59 0
247 246 -59 0
-248 247 60 0
-248 -247 -60 0
248 -247 60 0
248 247 -60 0
-249 248 61 0
-249 -248 -61 0
249 -248 61 0
249 248 -61 0
-250 249 62 0
-250 -249 -62 0
250 -249 62 0
250 249 -62 0
-251 250 63 0
-251 -250 -63 0
251 -250 63 0
251 250 -63 0
-252 251 64 0
-252 -251 -64 0
252 -251 64 0
252 251 -64 0
-253 252 65 0
-253 -252 -65 0
253 -252 65 0
253 252 -65 0
-254 253 66 0
-254 -253 -66 0
254 -253 66 0
254 253 -66 0
-255 254 67 0
-255 -254 -67 0
255 -254 67 0
255 254 -67 0
-256 255 68 0
-256 -255 -68 0
256 -255 68 0
256 255 -68 0
-257 256 69 0
-257 -256 -69 0
257 -256 69 0
257 256 -69 0
-258 257 70 0
-258 -257 -70 0
258 -257 70 0
258 257 -70 0
-259 258 71 0
-259 -258 -71 0
259 -258 71 0
259 258 -71 0
259 0
-72 -73 -74 0
-72 -73 -75 0
-72 -73 -76 0
-72 -73 -77 0
-72 -73 -78 0
-72 -73 -79 0
-72 -74 -75 0
-72 -74 -76 0
-72 -74 -77 0
-72 -74 -78 0
-72 -74 -79 0
-72 -75 -76 0
-72 -75 -77 0
-72 -75 -78 0
-72 -75 -79 0
-72 -76 -77 0
-72 -76 -78 0
-72 -76 -79 0
-72 -77 -78 0
-72 -77 -79 0
-72 -78 -79 0
-73 -74 -75 0
-73 -74 -76 0
-73 -74 -77 0
-73 -74 -78 0
-73 -74 -79 0
-73 -75 -76 0
-73 -75 -77 0
-73 -75 -78 0
-73 -75 -79 0
-73 -76 -77 0
-73 -76 -78 0
-73 -76 -79 0
-73 -77 -78 0
-73 -77 -79 0
-73 -78 -79 0
-74 -75 -76 0
-74 -75 -77 0
-74 -75 -78 0
-74 -75 -79 0
-74 -76 -77 0
-74 -76 -78 0
-74 -76 -79 0
-74 -77 -78 0
-74 -77 -79 0
-74 -78 -79 0
-75 -76 -77 0
-75 -76 -78 0
-75 -76 -79 0
-75 -77 -78 0
-75 -77 -79 0
-75 -78 -79 0
-76 -77 -78 0
-76 -77 -79 0
-76 -78 -79 0
-77 -78 -79 0
-72 73 74 75 76 77 78 79 0
-73 72 74 75 76 77 78 79 0
-74 72 73 75 76 77 78 79 0
-75 72 73 74 76 77 78 79 0
-76 72 73 74 75 77 78 79 0
-77 72 73 74 75 76 78 79 0
-78 72 73 74 75 76 77 79 0
-79 72 73 74 75 76 77 78 0
-72 -80 -81 0
-72 -80 -82 0
-72 -80 -83 0
-72 -80 -84 0
-72 -80 -85 0
-72 -80 -86 0
-72 -81 -82 0
-72 -81 -83 0
-72 -81 -84 0
-72 -81 -85 0
-72 -81 -86 0
-72 -82 -83 0
-72 -82 -84 0
-72 -82 -85 0
-72 -82 -86 0
-72 -83 -84 0
-72 -83 -85 0
-72 -83 -86 0
-72 -84 -85 0
-72 -84 -86 0
-72 -85 -86 0
-80 -81 -82 0
-80 -81 -83 0
-80 -81 -84 0
-80 -81 -85 0
-80 -81 -86 0
-80 -82 -83 0
-80 -82 -84 0
-80 -82 -85 0
-80 -82 -86 0
-80 -83 -84 0
-80 -83 -85 0
-80 -83 -86 0
-80 -84 -85 0
-80 -84 -86 0
-80 -85 -86 0
-81 -82 -83 0
-81 -82 -84 0
-81 -82 -85 0
-81 -82 -86 0
-81 -83 -84 0
-81 -83 -85 0
-81 -83 -86 0
-81 -84 -85 0
-81 -84 -86 0
-81 -85 -86 0
-82 -83 -84 0
-82 -83 -85 0
-82 -83 -86 0
-82 -84 -85 0
-82 -84 -86 0
-82 -85 -86 0
-83 -84 -85 0
-83 -84 -86 0
-83 -85 -86 0
-84 -85 -86 0
-72 80 81 82 83 84 85 86 0
-80 72 81 82 83 84 85 86 0
-81 72 80 82 83 84 85 86 0
-82 72 80 81 83 84 85 86 0
-83 72 80 81 82 84 85 86 0
-84 72 80 81 82 83 85 86 0
-85 72 80 81 82 83 84 86 0
-86 72 80 81 82 83 84 85 0
-80 -87 -88 0
-80 -87 -89 0
-80 -87 -90 0
-80 -87 -91 0
-80 -87 -92 0
-80 -87 -93 0
-80 -88 -89 0
-80 -88 -90 0
-80 -88 -91 0
-80 -88 -92 0
-80 -88 -93 0
-80 -89 -90 0
-80 -89 -91 0
-80 -89 -92 0
-80 -89 -93 0
-80 -90 -91 0
-80 -90 -92 0
-80 -90 -93 0
-80 -91 -92 0
-80 -91 -93 0
-80 -92 -93 0
-87 -88 -89 0
-87 -88 -90 0
-87 -88 -91 0
-87 -88 -92 0
-87 -88 -93 0
-87 -89 -90 0
-87 -89 -91 0
-87 -89 -92 0
-87 -89 -93 0
-87 -90 -91 0
-87 -90 -92 0
-87 -90 -93 0
-87 -91 -92 0
-87 -91 -93 0
-87 -92 -93 0
-88 -89 -90 0
-88 -89 -91 0
-88 -89 -92 0
-88 -89 -93 0
-88 -90 -91 0
-88 -90 -92 0
-88 -90 -93 0
-88 -91 -92 0
-88 -91 -93 0
-88 -92 -93 0
-89 -90 -91 0
-89 -90 -92 0
-89 -90 -93 0
-89 -91 -92 0
-89 -91 -93 0
-89 -92 -93 0
-90 -91 -92 0
-90 -91 -93 0
-90 -92 -93 0
-91 -92 -93 0
-80 87 88 89 90 91 92 93 0
-87 80 88 89 90 91 92 93 0
-88 80 87 89 90 91 92 93 0
-89 80 87 88 90 91 92 93 0
-90 80 87 88 89 91 92 93 0
-91 80 87 88 89 90 92 93 0
-92 80 87 88 89 90 91 93 0
-93 80 87 88 89 90 91 92 0
-87 -94 -95 0
-87 -94 -96 0
-87 -94 -97 0
-87 -94 -98 0
-87 -94 -99 0
-87 -94 -100 0
-87 -95 -96 0
-87 -95 -97 0
-87 -95 -98 0
-87 -95 -99 0
-87 -95 -100 0
-87 -96 -97 0
-87 -96 -98 0
-87 -96 -99 0
-87 -96 -100 0
-87 -97 -98 0
-87 -97 -99 0
-87 -97 -100 0
-87 -98 -99 0
-87 -98 -100 0
-87 -99 -100 0
-94 -95 -96 0
-94 -95 -97 0
-94 -95 -98 0
-94 -95 -99 0
-94 -95 -100 0
-94 -96 -97 0
-94 -96 -98 0
-94 -96 -99 0
-94 -96 -100 0
-94 -97 -98 0
-94 -97 -99 0
-94 -97 -100 0
-94 -98 -99 0
-94 -98 -100 0
-94 -99 -100 0
-95 -96 -97 0
-95 -96 -98 0
-95 -96 -99 0
-95 -96 -100 0
-95 -97 -98 0
-95 -97 -99 0
-95 -97 -100 0
-95 -98 -99 0
-95 -98 -100 0
-95 -99 -100 0
-96 -97 -98 0
-96 -97 -99 0
-96 -97 -100 0
-96 -98 -99 0
-96 -98 -100 0
-96 -99 -100 0
-97 -98 -99 0
-97 -98 -100 0
-97 -99 -100 0
-98 -99 -100 0
-87 94 95 96 97 98 99 100 0
-94 87 95 96 97 98 99 100 0
-95 87 94 96 97 98 99 100 0
-96 87 94 95 97 98 99 100 0
-97 87 94 95 96 98 99 100 0
-98 87 94 95 96 97 99 100 0
-99 87 94 95 96 97 98 100 0
-100 87 94 95 96 97 98 99 0
-73 -94 -101 0
-73 -94 -102 0
-73 -94 -103 0
-73 -94 -104 0
-73 -94 -105 0
-73 -94 -106 0
-73 -101 -102 0
-73 -101 -103 0
-73 -101 -104 0
-73 -101 -105 0
-73 -101 -106 0
-73 -102 -103 0
-73 -102 -104 0
-73 -102 -105 0
-73 -102 -106 0
-73 -103 -104 0
-73 -103 -105 0
-73 -103 -106 0
-73 -104 -105 0
-73 -104 -106 0
-73 -105 -106 0
-94 -101 -102 0
-94 -101 -103 0
-94 -101 -104 0
-94 -101 -105 0
-94 -101 -106 0
-94 -102 -103 0
-94 -102 -104 0
-94 -102 -105 0
-94 -102 -106 0
-94 -103 -104 0
-94 -103 -105 0
-94 -103 -106 0
-94 -104 -105 0
-94 -104 -106 0
-94 -105 -106 0
-101 -102 -103 0
-101 -102 -104 0
-101 -102 -105 0
-101 -102 -106 0
-101 -103 -104 0
-101 -103 -105 0
-101 -103 -106 0
-101 -104 -105 0
-101 -104 -106 0
-101 -105 -106 0
-102 -103 -104 0
-102 -103 -105 0
-102 -103 -106 0
-102 -104 -105 0
-102 -104 -106 0
-102 -105 -106 0
-103 -104 -105 0
-103 -104 -106 0
-103 -105 -106 0
-104 -105 -106 0
-73 94 101 102 103 104 105 106 0
-94 73 101 102 103 104 105 106 0
-101 73 94 102 103 104 105 106 0
-102 73 94 101 103 104 105 106 0
-103 73 94 101 102 104 105 106 0
-104 73 94 101 102 103 105 106 0
-105 73 94 101 102 103 104 106 0
-106 73 94 101 102 103 104 105 0
-81 -101 -107 0
-81 -101 -108 0
-81 -101 -109 0
-81 -101 -110 0
-81 -107 -108 0
-81 -107 -109 0
-81 -107 -110 0
-81 -108 -109 0
-81 -108 -110 0
-81 -109 -110 0
-101 -107 -108 0
-101 -107 -109 0
-101 -107 -110 0
-101 -108 -109 0
-101 -108 -110 0
-101 -109 -110 0
-107 -108 -109 0
-107 -108 -110 0
-107 -109 -110 0
-108 -109 -110 0
-81 101 107 108 109 110 0
-101 81 107 108 109 110 0
-107 81 101 108 109 110 0
-108 81 101 107 109 110 0
-109 81 101 107 108 110 0
-110 81 101 107 108 109 0
-74 -88 -111 0
-74 -88 -112 0
-74 -88 -113 0
-74 -88 -114 0
-74 -111 -112 0
-74 -111 -113 0
-74 -111 -114 0
-74 -112 -113 0
-74 -112 -114 0
-74 -113 -114 0
-88 -111 -112 0
-88 -111 -113 0
-88 -111 -114 0
-88 -112 -113 0
-88 -112 -114 0
-88 -113 -114 0
-111 -112 -113 0
-111 -112 -114 0
-111 -113 -114 0
-112 -113 -114 0
-74 88 111 112 113 114 0
-88 74 111 112 113 114 0
-111 74 88 112 113 114 0
-112 74 88 111 113 114 0
-113 74 88 111 112 114 0
-114 74 88 111 112 113 0
-82 -95 -115 0
-82 -95 -116 0
-82 -95 -117 0
-82 -95 -118 0
-82 -115 -116 0
-82 -115 -117 0
-82 -115 -118 0
-82 -116 -117 0
-82 -116 -118 0
-82 -117 -118 0
-95 -115 -116 0
-95 -115 -117 0
-95 -115 -118 0
-95 -116 -117 0
-95 -116 -118 0
-95 -117 -118 0
-115 -116 -117 0
-115 -116 -118 0
-115 -117 -118 0
-116 -117 -118 0
-82 95 115 116 117 118 0
-95 82 115 116 117 118 0
-115 82 95 116 117 118 0
-116 82 95 115 117 118 0
-117 82 95 115 116 118 0
-118 82 95 115 116 117 0
-89 -102 -119 0
-89 -102 -120 0
-89 -102 -121 0
-89 -102 -122 0
-89 -119 -120 0
-89 -119 -121 0
-89 -119 -122 0
-89 -120 -121 0
-89 -120 -122 0
-89 -121 -122 0
-102 -119 -120 0
-102 -119 -121 0
-102 -119 -122 0
-102 -120 -121 0
-102 -120 -122 0
-102 -121 -122 0
-119 -120 -121 0
-119 -120 -122 0
-119 -121 -122 0
-120 -121 -122 0
-89 102 119 120 121 122 0
-102 89 119 120 121 122 0
-119 89 102 120 121 122 0
-120 89 102 119 121 122 0
-121 89 102 119 120 122 0
-122 89 102 119 120 121 0
-75 -96 -123 0
-75 -96 -124 0
-75 -96 -125 0
-75 -96 -126 0
-75 -123 -124 0
-75 -123 -125 0
-75 -123 -126 0
-75 -124 -125 0
-75 -124 -126 0
-75 -125 -126 0
-96 -123 -124 0
-96 -123 -125 0
-96 -123 -126 0
-96 -124 -125 0
-96 -124 -126 0
-96 -125 -126 0
-123 -124 -125 0
-123 -124 -126 0
-123 -125 -126 0
-124 -125 -126 0
-75 96 123 124 125 126 0
-96 75 123 124 125 126 0
-123 75 96 124 125 126 0
-124 75 96 123 125 126 0
-125 75 96 123 124 126 0
-126 75 96 123 124 125 0
-107 -111 -115 0
-107 -111 -119 0
-107 -111 -123 0
-107 -111 -127 0
-107 -111 -128 0
-107 -111 -129 0
-107 -111 -130 0
-107 -111 -131 0
-107 -115 -119 0
-107 -115 -123 0
-107 -115 -127 0
-107 -115 -128 0
-107 -115 -129 0
-107 -115 -130 0
-107 -115 -131 0
-107 -119 -123 0
-107 -119 -127 0
-107 -119 -128 0
-107 -119 -129 0
-107 -119 -130 0
-107 -119 -131 0
-107 -123 -127 0
-107 -123 -128 0
-107 -123 -129 0
-107 -123 -130 0
-107 -123 -131 0
-107 -127 -128 0
-107 -127 -129 0
-107 -127 -130 0
-107 -127 -131 0
-107 -128 -129 0
-107 -128 -130 0
-107 -128 -131 0
-107 -129 -130 0
-107 -129 -131 0
-107 -130 -131 0
-111 -115 -119 0
-111 -115 -123 0
-111 -115 -127 0
-111 -115 -128 0
-111 -115 -129 0
-111 -115 -130 0
-111 -115 -131 0
-111 -119 -123 0
-111 -119 -127 0
-111 -119 -128 0
-111 -119 -129 0
-111 -119 -130 0
-111 -119 -131 0
-111 -123 -127 0
-111 -123 -128 0
-111 -123 -129 0
-111 -123 -130 0
-111 -123 -131 0
-111 -127 -128 0
-111 -127 -129 0
-111 -127 -130 0
-111 -127 -131 0
-111 -128 -129 0
-111 -128 -130 0
-111 -128 -131 0
-111 -129 -130 0
-111 -129 -131 0
-111 -130 -131 0
-115 -119 -123 0
-115 -119 -127 0
-115 -119 -128 0
-115 -119 -129 0
-115 -119 -130 0
-115 -119 -131 0
-115 -123 -127 0
-115 -123 -128 0
-115 -123 -129 0
-115 -123 -130 0
-115 -123 -131 0
-115 -127 -128 0
-115 -127 -129 0
-115 -127 -130 0
-115 -127 -131 0
-115 -128 -129 0
-115 -128 -130 0
-115 -128 -131 0
-115 -129 -130 0
-115 -129 -131 0
-115 -130 -131 0
-119 -123 -127 0
-119 -123 -128 0
-119 -123 -129 0
-119 -123 -130 0
-119 -123 -131 0
-119 -127 -128 0
-119 -127 -129 0
-119 -127 -130 0
-119 -127 -131 0
-119 -128 -129 0
-119 -128 -130 0
-119 -128 -131 0
-119 -129 -130 0
-119 -129 -131 0
-119 -130 -131 0
-123 -127 -128 0
-123 -127 -129 0
-123 -127 -130 0
-123 -127 -131 0
-123 -128 -129 0
-123 -128 -130 0
-123 -128 -131 0
-123 -129 -130 0
-123 -129 -131 0
-123 -130 -131 0
-127 -128 -129 0
-127 -128 -130 0
-127 -128 -131 0
-127 -129 -130 0
-127 -129 -131 0
-127 -130 -131 0
-128 -129 -130 0
-128 -129 -131 0
-128 -130 -131 0
-129 -130 -131 0
-107 111 115 119 123 127 128 129 130 131 0
-111 107 115 119 123 127 128 129 130 131 0
-115 107 111 119 123 127 128 129 130 131 0
-119 107 111 115 123 127 128 129 130 131 0
-123 107 111 115 119 127 128 129 130 131 0
-127 107 111 115 119 123 128 129 130 131 0
-128 107 111 115 119 123 127 129 130 131 0
-129 107 111 115 119 123 127 128 130 131 0
-130 107 111 115 119 123 127 128 129 131 0
-131 107 111 115 119 123 127 128 129 130 0
-83 -103 -112 0
-83 -103 -124 0
-83 -103 -132 0
-83 -112 -124 0
-83 -112 -132 0
-83 -124 -132 0
-103 -112 -124 0
-103 -112 -132 0
-103 -124 -132 0
-112 -124 -132 0
-83 103 112 124 132 0
-103 83 112 124 132 0
-112 83 103 124 132 0
-124 83 103 112 132 0
-132 83 103 112 124 0
-76 -90 -108 0
-76 -90 -116 0
-76 -90 -133 0
-76 -108 -116 0
-76 -108 -133 0
-76 -116 -133 0
-90 -108 -116 0
-90 -108 -133 0
-90 -116 -133 0
-108 -116 -133 0
-76 90 108 116 133 0
-90 76 108 116 133 0
-108 76 90 116 133 0
-116 76 90 108 133 0
-133 76 90 108 116 0
-84 -97 -113 0
-84 -97 -120 0
-84 -97 -134 0
-84 -113 -120 0
-84 -113 -134 0
-84 -120 -134 0
-97 -113 -120 0
-97 -113 -134 0
-97 -120 -134 0
-113 -120 -134 0
-84 97 113 120 134 0
-97 84 113 120 134 0
-113 84 97 120 134 0
-120 84 97 113 134 0
-134 84 97 113 120 0
-91 -104 -117 0
-91 -104 -125 0
-91 -104 -135 0
-91 -117 -125 0
-91 -117 -135 0
-91 -125 -135 0
-104 -117 -125 0
-104 -117 -135 0
-104 -125 -135 0
-117 -125 -135 0
-91 104 117 125 135 0
-104 91 117 125 135 0
-117 91 104 125 135 0
-125 91 104 117 135 0
-135 91 104 117 125 0
-77 -98 -109 0
-77 -98 -121 0
-77 -98 -136 0
-77 -109 -121 0
-77 -109 -136 0
-77 -121 -136 0
-98 -109 -121 0
-98 -109 -136 0
-98 -121 -136 0
-109 -121 -136 0
-77 98 109 121 136 0
-98 77 109 121 136 0
-109 77 98 121 136 0
-121 77 98 109 136 0
-136 77 98 109 121 0
-85 -105 -127 0
-85 -105 -137 0
-85 -127 -137 0
-105 -127 -137 0
-85 105 127 137 0
-105 85 127 137 0
-127 85 105 137 0
-137 85 105 127 0
-78 -92 -128 0
-78 -92 -138 0
-78 -128 -138 0
-92 -128 -138 0
-78 92 128 138 0
-92 78 128 138 0
-128 78 92 138 0
-138 78 92 128 0
-86 -99 -129 0
-86 -99 -139 0
-86 -129 -139 0
-99 -129 -139 0
-86 99 129 139 0
-99 86 129 139 0
-129 86 99 139 0
-139 86 99 129 0
-93 -106 -130 0
-93 -106 -140 0
-93 -130 -140 0
-106 -130 -140 0
-93 106 130 140 0
-106 93 130 140 0
-130 93 106 140 0
-140 93 106 130 0
-79 -100 -131 0
-79 -100 -141 0
-79 -131 -141 0
-100 -131 -141 0
-79 100 131 141 0
-100 79 131 141 0
-131 79 100 141 0
-141 79 100 131 0
-110 -114 -118 0
-110 -114 -122 0
-110 -114 -126 0
-110 -114 -142 0
-110 -118 -122 0
-110 -118 -126 0
-110 -118 -142 0
-110 -122 -126 0
-110 -122 -142 0
-110 -126 -142 0
-114 -118 -122 0
-114 -118 -126 0
-114 -118 -142 0
-114 -122 -126 0
-114 -122 -142 0
-114 -126 -142 0
-118 -122 -126 0
-118 -122 -142 0
-118 -126 -142 0
-122 -126 -142 0
-110 114 118 122 126 142 0
-114 110 118 122 126 142 0
-118 110 114 122 126 142 0
-122 110 114 118 126 142 0
-126 110 114 118 122 142 0
-142 110 114 118 122 126 0
-132 -133 -134 0
-132 -133 -135 0
-132 -133 -136 0
-132 -133 -137 0
-132 -133 -138 0
-132 -133 -139 0
-132 -133 -140 0
-132 -133 -141 0
-132 -133 -142 0
-132 -134 -135 0
-132 -134 -136 0
-132 -134 -137 0
-132 -134 -138 0
-132 -134 -139 0
-132 -134 -140 0
-132 -134 -141 0
-132 -134 -142 0
-132 -135 -136 0
-132 -135 -137 0
-132 -135 -138 0
-132 -135 -139 0
-132 -135 -140 0
-132 -135 -141 0
-132 -135 -142 0
-132 -136 -137 0
-132 -136 -138 0
-132 -136 -139 0
-132 -136 -140 0
-132 -136 -141 0
-132 -136 -142 0
-132 -137 -138 0
-132 -137 -139 0
-132 -137 -140 0
-132 -137 -141 0
-132 -137 -142 0
-132 -138 -139 0
-132 -138 -140 0
-132 -138 -141 0
-132 -138 -142 0
-132 -139 -140 0
-132 -139 -141 0
-132 -139 -142 0
-132 -140 -141 0
-132 -140 -142 0
-132 -141 -142 0
-133 -134 -135 0
-133 -134 -136 0
-133 -134 -137 0
-133 -134 -138 0
-133 -134 -139 0
-133 -134 -140 0
-133 -134 -141 0
-133 -134 -142 0
-133 -135 -136 0
-133 -135 -137 0
-133 -135 -138 0
-133 -135 -139 0
-133 -135 -140 0
-133 -135 -141 0
-133 -135 -142 0
-133 -136 -137 0
-133 -136 -138 0
-133 -136 -139 0
-133 -136 -140 0
-133 -136 -141 0
-133 -136 -142 0
-133 -137 -138 0
-133 -137 -139 0
-133 -137 -140 0
-133 -137 -141 0
-133 -137 -142 0
-133 -138 -139 0
-133 -138 -140 0
-133 -138 -141 0
-133 -138 -142 0
-133 -139 -140 0
-133 -139 -141 0
-133 -139 -142 0
-133 -140 -141 0
-133 -140 -142 0
-133 -141 -142 0
-134 -135 -136 0
-134 -135 -137 0
-134 -135 -138 0
-134 -135 -139 0
-134 -135 -140 0
-134 -135 -141 0
-134 -135 -142 0
-134 -136 -137 0
-134 -136 -138 0
-134 -136 -139 0
-134 -136 -140 0
-134 -136 -141 0
-134 -136 -142 0
-134 -137 -138 0
-134 -137 -139 0
-134 -137 -140 0
-134 -137 -141 0
-134 -137 -142 0
-134 -138 -139 0
-134 -138 -140 0
-134 -138 -141 0
-134 -138 -142 0
-134 -139 -140 0
-134 -139 -141 0
-134 -139 -142 0
-134 -140 -141 0
-134 -140 -142 0
-134 -141 -142 0
-135 -136 -137 0
-135 -136 -138 0
-135 -136 -139 0
-135 -136 -140 0
-135 -136 -141 0
-135 -136 -142 0
-135 -137 -138 0
-135 -137 -139 0
-135 -137 -140 0
-135 -137 -141 0
-135 -137 -142 0
-135 -138 -139 0
-135 -138 -140 0
-135 -138 -141 0
-135 -138 -142 0
-135 -139 -140 0
-135 -139 -141 0
-135 -139 -142 0
-135 -140 -141 0
-135 -140 -142 0
-135 -141 -142 0
-136 -137 -138 0
-136 -137 -139 0
-136 -137 -140 0
-136 -137 -141 0
-136 -137 -142 0
-136 -138 -139 0
-136 -138 -140 0
-136 -138 -141 0
-136 -138 -142 0
-136 -139 -140 0
-136 -139 -141 0
-136 -139 -142 0
-136 -140 -141 0
-136 -140 -142 0
-136 -141 -142 0
-137 -138 -139 0
-137 -138 -140 0
-137 -138 -141 0
-137 -138 -142 0
-137 -139 -140 0
-137 -139 -141 0
-137 -139 -142 0
-137 -140 -141 0
-137 -140 -142 0
-137 -141 -142 0
-138 -139 -140 0
-138 -139 -141 0
-138 -139 -142 0
-138 -140 -141 0
-138 -140 -142 0
-138 -141 -142 0
-139 -140 -141 0
-139 -140 -142 0
-139 -141 -142 0
-140 -141 -142 0
-132 133 134 135 136 137 138 139 140 141 142 0
-133 132 134 135 136 137 138 139 140 141 142 0
-134 132 133 135 136 137 138 139 140 141 142 0
-135 132 133 134 136 137 138 139 140 141 142 0
-136 132 133 134 135 137 138 139 140 141 142 0
-137 132 133 134 135 136 138 139 140 141 142 0
-138 132 133 134 135 136 137 139 140 141 142 0
-139 132 133 134 135 136 137 138 140 141 142 0
-140 132 133 134 135 136 137 138 139 141 142 0
-141 132 133 134 135 136 137 138 139 140 142 0
-142 132 133 134 135 136 137 138 139 140 141 0
-72 166 0
-72 167 0
-73 166 0
-73 170 0
-74 166 0
-74 172 0
-75 166 0
-75 175 0
-76 166 0
-76 178 0
-77 166 0
-77 181 0
-78 166 0
-78 183 0
-79 166 0
-79 186 0
-80 167 0
-80 168 0
-81 167 0
-81 171 0
-82 167 0
-82 173 0
-83 167 0
-83 177 0
-84 167 0
-84 179 0
-85 167 0
-85 182 0
-86 167 0
-86 184 0
-87 168 0
-87 169 0
-88 168 0
-88 172 0
-89 168 0
-89 174 0
-90 168 0
-90 178 0
-91 168 0
-91 180 0
-92 168 0
-92 183 0
-93 168 0
-93 185 0
-94 169 0
-94 170 0
-95 169 0
-95 173 0
-96 169 0
-96 175 0
-97 169 0
-97 179 0
-98 169 0
-98 181 0
-99 169 0
-99 184 0
-100 169 0
-100 186 0
-101 170 0
-101 171 0
-102 170 0
-102 174 0
-103 170 0
-103 177 0
-104 170 0
-104 180 0
-105 170 0
-105 182 0
-106 170 0
-106 185 0
-107 171 0
-107 176 0
-108 171 0
-108 178 0
-109 171 0
-109 181 0
-110 171 0
-110 187 0
-111 172 0
-111 176 0
-112 172 0
-112 177 0
-113 172 0
-113 179 0
-114 172 0
-114 187 0
-115 173 0
-115 176 0
-116 173 0
-116 178 0
-117 173 0
-117 180 0
-118 173 0
-118 187 0
-119 174 0
-119 176 0
-120 174 0
-120 179 0
-121 174 0
-121 181 0
-122 174 0
-122 187 0
-123 175 0
-123 176 0
-124 175 0
-124 177 0
-125 175 0
-125 180 0
-126 175 0
-126 187 0
-127 176 0
-127 182 0
-128 176 0
-128 183 0
-129 176 0
-129 184 0
-130 176 0
-130 185 0
-131 176 0
-131 186 0
-132 177 0
-132 188 0
-133 178 0
-133 188 0
-134 179 0
-134 188 0
-135 180 0
-135 188 0
-136 181 0
-136 188 0
-137 182 0
-137 188 0
-138 183 0
-138 188 0
-139 184 0
-139 188 0
-140 185 0
-140 188 0
-141 186 0
-141 188 0
-142 187 0
-142 188 0
-260 72 0
260 -72 0
-261 260 73 0
-261 -260 -73 0
261 -260 73 0
261 260 -73 0
-262 261 74 0
-262 -261 -74 0
262 -261 74 0
262 261 -74 0
-263 262 75 0
-263 -262 -75 0
263 -262 75 0
263 262 -75 0
-264 263 76 0
-264 -263 -76 0
264 -263 76 0
264 263 -76 0
-265 264 77 0
-265 -264 -77 0
265 -264 77 0
265 264 -77 0
-266 265 78 0
-266 -265 -78 0
266 -265 78 0
266 265 -78 0
-267 266 79 0
-267 -266 -79 0
267 -266 79 0
267 266 -79 0
-268 267 80 0
-268 -267 -80 0
268 -267 80 0
268 267 -80 0
-269 268 81 0
-269 -268 -81 0
269 -268 81 0
269 268 -81 0
-270 269 82 0
-270 -269 -82 0
270 -269 82 0
270 269 -82 0
-271 270 83 0
-271 -270 -83 0
271 -270 83 0
271 270 -83 0
-272 271 84 0
-272 -271 -84 0
272 -271 84 0
272 271 -84 0
-273 272 85 0
-273 -272 -85 0
273 -272 85 0
273 272 -85 0
-274 273 86 0
-274 -273 -86 0
274 -273 86 0
274 273 -86 0
-275 274 87 0
-275 -274 -87 0
275 -274 87 0
275 274 -87 0
-276 275 88 0
-276 -275 -88 0
276 -275 88 0
276 275 -88 0
-277 276 89 0
-277 -276 -89 0
277 -276 89 0
277 276 -89 0
-278 277 90 0
-278 -277 -90 0
278 -277 90 0
278 277 -90 0
-279 278 91 0
-279 -278 -91 0
279 -278 91 0
279 278 -91 0
-280 279 92 0
-280 -279 -92 0
280 -279 92 0
280 279 -92 0
-281 280 93 0
-281 -280 -93 0
281 -280 93 0
281 280 -93 0
-282 281 94 0
-282 -281 -94 0
282 -281 94 0
282 281 -94 0
-283 282 95 0
-283 -282 -95 0
283 -282 95 0
283 282 -95 0
-284 283 96 0
-284 -283 -96 0
284 -283 96 0
284 283 -96 0
-285 284 97 0
-285 -284 -97 0
285 -284 97 0
285 284 -97 0
-286 285 98 0
-286 -285 -98 0
286 -285 98 0
286 285 -98 0
-287 286 99 0
-287 -286 -99 0
287 -286 99 0
287 286 -99 0
-288 287 100 0
-288 -287 -100 0
288 -287 100 0
288 287 -100 0
-289 288 101 0
-289 -288 -101 0
289 -288 101 0
289 288 -101 0
-290 289 102 0
-290 -289 -102 0
290 -289 102 0
290 289 -102 0
-291 290 103 0
-291 -290 -103 0
291 -290 103 0
291 290 -103 0
-292 291 104 0
-292 -291 -104 0
292 -291 104 0
292 291 -104 0
-293 292 105 0
-293 -292 -105 0
293 -292 105 0
293 292 -105 0
-294 293 106 0
-294 -293 -106 0
294 -293 106 0
294 293 -106 0
-295 294 107 0
-295 -294 -107 0
295 -294 107 0
295 294 -107 0
-296 295 108 0
-296 -295 -108 0
296 -295 108 0
296 295 -108 0
-297 296 109 0
-297 -296 -109 0
297 -296 109 0
297 296 -109 0
-298 297 110 0
-298 -297 -110 0
298 -297 110 0
298 297 -110 0
-299 298 111 0
-299 -298 -111 0
299 -298 111 0
299 298 -111 0
-300 299 112 0
-300 -299 -112 0
300 -299 112 0
300 299 -112 0
-301 300 113 0
-301 -300 -113 0
301 -300 113 0
301 300 -113 0
-302 301 114 0
-302 -301 -114 0
302 -301 114 0
302 301 -114 0
-303 302 115 0
-303 -302 -115 0
303 -302 115 0
303 302 -115 0
-304 303 116 0
-304 -303 -116 0
304 -303 116 0
304 303 -116 0
-305 304 117 0
-305 -304 -117 0
305 -304 117 0
305 304 -117 0
-306 305 118 0
-306 -305 -118 0
306 -305 118 0
306 305 -118 0
-307 306 119 0
-307 -306 -119 0
307 -306 119 0
307 306 -119 0
-308 307 120 0
-308 -307 -120 0
308 -307 120 0
308 307 -120 0
-309 308 121 0
-309 -308 -121 0
309 -308 121 0
309 308 -121 0
-310 309 122 0
-310 -309 -122 0
310 -309 122 0
310 309 -122 0
-311 310 123 0
-311 -310 -123 0
311 -310 123 0
311 310 -123 0
-312 311 124 0
-312 -311 -124 0
312 -311 124 0
312 311 -124 0
-313 312 125 0
-313 -312 -125 0
313 -312 125 0
313 312 -125 0
-314 313 126 0
-314 -313 -126 0
314 -313 126 0
314 313 -126 0
-315 314 127 0
-315 -314 -127 0
315 -314 127 0
315 314 -127 0
-316 315 128 0
-316 -315 -128 0
316 -315 128 0
316 315 -128 0
-317 316 129 0
-317 -316 -129 0
317 -316 129 0
317 316 -129 0
-318 317 130 0
-318 -317 -130 0
318 -317 130 0
318 317 -130 0
-319 318 131 0
-319 -318 -131 0
319 -318 131 0
319 318 -131 0
-320 319 132 0
-320 -319 -132 0
320 -319 132 0
320 319 -132 0
-321 320 133 0
-321 -320 -133 0
321 -320 133 0
321 320 -133 0
-322 321 134 0
-322 -321 -134 0
322 -321 134 0
322 321 -134 0
-323 322 135 0
-323 -322 -135 0
323 -322 135 0
323 322 -135 0
-324 323 136 0
-324 -323 -136 0
324 -323 136 0
324 323 -136 0
-325 324 137 0
-325 -324 -137 0
325 -324 137 0
325 324 -137 0
-326 325 138 0
-326 -325 -138 0
326 -325 138 0
326 325 -138 0
-327 326 139 0
-327 -326 -139 0
327 -326 139 0
327 326 -139 0
-328 327 140 0
-328 -327 -140 0
328 -327 140 0
328 327 -140 0
-329 328 141 0
-329 -328 -141 0
329 -328 141 0
329 328 -141 0
-330 329 142 0
-330 -329 -142 0
330 -329 142 0
330 329 -142 0
330 0
-143 -166 0
-144 -167 0
-145 -168 0
-146 -169 0
-147 -170 0
-148 -171 0
-149 -172 0
-150 -173 0
-151 -174 0
-152 -175 0
-153 -176 0
-154 -177 0
-155 -178 0
-156 -179 0
-157 -180 0
-158 -181 0
-159 -182 0
-160 -183 0
-161 -184 0
-162 -185 0
-163 -186 0
-164 -187 0
-165 -188 0
-143 -167 0
-144 -166 0
-143 -170 0
-147 -166 0
-143 -172 0
-149 -166 0
-143 -175 0
-152 -166 0
-143 -178 0
-155 -166 0
-143 -181 0
-158 -166 0
-143 -183 0
-160 -166 0
-143 -186 0
-163 -166 0
-144 -168 0
-145 -167 0
-144 -171 0
-148 -167 0
-144 -173 0
-150 -167 0
-144 -177 0
-154 -167 0
-144 -179 0
-156 -167 0
-144 -182 0
-159 -167 0
-144 -184 0
-161 -167 0
-145 -169 0
-146 -168 0
-145 -172 0
-149 -168 0
-145 -174 0
-151 -168 0
-145 -178 0
-155 -168 0
-145 -180 0
-157 -168 0
-145 -183 0
-160 -168 0
-145 -185 0
-162 -168 0
-146 -170 0
-147 -169 0
-146 -173 0
-150 -169 0
-146 -175 0
-152 -169 0
-146 -179 0
-156 -169 0
-146 -181 0
-158 -169 0
-146 -184 0
-161 -169 0
-146 -186 0
-163 -169 0
-147 -171 0
-148 -170 0
-147 -174 0
-151 -170 0
-147 -177 0
-154 -170 0
-147 -180 0
-157 -170 0
-147 -182 0
-159 -170 0
-147 -185 0
-162 -170 0
-148 -176 0
-153 -171 0
-148 -178 0
-155 -171 0
-148 -181 0
-158 -171 0
-148 -187 0
-164 -171 0
-149 -176 0
-153 -172 0
-149 -177 0
-154 -172 0
-149 -179 0
-156 -172 0
-149 -187 0
-164 -172 0
-150 -176 0
-153 -173 0
-150 -178 0
-155 -173 0
-150 -180 0
-157 -173 0
-150 -187 0
-164 -173 0
-151 -176 0
-153 -174 0
-151 -179 0
-156 -174 0
-151 -181 0
-158 -174 0
-151 -187 0
-164 -174 0
-152 -176 0
-153 -175 0
-152 -177 0
-154 -175 0
-152 -180 0
-157 -175 0
-152 -187 0
-164 -175 0
-153 -182 0
-159 -176 0
-153 -183 0
-160 -176 0
-153 -184 0
-161 -176 0
-153 -185 0
-162 -176 0
-153 -186 0
-163 -176 0
-154 -188 0
-165 -177 0
-155 -188 0
-165 -178 0
-156 -188 0
-165 -179 0
-157 -188 0
-165 -180 0
-158 -188 0
-165 -181 0
-159 -188 0
-165 -182 0
-160 -188 0
-165 -183 0
-161 -188 0
-165 -184 0
-162 -188 0
-165 -185 0
-163 -188 0
-165 -186 0
-164 -188 0
-165 -187 0
