p cnf 1208 2996
-91 1 25 0
-91 -1 -25 0
91 -1 25 0
91 1 -25 0
-92 91 40 0
-92 -91 -40 0
92 -91 40 0
92 91 -40 0
-93 92 47 0
-93 -92 -47 0
93 -92 47 0
93 92 -47 0
-94 93 48 0
-94 -93 -48 0
94 -93 48 0
94 93 -48 0
-95 94 64 0
-95 -94 -64 0
95 -94 64 0
95 94 -64 0
-95 0
-96 2 26 0
-96 -2 -26 0
96 -2 26 0
96 2 -26 0
-97 96 41 0
-97 -96 -41 0
97 -96 41 0
97 96 -41 0
-98 97 46 0
-98 -97 -46 0
98 -97 46 0
98 97 -46 0
-99 98 48 0
-99 -98 -48 0
99 -98 48 0
99 98 -48 0
-100 99 65 0
-100 -99 -65 0
100 -99 65 0
100 99 -65 0
-100 0
-101 3 27 0
-101 -3 -27 0
101 -3 27 0
101 3 -27 0
-102 101 42 0
-102 -101 -42 0
102 -101 42 0
102 101 -42 0
-103 102 46 0
-103 -102 -46 0
103 -102 46 0
103 102 -46 0
-104 103 47 0
-104 -103 -47 0
104 -103 47 0
104 103 -47 0
-105 104 66 0
-105 -104 -66 0
105 -104 66 0
105 104 -66 0
-105 0
-106 4 28 0
-106 -4 -28 0
106 -4 28 0
106 4 -28 0
-107 106 43 0
-107 -106 -43 0
107 -106 43 0
107 106 -43 0
-108 107 50 0
-108 -107 -50 0
108 -107 50 0
108 107 -50 0
-109 108 51 0
-109 -108 -51 0
109 -108 51 0
109 108 -51 0
-110 109 67 0
-110 -109 -67 0
110 -109 67 0
110 109 -67 0
-110 0
-111 5 29 0
-111 -5 -29 0
111 -5 29 0
111 5 -29 0
-112 111 44 0
-112 -111 -44 0
112 -111 44 0
112 111 -44 0
-113 112 49 0
-113 -112 -49 0
113 -112 49 0
113 112 -49 0
-114 113 51 0
-114 -113 -51 0
114 -113 51 0
114 113 -51 0
-115 114 68 0
-115 -114 -68 0
115 -114 68 0
115 114 -68 0
-115 0
-116 6 30 0
-116 -6 -30 0
116 -6 30 0
116 6 -30 0
-117 116 45 0
-117 -116 -45 0
117 -116 45 0
117 116 -45 0
-118 117 49 0
-118 -117 -49 0
118 -117 49 0
118 117 -49 0
-119 118 50 0
-119 -118 -50 0
119 -118 50 0
119 118 -50 0
-120 119 69 0
-120 -119 -69 0
120 -119 69 0
120 119 -69 0
-120 0
-121 1 7 0
-121 -1 -7 0
121 -1 7 0
121 1 -7 0
-122 121 31 0
-122 -121 -31 0
122 -121 31 0
122 121 -31 0
-123 122 53 0
-123 -122 -53 0
123 -122 53 0
123 122 -53 0
-124 123 54 0
-124 -123 -54 0
124 -123 54 0
124 123 -54 0
-125 124 70 0
-125 -124 -70 0
125 -124 70 0
125 124 -70 0
-125 0
-126 2 8 0
-126 -2 -8 0
126 -2 8 0
126 2 -8 0
-127 126 32 0
-127 -126 -32 0
127 -126 32 0
127 126 -32 0
-128 127 52 0
-128 -127 -52 0
128 -127 52 0
128 127 -52 0
-129 128 54 0
-129 -128 -54 0
129 -128 54 0
129 128 -54 0
-130 129 71 0
-130 -129 -71 0
130 -129 71 0
130 129 -71 0
-130 0
-131 3 9 0
-131 -3 -9 0
131 -3 9 0
131 3 -9 0
-132 131 33 0
-132 -131 -33 0
132 -131 33 0
132 131 -33 0
-133 132 52 0
-133 -132 -52 0
133 -132 52 0
133 132 -52 0
-134 133 53 0
-134 -133 -53 0
134 -133 53 0
134 133 -53 0
-135 134 72 0
-135 -134 -72 0
135 -134 72 0
135 134 -72 0
-135 0
-136 4 10 0
-136 -4 -10 0
136 -4 10 0
136 4 -10 0
-137 136 34 0
-137 -136 -34 0
137 -136 34 0
137 136 -34 0
-138 137 56 0
-138 -137 -56 0
138 -137 56 0
138 137 -56 0
-139 138 57 0
-139 -138 -57 0
139 -138 57 0
139 138 -57 0
-140 139 73 0
-140 -139 -73 0
140 -139 73 0
140 139 -73 0
-140 0
-141 5 11 0
-141 -5 -11 0
141 -5 11 0
141 5 -11 0
-142 141 35 0
-142 -141 -35 0
142 -141 35 0
142 141 -35 0
-143 142 55 0
-143 -142 -55 0
143 -142 55 0
143 142 -55 0
-144 143 57 0
-144 -143 -57 0
144 -143 57 0
144 143 -57 0
-145 144 74 0
-145 -144 -74 0
145 -144 74 0
145 144 -74 0
-145 0
-146 6 12 0
-146 -6 -12 0
146 -6 12 0
146 6 -12 0
-147 146 36 0
-147 -146 -36 0
147 -146 36 0
147 146 -36 0
-148 147 55 0
-148 -147 -55 0
148 -147 55 0
148 147 -55 0
-149 148 56 0
-149 -148 -56 0
149 -148 56 0
149 148 -56 0
-150 149 75 0
-150 -149 -75 0
150 -149 75 0
150 149 -75 0
-150 0
-151 7 13 0
-151 -7 -13 0
151 -7 13 0
151 7 -13 0
-152 151 37 0
-152 -151 -37 0
152 -151 37 0
152 151 -37 0
-153 152 59 0
-153 -152 -59 0
153 -152 59 0
153 152 -59 0
-154 153 60 0
-154 -153 -60 0
154 -153 60 0
154 153 -60 0
-155 154 76 0
-155 -154 -76 0
155 -154 76 0
155 154 -76 0
-155 0
-156 8 14 0
-156 -8 -14 0
156 -8 14 0
156 8 -14 0
-157 156 38 0
-157 -156 -38 0
157 -156 38 0
157 156 -38 0
-158 157 58 0
-158 -157 -58 0
158 -157 58 0
158 157 -58 0
-159 158 60 0
-159 -158 -60 0
159 -158 60 0
159 158 -60 0
-160 159 77 0
-160 -159 -77 0
160 -159 77 0
160 159 -77 0
-160 0
-161 9 15 0
-161 -9 -15 0
161 -9 15 0
161 9 -15 0
-162 161 39 0
-162 -161 -39 0
162 -161 39 0
162 161 -39 0
-163 162 58 0
-163 -162 -58 0
163 -162 58 0
163 162 -58 0
-164 163 59 0
-164 -163 -59 0
164 -163 59 0
164 163 -59 0
-165 164 78 0
-165 -164 -78 0
165 -164 78 0
165 164 -78 0
-165 0
-166 10 16 0
-166 -10 -16 0
166 -10 16 0
166 10 -16 0
-167 166 40 0
-167 -166 -40 0
167 -166 40 0
167 166 -40 0
-168 167 62 0
-168 -167 -62 0
168 -167 62 0
168 167 -62 0
-169 168 63 0
-169 -168 -63 0
169 -168 63 0
169 168 -63 0
-170 169 79 0
-170 -169 -79 0
170 -169 79 0
170 169 -79 0
-170 0
-171 11 17 0
-171 -11 -17 0
171 -11 17 0
171 11 -17 0
-172 171 41 0
-172 -171 -41 0
172 -171 41 0
172 171 -41 0
-173 172 61 0
-173 -172 -61 0
173 -172 61 0
173 172 -61 0
-174 173 63 0
-174 -173 -63 0
174 -173 63 0
174 173 -63 0
-175 174 80 0
-175 -174 -80 0
175 -174 80 0
175 174 -80 0
-175 0
-176 12 18 0
-176 -12 -18 0
176 -12 18 0
176 12 -18 0
-177 176 42 0
-177 -176 -42 0
177 -176 42 0
177 176 -42 0
-178 177 61 0
-178 -177 -61 0
178 -177 61 0
178 177 -61 0
-179 178 62 0
-179 -178 -62 0
179 -178 62 0
179 178 -62 0
-180 179 81 0
-180 -179 -81 0
180 -179 81 0
180 179 -81 0
-180 0
-181 13 19 0
-181 -13 -19 0
181 -13 19 0
181 13 -19 0
-182 181 43 0
-182 -181 -43 0
182 -181 43 0
182 181 -43 0
-183 182 65 0
-183 -182 -65 0
183 -182 65 0
183 182 -65 0
-184 183 66 0
-184 -183 -66 0
184 -183 66 0
184 183 -66 0
-185 184 82 0
-185 -184 -82 0
185 -184 82 0
185 184 -82 0
-185 0
-186 14 20 0
-186 -14 -20 0
186 -14 20 0
186 14 -20 0
-187 186 44 0
-187 -186 -44 0
187 -186 44 0
187 186 -44 0
-188 187 64 0
-188 -187 -64 0
188 -187 64 0
188 187 -64 0
-189 188 66 0
-189 -188 -66 0
189 -188 66 0
189 188 -66 0
-190 189 83 0
-190 -189 -83 0
190 -189 83 0
190 189 -83 0
-190 0
-191 15 21 0
-191 -15 -21 0
191 -15 21 0
191 15 -21 0
-192 191 45 0
-192 -191 -45 0
192 -191 45 0
192 191 -45 0
-193 192 64 0
-193 -192 -64 0
193 -192 64 0
193 192 -64 0
-194 193 65 0
-194 -193 -65 0
194 -193 65 0
194 193 -65 0
-195 194 84 0
-195 -194 -84 0
195 -194 84 0
195 194 -84 0
-195 0
-196 1 16 0
-196 -1 -16 0
196 -1 16 0
196 1 -16 0
-197 196 22 0
-197 -196 -22 0
197 -196 22 0
197 196 -22 0
-198 197 68 0
-198 -197 -68 0
198 -197 68 0
198 197 -68 0
-199 198 69 0
-199 -198 -69 0
199 -198 69 0
199 198 -69 0
-200 199 85 0
-200 -199 -85 0
200 -199 85 0
200 199 -85 0
-200 0
-201 2 17 0
-201 -2 -17 0
201 -2 17 0
201 2 -17 0
-202 201 23 0
-202 -201 -23 0
202 -201 23 0
202 201 -23 0
-203 202 67 0
-203 -202 -67 0
203 -202 67 0
203 202 -67 0
-204 203 69 0
-204 -203 -69 0
204 -203 69 0
204 203 -69 0
-205 204 86 0
-205 -204 -86 0
205 -204 86 0
205 204 -86 0
-205 0
-206 3 18 0
-206 -3 -18 0
206 -3 18 0
206 3 -18 0
-207 206 24 0
-207 -206 -24 0
207 -206 24 0
207 206 -24 0
-208 207 67 0
-208 -207 -67 0
208 -207 67 0
208 207 -67 0
-209 208 68 0
-209 -208 -68 0
209 -208 68 0
209 208 -68 0
-210 209 87 0
-210 -209 -87 0
210 -209 87 0
210 209 -87 0
-210 0
-211 4 19 0
-211 -4 -19 0
211 -4 19 0
211 4 -19 0
-212 211 25 0
-212 -211 -25 0
212 -211 25 0
212 211 -25 0
-213 212 71 0
-213 -212 -71 0
213 -212 71 0
213 212 -71 0
-214 213 72 0
-214 -213 -72 0
214 -213 72 0
214 213 -72 0
-215 214 88 0
-215 -214 -88 0
215 -214 88 0
215 214 -88 0
-215 0
-216 5 20 0
-216 -5 -20 0
216 -5 20 0
216 5 -20 0
-217 216 26 0
-217 -216 -26 0
217 -216 26 0
217 216 -26 0
-218 217 70 0
-218 -217 -70 0
218 -217 70 0
218 217 -70 0
-219 218 72 0
-219 -218 -72 0
219 -218 72 0
219 218 -72 0
-220 219 89 0
-220 -219 -89 0
220 -219 89 0
220 219 -89 0
-220 0
-221 6 21 0
-221 -6 -21 0
221 -6 21 0
221 6 -21 0
-222 221 27 0
-222 -221 -27 0
222 -221 27 0
222 221 -27 0
-223 222 70 0
-223 -222 -70 0
223 -222 70 0
223 222 -70 0
-224 223 71 0
-224 -223 -71 0
224 -223 71 0
224 223 -71 0
-225 224 90 0
-225 -224 -90 0
225 -224 90 0
225 224 -90 0
-225 0
-226 7 22 0
-226 -7 -22 0
226 -7 22 0
226 7 -22 0
-227 226 28 0
-227 -226 -28 0
227 -226 28 0
227 226 -28 0
-228 227 46 0
-228 -227 -46 0
228 -227 46 0
228 227 -46 0
-229 228 74 0
-229 -228 -74 0
229 -228 74 0
229 228 -74 0
-230 229 75 0
-230 -229 -75 0
230 -229 75 0
230 229 -75 0
-230 0
-231 8 23 0
-231 -8 -23 0
231 -8 23 0
231 8 -23 0
-232 231 29 0
-232 -231 -29 0
232 -231 29 0
232 231 -29 0
-233 232 47 0
-233 -232 -47 0
233 -232 47 0
233 232 -47 0
-234 233 73 0
-234 -233 -73 0
234 -233 73 0
234 233 -73 0
-235 234 75 0
-235 -234 -75 0
235 -234 75 0
235 234 -75 0
-235 0
-236 9 24 0
-236 -9 -24 0
236 -9 24 0
236 9 -24 0
-237 236 30 0
-237 -236 -30 0
237 -236 30 0
237 236 -30 0
-238 237 48 0
-238 -237 -48 0
238 -237 48 0
238 237 -48 0
-239 238 73 0
-239 -238 -73 0
239 -238 73 0
239 238 -73 0
-240 239 74 0
-240 -239 -74 0
240 -239 74 0
240 239 -74 0
-240 0
-241 10 25 0
-241 -10 -25 0
241 -10 25 0
241 10 -25 0
-242 241 31 0
-242 -241 -31 0
242 -241 31 0
242 241 -31 0
-243 242 49 0
-243 -242 -49 0
243 -242 49 0
243 242 -49 0
-244 243 77 0
-244 -243 -77 0
244 -243 77 0
244 243 -77 0
-245 244 78 0
-245 -244 -78 0
245 -244 78 0
245 244 -78 0
-245 0
-246 11 26 0
-246 -11 -26 0
246 -11 26 0
246 11 -26 0
-247 246 32 0
-247 -246 -32 0
247 -246 32 0
247 246 -32 0
-248 247 50 0
-248 -247 -50 0
248 -247 50 0
248 247 -50 0
-249 248 76 0
-249 -248 -76 0
249 -248 76 0
249 248 -76 0
-250 249 78 0
-250 -249 -78 0
250 -249 78 0
250 249 -78 0
-250 0
-251 12 27 0
-251 -12 -27 0
251 -12 27 0
251 12 -27 0
-252 251 33 0
-252 -251 -33 0
252 -251 33 0
252 251 -33 0
-253 252 51 0
-253 -252 -51 0
253 -252 51 0
253 252 -51 0
-254 253 76 0
-254 -253 -76 0
254 -253 76 0
254 253 -76 0
-255 254 77 0
-255 -254 -77 0
255 -254 77 0
255 254 -77 0
-255 0
-256 13 28 0
-256 -13 -28 0
256 -13 28 0
256 13 -28 0
-257 256 34 0
-257 -256 -34 0
257 -256 34 0
257 256 -34 0
-258 257 52 0
-258 -257 -52 0
258 -257 52 0
258 257 -52 0
-259 258 80 0
-259 -258 -80 0
259 -258 80 0
259 258 -80 0
-260 259 81 0
-260 -259 -81 0
260 -259 81 0
260 259 -81 0
-260 0
-261 14 29 0
-261 -14 -29 0
261 -14 29 0
261 14 -29 0
-262 261 35 0
-262 -261 -35 0
262 -261 35 0
262 261 -35 0
-263 262 53 0
-263 -262 -53 0
263 -262 53 0
263 262 -53 0
-264 263 79 0
-264 -263 -79 0
264 -263 79 0
264 263 -79 0
-265 264 81 0
-265 -264 -81 0
265 -264 81 0
265 264 -81 0
-265 0
-266 15 30 0
-266 -15 -30 0
266 -15 30 0
266 15 -30 0
-267 266 36 0
-267 -266 -36 0
267 -266 36 0
267 266 -36 0
-268 267 54 0
-268 -267 -54 0
268 -267 54 0
268 267 -54 0
-269 268 79 0
-269 -268 -79 0
269 -268 79 0
269 268 -79 0
-270 269 80 0
-270 -269 -80 0
270 -269 80 0
270 269 -80 0
-270 0
-271 16 31 0
-271 -16 -31 0
271 -16 31 0
271 16 -31 0
-272 271 37 0
-272 -271 -37 0
272 -271 37 0
272 271 -37 0
-273 272 55 0
-273 -272 -55 0
273 -272 55 0
273 272 -55 0
-274 273 83 0
-274 -273 -83 0
274 -273 83 0
274 273 -83 0
-275 274 84 0
-275 -274 -84 0
275 -274 84 0
275 274 -84 0
-275 0
-276 17 32 0
-276 -17 -32 0
276 -17 32 0
276 17 -32 0
-277 276 38 0
-277 -276 -38 0
277 -276 38 0
277 276 -38 0
-278 277 56 0
-278 -277 -56 0
278 -277 56 0
278 277 -56 0
-279 278 82 0
-279 -278 -82 0
279 -278 82 0
279 278 -82 0
-280 279 84 0
-280 -279 -84 0
280 -279 84 0
280 279 -84 0
-280 0
-281 18 33 0
-281 -18 -33 0
281 -18 33 0
281 18 -33 0
-282 281 39 0
-282 -281 -39 0
282 -281 39 0
282 281 -39 0
-283 282 57 0
-283 -282 -57 0
283 -282 57 0
283 282 -57 0
-284 283 82 0
-284 -283 -82 0
284 -283 82 0
284 283 -82 0
-285 284 83 0
-285 -284 -83 0
285 -284 83 0
285 284 -83 0
-285 0
-286 19 34 0
-286 -19 -34 0
286 -19 34 0
286 19 -34 0
-287 286 40 0
-287 -286 -40 0
287 -286 40 0
287 286 -40 0
-288 287 58 0
-288 -287 -58 0
288 -287 58 0
288 287 -58 0
-289 288 86 0
-289 -288 -86 0
289 -288 86 0
289 288 -86 0
-290 289 87 0
-290 -289 -87 0
290 -289 87 0
290 289 -87 0
-290 0
-291 20 35 0
-291 -20 -35 0
291 -20 35 0
291 20 -35 0
-292 291 41 0
-292 -291 -41 0
292 -291 41 0
292 291 -41 0
-293 292 59 0
-293 -292 -59 0
293 -292 59 0
293 292 -59 0
-294 293 85 0
-294 -293 -85 0
294 -293 85 0
294 293 -85 0
-295 294 87 0
-295 -294 -87 0
295 -294 87 0
295 294 -87 0
-295 0
-296 21 36 0
-296 -21 -36 0
296 -21 36 0
296 21 -36 0
-297 296 42 0
-297 -296 -42 0
297 -296 42 0
297 296 -42 0
-298 297 60 0
-298 -297 -60 0
298 -297 60 0
298 297 -60 0
-299 298 85 0
-299 -298 -85 0
299 -298 85 0
299 298 -85 0
-300 299 86 0
-300 -299 -86 0
300 -299 86 0
300 299 -86 0
-300 0
-301 22 37 0
-301 -22 -37 0
301 -22 37 0
301 22 -37 0
-302 301 43 0
-302 -301 -43 0
302 -301 43 0
302 301 -43 0
-303 302 61 0
-303 -302 -61 0
303 -302 61 0
303 302 -61 0
-304 303 89 0
-304 -303 -89 0
304 -303 89 0
304 303 -89 0
-305 304 90 0
-305 -304 -90 0
305 -304 90 0
305 304 -90 0
-305 0
-306 23 38 0
-306 -23 -38 0
306 -23 38 0
306 23 -38 0
-307 306 44 0
-307 -306 -44 0
307 -306 44 0
307 306 -44 0
-308 307 62 0
-308 -307 -62 0
308 -307 62 0
308 307 -62 0
-309 308 88 0
-309 -308 -88 0
309 -308 88 0
309 308 -88 0
-310 309 90 0
-310 -309 -90 0
310 -309 90 0
310 309 -90 0
-310 0
-311 24 39 0
-311 -24 -39 0
311 -24 39 0
311 24 -39 0
-312 311 45 0
-312 -311 -45 0
312 -311 45 0
312 311 -45 0
-313 312 63 0
-313 -312 -63 0
313 -312 63 0
313 312 -63 0
-314 313 88 0
-314 -313 -88 0
314 -313 88 0
314 313 -88 0
-315 314 89 0
-315 -314 -89 0
315 -314 89 0
315 314 -89 0
-315 0
-316 1 2 0
-316 -1 -2 0
316 -1 2 0
316 1 -2 0
-317 316 10 0
-317 -316 -10 0
317 -316 10 0
317 316 -10 0
-318 317 11 0
-318 -317 -11 0
318 -317 11 0
318 317 -11 0
-319 318 19 0
-319 -318 -19 0
319 -318 19 0
319 318 -19 0
-320 319 20 0
-320 -319 -20 0
320 -319 20 0
320 319 -20 0
-321 320 28 0
-321 -320 -28 0
321 -320 28 0
321 320 -28 0
-322 321 29 0
-322 -321 -29 0
322 -321 29 0
322 321 -29 0
-323 322 37 0
-323 -322 -37 0
323 -322 37 0
323 322 -37 0
-324 323 38 0
-324 -323 -38 0
324 -323 38 0
324 323 -38 0
-325 1 3 0
-325 -1 -3 0
325 -1 3 0
325 1 -3 0
-326 325 10 0
-326 -325 -10 0
326 -325 10 0
326 325 -10 0
-327 326 12 0
-327 -326 -12 0
327 -326 12 0
327 326 -12 0
-328 327 19 0
-328 -327 -19 0
328 -327 19 0
328 327 -19 0
-329 328 21 0
-329 -328 -21 0
329 -328 21 0
329 328 -21 0
-330 329 28 0
-330 -329 -28 0
330 -329 28 0
330 329 -28 0
-331 330 30 0
-331 -330 -30 0
331 -330 30 0
331 330 -30 0
-332 331 37 0
-332 -331 -37 0
332 -331 37 0
332 331 -37 0
-333 332 39 0
-333 -332 -39 0
333 -332 39 0
333 332 -39 0
-334 4 5 0
-334 -4 -5 0
334 -4 5 0
334 4 -5 0
-335 334 13 0
-335 -334 -13 0
335 -334 13 0
335 334 -13 0
-336 335 14 0
-336 -335 -14 0
336 -335 14 0
336 335 -14 0
-337 336 22 0
-337 -336 -22 0
337 -336 22 0
337 336 -22 0
-338 337 23 0
-338 -337 -23 0
338 -337 23 0
338 337 -23 0
-339 338 31 0
-339 -338 -31 0
339 -338 31 0
339 338 -31 0
-340 339 32 0
-340 -339 -32 0
340 -339 32 0
340 339 -32 0
-341 340 40 0
-341 -340 -40 0
341 -340 40 0
341 340 -40 0
-342 341 41 0
-342 -341 -41 0
342 -341 41 0
342 341 -41 0
-343 4 6 0
-343 -4 -6 0
343 -4 6 0
343 4 -6 0
-344 343 13 0
-344 -343 -13 0
344 -343 13 0
344 343 -13 0
-345 344 15 0
-345 -344 -15 0
345 -344 15 0
345 344 -15 0
-346 345 22 0
-346 -345 -22 0
346 -345 22 0
346 345 -22 0
-347 346 24 0
-347 -346 -24 0
347 -346 24 0
347 346 -24 0
-348 347 31 0
-348 -347 -31 0
348 -347 31 0
348 347 -31 0
-349 348 33 0
-349 -348 -33 0
349 -348 33 0
349 348 -33 0
-350 349 40 0
-350 -349 -40 0
350 -349 40 0
350 349 -40 0
-351 350 42 0
-351 -350 -42 0
351 -350 42 0
351 350 -42 0
-352 5 6 0
-352 -5 -6 0
352 -5 6 0
352 5 -6 0
-353 352 7 0
-353 -352 -7 0
353 -352 7 0
353 352 -7 0
-354 353 8 0
-354 -353 -8 0
354 -353 8 0
354 353 -8 0
-355 354 9 0
-355 -354 -9 0
355 -354 9 0
355 354 -9 0
-356 355 10 0
-356 -355 -10 0
356 -355 10 0
356 355 -10 0
-357 356 11 0
-357 -356 -11 0
357 -356 11 0
357 356 -11 0
-358 357 12 0
-358 -357 -12 0
358 -357 12 0
358 357 -12 0
-359 358 22 0
-359 -358 -22 0
359 -358 22 0
359 358 -22 0
-360 359 25 0
-360 -359 -25 0
360 -359 25 0
360 359 -25 0
-361 360 28 0
-361 -360 -28 0
361 -360 28 0
361 360 -28 0
-362 361 31 0
-362 -361 -31 0
362 -361 31 0
362 361 -31 0
-363 362 32 0
-363 -362 -32 0
363 -362 32 0
363 362 -32 0
-364 363 33 0
-364 -363 -33 0
364 -363 33 0
364 363 -33 0
-365 364 46 0
-365 -364 -46 0
365 -364 46 0
365 364 -46 0
-366 365 49 0
-366 -365 -49 0
366 -365 49 0
366 365 -49 0
-367 4 6 0
-367 -4 -6 0
367 -4 6 0
367 4 -6 0
-368 367 7 0
-368 -367 -7 0
368 -367 7 0
368 367 -7 0
-369 368 8 0
-369 -368 -8 0
369 -368 8 0
369 368 -8 0
-370 369 9 0
-370 -369 -9 0
370 -369 9 0
370 369 -9 0
-371 370 10 0
-371 -370 -10 0
371 -370 10 0
371 370 -10 0
-372 371 11 0
-372 -371 -11 0
372 -371 11 0
372 371 -11 0
-373 372 12 0
-373 -372 -12 0
373 -372 12 0
373 372 -12 0
-374 373 23 0
-374 -373 -23 0
374 -373 23 0
374 373 -23 0
-375 374 26 0
-375 -374 -26 0
375 -374 26 0
375 374 -26 0
-376 375 29 0
-376 -375 -29 0
376 -375 29 0
376 375 -29 0
-377 376 31 0
-377 -376 -31 0
377 -376 31 0
377 376 -31 0
-378 377 32 0
-378 -377 -32 0
378 -377 32 0
378 377 -32 0
-379 378 33 0
-379 -378 -33 0
379 -378 33 0
379 378 -33 0
-380 379 47 0
-380 -379 -47 0
380 -379 47 0
380 379 -47 0
-381 380 50 0
-381 -380 -50 0
381 -380 50 0
381 380 -50 0
-382 5 6 0
-382 -5 -6 0
382 -5 6 0
382 5 -6 0
-383 382 7 0
-383 -382 -7 0
383 -382 7 0
383 382 -7 0
-384 383 13 0
-384 -383 -13 0
384 -383 13 0
384 383 -13 0
-385 384 14 0
-385 -384 -14 0
385 -384 14 0
385 384 -14 0
-386 385 15 0
-386 -385 -15 0
386 -385 15 0
386 385 -15 0
-387 386 22 0
-387 -386 -22 0
387 -386 22 0
387 386 -22 0
-388 387 32 0
-388 -387 -32 0
388 -387 32 0
388 387 -32 0
-389 388 33 0
-389 -388 -33 0
389 -388 33 0
389 388 -33 0
-390 389 34 0
-390 -389 -34 0
390 -389 34 0
390 389 -34 0
-391 390 35 0
-391 -390 -35 0
391 -390 35 0
391 390 -35 0
-392 391 36 0
-392 -391 -36 0
392 -391 36 0
392 391 -36 0
-393 392 46 0
-393 -392 -46 0
393 -392 46 0
393 392 -46 0
-394 393 52 0
-394 -393 -52 0
394 -393 52 0
394 393 -52 0
-395 4 6 0
-395 -4 -6 0
395 -4 6 0
395 4 -6 0
-396 395 8 0
-396 -395 -8 0
396 -395 8 0
396 395 -8 0
-397 396 13 0
-397 -396 -13 0
397 -396 13 0
397 396 -13 0
-398 397 14 0
-398 -397 -14 0
398 -397 14 0
398 397 -14 0
-399 398 15 0
-399 -398 -15 0
399 -398 15 0
399 398 -15 0
-400 399 23 0
-400 -399 -23 0
400 -399 23 0
400 399 -23 0
-401 400 31 0
-401 -400 -31 0
401 -400 31 0
401 400 -31 0
-402 401 33 0
-402 -401 -33 0
402 -401 33 0
402 401 -33 0
-403 402 34 0
-403 -402 -34 0
403 -402 34 0
403 402 -34 0
-404 403 35 0
-404 -403 -35 0
404 -403 35 0
404 403 -35 0
-405 404 36 0
-405 -404 -36 0
405 -404 36 0
405 404 -36 0
-406 405 47 0
-406 -405 -47 0
406 -405 47 0
406 405 -47 0
-407 406 53 0
-407 -406 -53 0
407 -406 53 0
407 406 -53 0
324 333 342 351 366 381 394 407 0
-1 408 0
-409 0
-410 0
-411 0
-412 0
-413 0
-414 0
-415 0
-416 0
-2 417 0
-408 417 0
-2 -408 418 0
-409 418 0
-2 -409 419 0
-410 419 0
-2 -410 420 0
-411 420 0
-2 -411 421 0
-412 421 0
-2 -412 422 0
-413 422 0
-2 -413 423 0
-414 423 0
-2 -414 424 0
-415 424 0
-2 -415 425 0
-416 425 0
-2 -416 0
-3 426 0
-417 426 0
-3 -417 427 0
-418 427 0
-3 -418 428 0
-419 428 0
-3 -419 429 0
-420 429 0
-3 -420 430 0
-421 430 0
-3 -421 431 0
-422 431 0
-3 -422 432 0
-423 432 0
-3 -423 433 0
-424 433 0
-3 -424 434 0
-425 434 0
-3 -425 0
-4 435 0
-426 435 0
-4 -426 436 0
-427 436 0
-4 -427 437 0
-428 437 0
-4 -428 438 0
-429 438 0
-4 -429 439 0
-430 439 0
-4 -430 440 0
-431 440 0
-4 -431 441 0
-432 441 0
-4 -432 442 0
-433 442 0
-4 -433 443 0
-434 443 0
-4 -434 0
-5 444 0
-435 444 0
-5 -435 445 0
-436 445 0
-5 -436 446 0
-437 446 0
-5 -437 447 0
-438 447 0
-5 -438 448 0
-439 448 0
-5 -439 449 0
-440 449 0
-5 -440 450 0
-441 450 0
-5 -441 451 0
-442 451 0
-5 -442 452 0
-443 452 0
-5 -443 0
-6 453 0
-444 453 0
-6 -444 454 0
-445 454 0
-6 -445 455 0
-446 455 0
-6 -446 456 0
-447 456 0
-6 -447 457 0
-448 457 0
-6 -448 458 0
-449 458 0
-6 -449 459 0
-450 459 0
-6 -450 460 0
-451 460 0
-6 -451 461 0
-452 461 0
-6 -452 0
-7 462 0
-453 462 0
-7 -453 463 0
-454 463 0
-7 -454 464 0
-455 464 0
-7 -455 465 0
-456 465 0
-7 -456 466 0
-457 466 0
-7 -457 467 0
-458 467 0
-7 -458 468 0
-459 468 0
-7 -459 469 0
-460 469 0
-7 -460 470 0
-461 470 0
-7 -461 0
-8 471 0
-462 471 0
-8 -462 472 0
-463 472 0
-8 -463 473 0
-464 473 0
-8 -464 474 0
-465 474 0
-8 -465 475 0
-466 475 0
-8 -466 476 0
-467 476 0
-8 -467 477 0
-468 477 0
-8 -468 478 0
-469 478 0
-8 -469 479 0
-470 479 0
-8 -470 0
-9 480 0
-471 480 0
-9 -471 481 0
-472 481 0
-9 -472 482 0
-473 482 0
-9 -473 483 0
-474 483 0
-9 -474 484 0
-475 484 0
-9 -475 485 0
-476 485 0
-9 -476 486 0
-477 486 0
-9 -477 487 0
-478 487 0
-9 -478 488 0
-479 488 0
-9 -479 0
-10 489 0
-480 489 0
-10 -480 490 0
-481 490 0
-10 -481 491 0
-482 491 0
-10 -482 492 0
-483 492 0
-10 -483 493 0
-484 493 0
-10 -484 494 0
-485 494 0
-10 -485 495 0
-486 495 0
-10 -486 496 0
-487 496 0
-10 -487 497 0
-488 497 0
-10 -488 0
-11 498 0
-489 498 0
-11 -489 499 0
-490 499 0
-11 -490 500 0
-491 500 0
-11 -491 501 0
-492 501 0
-11 -492 502 0
-493 502 0
-11 -493 503 0
-494 503 0
-11 -494 504 0
-495 504 0
-11 -495 505 0
-496 505 0
-11 -496 506 0
-497 506 0
-11 -497 0
-12 507 0
-498 507 0
-12 -498 508 0
-499 508 0
-12 -499 509 0
-500 509 0
-12 -500 510 0
-501 510 0
-12 -501 511 0
-502 511 0
-12 -502 512 0
-503 512 0
-12 -503 513 0
-504 513 0
-12 -504 514 0
-505 514 0
-12 -505 515 0
-506 515 0
-12 -506 0
-13 516 0
-507 516 0
-13 -507 517 0
-508 517 0
-13 -508 518 0
-509 518 0
-13 -509 519 0
-510 519 0
-13 -510 520 0
-511 520 0
-13 -511 521 0
-512 521 0
-13 -512 522 0
-513 522 0
-13 -513 523 0
-514 523 0
-13 -514 524 0
-515 524 0
-13 -515 0
-14 525 0
-516 525 0
-14 -516 526 0
-517 526 0
-14 -517 527 0
-518 527 0
-14 -518 528 0
-519 528 0
-14 -519 529 0
-520 529 0
-14 -520 530 0
-521 530 0
-14 -521 531 0
-522 531 0
-14 -522 532 0
-523 532 0
-14 -523 533 0
-524 533 0
-14 -524 0
-15 534 0
-525 534 0
-15 -525 535 0
-526 535 0
-15 -526 536 0
-527 536 0
-15 -527 537 0
-528 537 0
-15 -528 538 0
-529 538 0
-15 -529 539 0
-530 539 0
-15 -530 540 0
-531 540 0
-15 -531 541 0
-532 541 0
-15 -532 542 0
-533 542 0
-15 -533 0
-16 543 0
-534 543 0
-16 -534 544 0
-535 544 0
-16 -535 545 0
-536 545 0
-16 -536 546 0
-537 546 0
-16 -537 547 0
-538 547 0
-16 -538 548 0
-539 548 0
-16 -539 549 0
-540 549 0
-16 -540 550 0
-541 550 0
-16 -541 551 0
-542 551 0
-16 -542 0
-17 552 0
-543 552 0
-17 -543 553 0
-544 553 0
-17 -544 554 0
-545 554 0
-17 -545 555 0
-546 555 0
-17 -546 556 0
-547 556 0
-17 -547 557 0
-548 557 0
-17 -548 558 0
-549 558 0
-17 -549 559 0
-550 559 0
-17 -550 560 0
-551 560 0
-17 -551 0
-18 561 0
-552 561 0
-18 -552 562 0
-553 562 0
-18 -553 563 0
-554 563 0
-18 -554 564 0
-555 564 0
-18 -555 565 0
-556 565 0
-18 -556 566 0
-557 566 0
-18 -557 567 0
-558 567 0
-18 -558 568 0
-559 568 0
-18 -559 569 0
-560 569 0
-18 -560 0
-19 570 0
-561 570 0
-19 -561 571 0
-562 571 0
-19 -562 572 0
-563 572 0
-19 -563 573 0
-564 573 0
-19 -564 574 0
-565 574 0
-19 -565 575 0
-566 575 0
-19 -566 576 0
-567 576 0
-19 -567 577 0
-568 577 0
-19 -568 578 0
-569 578 0
-19 -569 0
-20 579 0
-570 579 0
-20 -570 580 0
-571 580 0
-20 -571 581 0
-572 581 0
-20 -572 582 0
-573 582 0
-20 -573 583 0
-574 583 0
-20 -574 584 0
-575 584 0
-20 -575 585 0
-576 585 0
-20 -576 586 0
-577 586 0
-20 -577 587 0
-578 587 0
-20 -578 0
-21 588 0
-579 588 0
-21 -579 589 0
-580 589 0
-21 -580 590 0
-581 590 0
-21 -581 591 0
-582 591 0
-21 -582 592 0
-583 592 0
-21 -583 593 0
-584 593 0
-21 -584 594 0
-585 594 0
-21 -585 595 0
-586 595 0
-21 -586 596 0
-587 596 0
-21 -587 0
-22 597 0
-588 597 0
-22 -588 598 0
-589 598 0
-22 -589 599 0
-590 599 0
-22 -590 600 0
-591 600 0
-22 -591 601 0
-592 601 0
-22 -592 602 0
-593 602 0
-22 -593 603 0
-594 603 0
-22 -594 604 0
-595 604 0
-22 -595 605 0
-596 605 0
-22 -596 0
-23 606 0
-597 606 0
-23 -597 607 0
-598 607 0
-23 -598 608 0
-599 608 0
-23 -599 609 0
-600 609 0
-23 -600 610 0
-601 610 0
-23 -601 611 0
-602 611 0
-23 -602 612 0
-603 612 0
-23 -603 613 0
-604 613 0
-23 -604 614 0
-605 614 0
-23 -605 0
-24 615 0
-606 615 0
-24 -606 616 0
-607 616 0
-24 -607 617 0
-608 617 0
-24 -608 618 0
-609 618 0
-24 -609 619 0
-610 619 0
-24 -610 620 0
-611 620 0
-24 -611 621 0
-612 621 0
-24 -612 622 0
-613 622 0
-24 -613 623 0
-614 623 0
-24 -614 0
-25 624 0
-615 624 0
-25 -615 625 0
-616 625 0
-25 -616 626 0
-617 626 0
-25 -617 627 0
-618 627 0
-25 -618 628 0
-619 628 0
-25 -619 629 0
-620 629 0
-25 -620 630 0
-621 630 0
-25 -621 631 0
-622 631 0
-25 -622 632 0
-623 632 0
-25 -623 0
-26 633 0
-624 633 0
-26 -624 634 0
-625 634 0
-26 -625 635 0
-626 635 0
-26 -626 636 0
-627 636 0
-26 -627 637 0
-628 637 0
-26 -628 638 0
-629 638 0
-26 -629 639 0
-630 639 0
-26 -630 640 0
-631 640 0
-26 -631 641 0
-632 641 0
-26 -632 0
-27 642 0
-633 642 0
-27 -633 643 0
-634 643 0
-27 -634 644 0
-635 644 0
-27 -635 645 0
-636 645 0
-27 -636 646 0
-637 646 0
-27 -637 647 0
-638 647 0
-27 -638 648 0
-639 648 0
-27 -639 649 0
-640 649 0
-27 -640 650 0
-641 650 0
-27 -641 0
-28 651 0
-642 651 0
-28 -642 652 0
-643 652 0
-28 -643 653 0
-644 653 0
-28 -644 654 0
-645 654 0
-28 -645 655 0
-646 655 0
-28 -646 656 0
-647 656 0
-28 -647 657 0
-648 657 0
-28 -648 658 0
-649 658 0
-28 -649 659 0
-650 659 0
-28 -650 0
-29 660 0
-651 660 0
-29 -651 661 0
-652 661 0
-29 -652 662 0
-653 662 0
-29 -653 663 0
-654 663 0
-29 -654 664 0
-655 664 0
-29 -655 665 0
-656 665 0
-29 -656 666 0
-657 666 0
-29 -657 667 0
-658 667 0
-29 -658 668 0
-659 668 0
-29 -659 0
-30 669 0
-660 669 0
-30 -660 670 0
-661 670 0
-30 -661 671 0
-662 671 0
-30 -662 672 0
-663 672 0
-30 -663 673 0
-664 673 0
-30 -664 674 0
-665 674 0
-30 -665 675 0
-666 675 0
-30 -666 676 0
-667 676 0
-30 -667 677 0
-668 677 0
-30 -668 0
-31 678 0
-669 678 0
-31 -669 679 0
-670 679 0
-31 -670 680 0
-671 680 0
-31 -671 681 0
-672 681 0
-31 -672 682 0
-673 682 0
-31 -673 683 0
-674 683 0
-31 -674 684 0
-675 684 0
-31 -675 685 0
-676 685 0
-31 -676 686 0
-677 686 0
-31 -677 0
-32 687 0
-678 687 0
-32 -678 688 0
-679 688 0
-32 -679 689 0
-680 689 0
-32 -680 690 0
-681 690 0
-32 -681 691 0
-682 691 0
-32 -682 692 0
-683 692 0
-32 -683 693 0
-684 693 0
-32 -684 694 0
-685 694 0
-32 -685 695 0
-686 695 0
-32 -686 0
-33 696 0
-687 696 0
-33 -687 697 0
-688 697 0
-33 -688 698 0
-689 698 0
-33 -689 699 0
-690 699 0
-33 -690 700 0
-691 700 0
-33 -691 701 0
-692 701 0
-33 -692 702 0
-693 702 0
-33 -693 703 0
-694 703 0
-33 -694 704 0
-695 704 0
-33 -695 0
-34 705 0
-696 705 0
-34 -696 706 0
-697 706 0
-34 -697 707 0
-698 707 0
-34 -698 708 0
-699 708 0
-34 -699 709 0
-700 709 0
-34 -700 710 0
-701 710 0
-34 -701 711 0
-702 711 0
-34 -702 712 0
-703 712 0
-34 -703 713 0
-704 713 0
-34 -704 0
-35 714 0
-705 714 0
-35 -705 715 0
-706 715 0
-35 -706 716 0
-707 716 0
-35 -707 717 0
-708 717 0
-35 -708 718 0
-709 718 0
-35 -709 719 0
-710 719 0
-35 -710 720 0
-711 720 0
-35 -711 721 0
-712 721 0
-35 -712 722 0
-713 722 0
-35 -713 0
-36 723 0
-714 723 0
-36 -714 724 0
-715 724 0
-36 -715 725 0
-716 725 0
-36 -716 726 0
-717 726 0
-36 -717 727 0
-718 727 0
-36 -718 728 0
-719 728 0
-36 -719 729 0
-720 729 0
-36 -720 730 0
-721 730 0
-36 -721 731 0
-722 731 0
-36 -722 0
-37 732 0
-723 732 0
-37 -723 733 0
-724 733 0
-37 -724 734 0
-725 734 0
-37 -725 735 0
-726 735 0
-37 -726 736 0
-727 736 0
-37 -727 737 0
-728 737 0
-37 -728 738 0
-729 738 0
-37 -729 739 0
-730 739 0
-37 -730 740 0
-731 740 0
-37 -731 0
-38 741 0
-732 741 0
-38 -732 742 0
-733 742 0
-38 -733 743 0
-734 743 0
-38 -734 744 0
-735 744 0
-38 -735 745 0
-736 745 0
-38 -736 746 0
-737 746 0
-38 -737 747 0
-738 747 0
-38 -738 748 0
-739 748 0
-38 -739 749 0
-740 749 0
-38 -740 0
-39 750 0
-741 750 0
-39 -741 751 0
-742 751 0
-39 -742 752 0
-743 752 0
-39 -743 753 0
-744 753 0
-39 -744 754 0
-745 754 0
-39 -745 755 0
-746 755 0
-39 -746 756 0
-747 756 0
-39 -747 757 0
-748 757 0
-39 -748 758 0
-749 758 0
-39 -749 0
-40 759 0
-750 759 0
-40 -750 760 0
-751 760 0
-40 -751 761 0
-752 761 0
-40 -752 762 0
-753 762 0
-40 -753 763 0
-754 763 0
-40 -754 764 0
-755 764 0
-40 -755 765 0
-756 765 0
-40 -756 766 0
-757 766 0
-40 -757 767 0
-758 767 0
-40 -758 0
-41 768 0
-759 768 0
-41 -759 769 0
-760 769 0
-41 -760 770 0
-761 770 0
-41 -761 771 0
-762 771 0
-41 -762 772 0
-763 772 0
-41 -763 773 0
-764 773 0
-41 -764 774 0
-765 774 0
-41 -765 775 0
-766 775 0
-41 -766 776 0
-767 776 0
-41 -767 0
-42 777 0
-768 777 0
-42 -768 778 0
-769 778 0
-42 -769 779 0
-770 779 0
-42 -770 780 0
-771 780 0
-42 -771 781 0
-772 781 0
-42 -772 782 0
-773 782 0
-42 -773 783 0
-774 783 0
-42 -774 784 0
-775 784 0
-42 -775 785 0
-776 785 0
-42 -776 0
-43 786 0
-777 786 0
-43 -777 787 0
-778 787 0
-43 -778 788 0
-779 788 0
-43 -779 789 0
-780 789 0
-43 -780 790 0
-781 790 0
-43 -781 791 0
-782 791 0
-43 -782 792 0
-783 792 0
-43 -783 793 0
-784 793 0
-43 -784 794 0
-785 794 0
-43 -785 0
-44 795 0
-786 795 0
-44 -786 796 0
-787 796 0
-44 -787 797 0
-788 797 0
-44 -788 798 0
-789 798 0
-44 -789 799 0
-790 799 0
-44 -790 800 0
-791 800 0
-44 -791 801 0
-792 801 0
-44 -792 802 0
-793 802 0
-44 -793 803 0
-794 803 0
-44 -794 0
-45 804 0
-795 804 0
-45 -795 805 0
-796 805 0
-45 -796 806 0
-797 806 0
-45 -797 807 0
-798 807 0
-45 -798 808 0
-799 808 0
-45 -799 809 0
-800 809 0
-45 -800 810 0
-801 810 0
-45 -801 811 0
-802 811 0
-45 -802 812 0
-803 812 0
-45 -803 0
-46 813 0
-804 813 0
-46 -804 814 0
-805 814 0
-46 -805 815 0
-806 815 0
-46 -806 816 0
-807 816 0
-46 -807 817 0
-808 817 0
-46 -808 818 0
-809 818 0
-46 -809 819 0
-810 819 0
-46 -810 820 0
-811 820 0
-46 -811 821 0
-812 821 0
-46 -812 0
-47 822 0
-813 822 0
-47 -813 823 0
-814 823 0
-47 -814 824 0
-815 824 0
-47 -815 825 0
-816 825 0
-47 -816 826 0
-817 826 0
-47 -817 827 0
-818 827 0
-47 -818 828 0
-819 828 0
-47 -819 829 0
-820 829 0
-47 -820 830 0
-821 830 0
-47 -821 0
-48 831 0
-822 831 0
-48 -822 832 0
-823 832 0
-48 -823 833 0
-824 833 0
-48 -824 834 0
-825 834 0
-48 -825 835 0
-826 835 0
-48 -826 836 0
-827 836 0
-48 -827 837 0
-828 837 0
-48 -828 838 0
-829 838 0
-48 -829 839 0
-830 839 0
-48 -830 0
-49 840 0
-831 840 0
-49 -831 841 0
-832 841 0
-49 -832 842 0
-833 842 0
-49 -833 843 0
-834 843 0
-49 -834 844 0
-835 844 0
-49 -835 845 0
-836 845 0
-49 -836 846 0
-837 846 0
-49 -837 847 0
-838 847 0
-49 -838 848 0
-839 848 0
-49 -839 0
-50 849 0
-840 849 0
-50 -840 850 0
-841 850 0
-50 -841 851 0
-842 851 0
-50 -842 852 0
-843 852 0
-50 -843 853 0
-844 853 0
-50 -844 854 0
-845 854 0
-50 -845 855 0
-846 855 0
-50 -846 856 0
-847 856 0
-50 -847 857 0
-848 857 0
-50 -848 0
-51 858 0
-849 858 0
-51 -849 859 0
-850 859 0
-51 -850 860 0
-851 860 0
-51 -851 861 0
-852 861 0
-51 -852 862 0
-853 862 0
-51 -853 863 0
-854 863 0
-51 -854 864 0
-855 864 0
-51 -855 865 0
-856 865 0
-51 -856 866 0
-857 866 0
-51 -857 0
-52 867 0
-858 867 0
-52 -858 868 0
-859 868 0
-52 -859 869 0
-860 869 0
-52 -860 870 0
-861 870 0
-52 -861 871 0
-862 871 0
-52 -862 872 0
-863 872 0
-52 -863 873 0
-864 873 0
-52 -864 874 0
-865 874 0
-52 -865 875 0
-866 875 0
-52 -866 0
-53 876 0
-867 876 0
-53 -867 877 0
-868 877 0
-53 -868 878 0
-869 878 0
-53 -869 879 0
-870 879 0
-53 -870 880 0
-871 880 0
-53 -871 881 0
-872 881 0
-53 -872 882 0
-873 882 0
-53 -873 883 0
-874 883 0
-53 -874 884 0
-875 884 0
-53 -875 0
-54 885 0
-876 885 0
-54 -876 886 0
-877 886 0
-54 -877 887 0
-878 887 0
-54 -878 888 0
-879 888 0
-54 -879 889 0
-880 889 0
-54 -880 890 0
-881 890 0
-54 -881 891 0
-882 891 0
-54 -882 892 0
-883 892 0
-54 -883 893 0
-884 893 0
-54 -884 0
-55 894 0
-885 894 0
-55 -885 895 0
-886 895 0
-55 -886 896 0
-887 896 0
-55 -887 897 0
-888 897 0
-55 -888 898 0
-889 898 0
-55 -889 899 0
-890 899 0
-55 -890 900 0
-891 900 0
-55 -891 901 0
-892 901 0
-55 -892 902 0
-893 902 0
-55 -893 0
-56 903 0
-894 903 0
-56 -894 904 0
-895 904 0
-56 -895 905 0
-896 905 0
-56 -896 906 0
-897 906 0
-56 -897 907 0
-898 907 0
-56 -898 908 0
-899 908 0
-56 -899 909 0
-900 909 0
-56 -900 910 0
-901 910 0
-56 -901 911 0
-902 911 0
-56 -902 0
-57 912 0
-903 912 0
-57 -903 913 0
-904 913 0
-57 -904 914 0
-905 914 0
-57 -905 915 0
-906 915 0
-57 -906 916 0
-907 916 0
-57 -907 917 0
-908 917 0
-57 -908 918 0
-909 918 0
-57 -909 919 0
-910 919 0
-57 -910 920 0
-911 920 0
-57 -911 0
-58 921 0
-912 921 0
-58 -912 922 0
-913 922 0
-58 -913 923 0
-914 923 0
-58 -914 924 0
-915 924 0
-58 -915 925 0
-916 925 0
-58 -916 926 0
-917 926 0
-58 -917 927 0
-918 927 0
-58 -918 928 0
-919 928 0
-58 -919 929 0
-920 929 0
-58 -920 0
-59 930 0
-921 930 0
-59 -921 931 0
-922 931 0
-59 -922 932 0
-923 932 0
-59 -923 933 0
-924 933 0
-59 -924 934 0
-925 934 0
-59 -925 935 0
-926 935 0
-59 -926 936 0
-927 936 0
-59 -927 937 0
-928 937 0
-59 -928 938 0
-929 938 0
-59 -929 0
-60 939 0
-930 939 0
-60 -930 940 0
-931 940 0
-60 -931 941 0
-932 941 0
-60 -932 942 0
-933 942 0
-60 -933 943 0
-934 943 0
-60 -934 944 0
-935 944 0
-60 -935 945 0
-936 945 0
-60 -936 946 0
-937 946 0
-60 -937 947 0
-938 947 0
-60 -938 0
-61 948 0
-939 948 0
-61 -939 949 0
-940 949 0
-61 -940 950 0
-941 950 0
-61 -941 951 0
-942 951 0
-61 -942 952 0
-943 952 0
-61 -943 953 0
-944 953 0
-61 -944 954 0
-945 954 0
-61 -945 955 0
-946 955 0
-61 -946 956 0
-947 956 0
-61 -947 0
-62 957 0
-948 957 0
-62 -948 958 0
-949 958 0
-62 -949 959 0
-950 959 0
-62 -950 960 0
-951 960 0
-62 -951 961 0
-952 961 0
-62 -952 962 0
-953 962 0
-62 -953 963 0
-954 963 0
-62 -954 964 0
-955 964 0
-62 -955 965 0
-956 965 0
-62 -956 0
-63 966 0
-957 966 0
-63 -957 967 0
-958 967 0
-63 -958 968 0
-959 968 0
-63 -959 969 0
-960 969 0
-63 -960 970 0
-961 970 0
-63 -961 971 0
-962 971 0
-63 -962 972 0
-963 972 0
-63 -963 973 0
-964 973 0
-63 -964 974 0
-965 974 0
-63 -965 0
-64 975 0
-966 975 0
-64 -966 976 0
-967 976 0
-64 -967 977 0
-968 977 0
-64 -968 978 0
-969 978 0
-64 -969 979 0
-970 979 0
-64 -970 980 0
-971 980 0
-64 -971 981 0
-972 981 0
-64 -972 982 0
-973 982 0
-64 -973 983 0
-974 983 0
-64 -974 0
-65 984 0
-975 984 0
-65 -975 985 0
-976 985 0
-65 -976 986 0
-977 986 0
-65 -977 987 0
-978 987 0
-65 -978 988 0
-979 988 0
-65 -979 989 0
-980 989 0
-65 -980 990 0
-981 990 0
-65 -981 991 0
-982 991 0
-65 -982 992 0
-983 992 0
-65 -983 0
-66 993 0
-984 993 0
-66 -984 994 0
-985 994 0
-66 -985 995 0
-986 995 0
-66 -986 996 0
-987 996 0
-66 -987 997 0
-988 997 0
-66 -988 998 0
-989 998 0
-66 -989 999 0
-990 999 0
-66 -990 1000 0
-991 1000 0
-66 -991 1001 0
-992 1001 0
-66 -992 0
-67 1002 0
-993 1002 0
-67 -993 1003 0
-994 1003 0
-67 -994 1004 0
-995 1004 0
-67 -995 1005 0
-996 1005 0
-67 -996 1006 0
-997 1006 0
-67 -997 1007 0
-998 1007 0
-67 -998 1008 0
-999 1008 0
-67 -999 1009 0
-1000 1009 0
-67 -1000 1010 0
-1001 1010 0
-67 -1001 0
-68 1011 0
-1002 1011 0
-68 -1002 1012 0
-1003 1012 0
-68 -1003 1013 0
-1004 1013 0
-68 -1004 1014 0
-1005 1014 0
-68 -1005 1015 0
-1006 1015 0
-68 -1006 1016 0
-1007 1016 0
-68 -1007 1017 0
-1008 1017 0
-68 -1008 1018 0
-1009 1018 0
-68 -1009 1019 0
-1010 1019 0
-68 -1010 0
-69 1020 0
-1011 1020 0
-69 -1011 1021 0
-1012 1021 0
-69 -1012 1022 0
-1013 1022 0
-69 -1013 1023 0
-1014 1023 0
-69 -1014 1024 0
-1015 1024 0
-69 -1015 1025 0
-1016 1025 0
-69 -1016 1026 0
-1017 1026 0
-69 -1017 1027 0
-1018 1027 0
-69 -1018 1028 0
-1019 1028 0
-69 -1019 0
-70 1029 0
-1020 1029 0
-70 -1020 1030 0
-1021 1030 0
-70 -1021 1031 0
-1022 1031 0
-70 -1022 1032 0
-1023 1032 0
-70 -1023 1033 0
-1024 1033 0
-70 -1024 1034 0
-1025 1034 0
-70 -1025 1035 0
-1026 1035 0
-70 -1026 1036 0
-1027 1036 0
-70 -1027 1037 0
-1028 1037 0
-70 -1028 0
-71 1038 0
-1029 1038 0
-71 -1029 1039 0
-1030 1039 0
-71 -1030 1040 0
-1031 1040 0
-71 -1031 1041 0
-1032 1041 0
-71 -1032 1042 0
-1033 1042 0
-71 -1033 1043 0
-1034 1043 0
-71 -1034 1044 0
-1035 1044 0
-71 -1035 1045 0
-1036 1045 0
-71 -1036 1046 0
-1037 1046 0
-71 -1037 0
-72 1047 0
-1038 1047 0
-72 -1038 1048 0
-1039 1048 0
-72 -1039 1049 0
-1040 1049 0
-72 -1040 1050 0
-1041 1050 0
-72 -1041 1051 0
-1042 1051 0
-72 -1042 1052 0
-1043 1052 0
-72 -1043 1053 0
-1044 1053 0
-72 -1044 1054 0
-1045 1054 0
-72 -1045 1055 0
-1046 1055 0
-72 -1046 0
-73 1056 0
-1047 1056 0
-73 -1047 1057 0
-1048 1057 0
-73 -1048 1058 0
-1049 1058 0
-73 -1049 1059 0
-1050 1059 0
-73 -1050 1060 0
-1051 1060 0
-73 -1051 1061 0
-1052 1061 0
-73 -1052 1062 0
-1053 1062 0
-73 -1053 1063 0
-1054 1063 0
-73 -1054 1064 0
-1055 1064 0
-73 -1055 0
-74 1065 0
-1056 1065 0
-74 -1056 1066 0
-1057 1066 0
-74 -1057 1067 0
-1058 1067 0
-74 -1058 1068 0
-1059 1068 0
-74 -1059 1069 0
-1060 1069 0
-74 -1060 1070 0
-1061 1070 0
-74 -1061 1071 0
-1062 1071 0
-74 -1062 1072 0
-1063 1072 0
-74 -1063 1073 0
-1064 1073 0
-74 -1064 0
-75 1074 0
-1065 1074 0
-75 -1065 1075 0
-1066 1075 0
-75 -1066 1076 0
-1067 1076 0
-75 -1067 1077 0
-1068 1077 0
-75 -1068 1078 0
-1069 1078 0
-75 -1069 1079 0
-1070 1079 0
-75 -1070 1080 0
-1071 1080 0
-75 -1071 1081 0
-1072 1081 0
-75 -1072 1082 0
-1073 1082 0
-75 -1073 0
-76 1083 0
-1074 1083 0
-76 -1074 1084 0
-1075 1084 0
-76 -1075 1085 0
-1076 1085 0
-76 -1076 1086 0
-1077 1086 0
-76 -1077 1087 0
-1078 1087 0
-76 -1078 1088 0
-1079 1088 0
-76 -1079 1089 0
-1080 1089 0
-76 -1080 1090 0
-1081 1090 0
-76 -1081 1091 0
-1082 1091 0
-76 -1082 0
-77 1092 0
-1083 1092 0
-77 -1083 1093 0
-1084 1093 0
-77 -1084 1094 0
-1085 1094 0
-77 -1085 1095 0
-1086 1095 0
-77 -1086 1096 0
-1087 1096 0
-77 -1087 1097 0
-1088 1097 0
-77 -1088 1098 0
-1089 1098 0
-77 -1089 1099 0
-1090 1099 0
-77 -1090 1100 0
-1091 1100 0
-77 -1091 0
-78 1101 0
-1092 1101 0
-78 -1092 1102 0
-1093 1102 0
-78 -1093 1103 0
-1094 1103 0
-78 -1094 1104 0
-1095 1104 0
-78 -1095 1105 0
-1096 1105 0
-78 -1096 1106 0
-1097 1106 0
-78 -1097 1107 0
-1098 1107 0
-78 -1098 1108 0
-1099 1108 0
-78 -1099 1109 0
-1100 1109 0
-78 -1100 0
-79 1110 0
-1101 1110 0
-79 -1101 1111 0
-1102 1111 0
-79 -1102 1112 0
-1103 1112 0
-79 -1103 1113 0
-1104 1113 0
-79 -1104 1114 0
-1105 1114 0
-79 -1105 1115 0
-1106 1115 0
-79 -1106 1116 0
-1107 1116 0
-79 -1107 1117 0
-1108 1117 0
-79 -1108 1118 0
-1109 1118 0
-79 -1109 0
-80 1119 0
-1110 1119 0
-80 -1110 1120 0
-1111 1120 0
-80 -1111 1121 0
-1112 1121 0
-80 -1112 1122 0
-1113 1122 0
-80 -1113 1123 0
-1114 1123 0
-80 -1114 1124 0
-1115 1124 0
-80 -1115 1125 0
-1116 1125 0
-80 -1116 1126 0
-1117 1126 0
-80 -1117 1127 0
-1118 1127 0
-80 -1118 0
-81 1128 0
-1119 1128 0
-81 -1119 1129 0
-1120 1129 0
-81 -1120 1130 0
-1121 1130 0
-81 -1121 1131 0
-1122 1131 0
-81 -1122 1132 0
-1123 1132 0
-81 -1123 1133 0
-1124 1133 0
-81 -1124 1134 0
-1125 1134 0
-81 -1125 1135 0
-1126 1135 0
-81 -1126 1136 0
-1127 1136 0
-81 -1127 0
-82 1137 0
-1128 1137 0
-82 -1128 1138 0
-1129 1138 0
-82 -1129 1139 0
-1130 1139 0
-82 -1130 1140 0
-1131 1140 0
-82 -1131 1141 0
-1132 1141 0
-82 -1132 1142 0
-1133 1142 0
-82 -1133 1143 0
-1134 1143 0
-82 -1134 1144 0
-1135 1144 0
-82 -1135 1145 0
-1136 1145 0
-82 -1136 0
-83 1146 0
-1137 1146 0
-83 -1137 1147 0
-1138 1147 0
-83 -1138 1148 0
-1139 1148 0
-83 -1139 1149 0
-1140 1149 0
-83 -1140 1150 0
-1141 1150 0
-83 -1141 1151 0
-1142 1151 0
-83 -1142 1152 0
-1143 1152 0
-83 -1143 1153 0
-1144 1153 0
-83 -1144 1154 0
-1145 1154 0
-83 -1145 0
-84 1155 0
-1146 1155 0
-84 -1146 1156 0
-1147 1156 0
-84 -1147 1157 0
-1148 1157 0
-84 -1148 1158 0
-1149 1158 0
-84 -1149 1159 0
-1150 1159 0
-84 -1150 1160 0
-1151 1160 0
-84 -1151 1161 0
-1152 1161 0
-84 -1152 1162 0
-1153 1162 0
-84 -1153 1163 0
-1154 1163 0
-84 -1154 0
-85 1164 0
-1155 1164 0
-85 -1155 1165 0
-1156 1165 0
-85 -1156 1166 0
-1157 1166 0
-85 -1157 1167 0
-1158 1167 0
-85 -1158 1168 0
-1159 1168 0
-85 -1159 1169 0
-1160 1169 0
-85 -1160 1170 0
-1161 1170 0
-85 -1161 1171 0
-1162 1171 0
-85 -1162 1172 0
-1163 1172 0
-85 -1163 0
-86 1173 0
-1164 1173 0
-86 -1164 1174 0
-1165 1174 0
-86 -1165 1175 0
-1166 1175 0
-86 -1166 1176 0
-1167 1176 0
-86 -1167 1177 0
-1168 1177 0
-86 -1168 1178 0
-1169 1178 0
-86 -1169 1179 0
-1170 1179 0
-86 -1170 1180 0
-1171 1180 0
-86 -1171 1181 0
-1172 1181 0
-86 -1172 0
-87 1182 0
-1173 1182 0
-87 -1173 1183 0
-1174 1183 0
-87 -1174 1184 0
-1175 1184 0
-87 -1175 1185 0
-1176 1185 0
-87 -1176 1186 0
-1177 1186 0
-87 -1177 1187 0
-1178 1187 0
-87 -1178 1188 0
-1179 1188 0
-87 -1179 1189 0
-1180 1189 0
-87 -1180 1190 0
-1181 1190 0
-87 -1181 0
-88 1191 0
-1182 1191 0
-88 -1182 1192 0
-1183 1192 0
-88 -1183 1193 0
-1184 1193 0
-88 -1184 1194 0
-1185 1194 0
-88 -1185 1195 0
-1186 1195 0
-88 -1186 1196 0
-1187 1196 0
-88 -1187 1197 0
-1188 1197 0
-88 -1188 1198 0
-1189 1198 0
-88 -1189 1199 0
-1190 1199 0
-88 -1190 0
-89 1200 0
-1191 1200 0
-89 -1191 1201 0
-1192 1201 0
-89 -1192 1202 0
-1193 1202 0
-89 -1193 1203 0
-1194 1203 0
-89 -1194 1204 0
-1195 1204 0
-89 -1195 1205 0
-1196 1205 0
-89 -1196 1206 0
-1197 1206 0
-89 -1197 1207 0
-1198 1207 0
-89 -1198 1208 0
-1199 1208 0
-89 -1199 0
-90 -1208 0
