p cnf 1297 3173
-91 1 25 0
-91 -1 -25 0
91 -1 25 0
91 1 -25 0
-92 91 40 0
-92 -91 -40 0
92 -91 40 0
92 91 -40 0
-93 92 47 0
-93 -92 -47 0
93 -92 47 0
93 92 -47 0
-94 93 48 0
-94 -93 -48 0
94 -93 48 0
94 93 -48 0
-95 94 64 0
-95 -94 -64 0
95 -94 64 0
95 94 -64 0
-95 0
-96 2 26 0
-96 -2 -26 0
96 -2 26 0
96 2 -26 0
-97 96 41 0
-97 -96 -41 0
97 -96 41 0
97 96 -41 0
-98 97 46 0
-98 -97 -46 0
98 -97 46 0
98 97 -46 0
-99 98 48 0
-99 -98 -48 0
99 -98 48 0
99 98 -48 0
-100 99 65 0
-100 -99 -65 0
100 -99 65 0
100 99 -65 0
-100 0
-101 3 27 0
-101 -3 -27 0
101 -3 27 0
101 3 -27 0
-102 101 42 0
-102 -101 -42 0
102 -101 42 0
102 101 -42 0
-103 102 46 0
-103 -102 -46 0
103 -102 46 0
103 102 -46 0
-104 103 47 0
-104 -103 -47 0
104 -103 47 0
104 103 -47 0
-105 104 66 0
-105 -104 -66 0
105 -104 66 0
105 104 -66 0
-105 0
-106 4 28 0
-106 -4 -28 0
106 -4 28 0
106 4 -28 0
-107 106 43 0
-107 -106 -43 0
107 -106 43 0
107 106 -43 0
-108 107 50 0
-108 -107 -50 0
108 -107 50 0
108 107 -50 0
-109 108 51 0
-109 -108 -51 0
109 -108 51 0
109 108 -51 0
-110 109 67 0
-110 -109 -67 0
110 -109 67 0
110 109 -67 0
-110 0
-111 5 29 0
-111 -5 -29 0
111 -5 29 0
111 5 -29 0
-112 111 44 0
-112 -111 -44 0
112 -111 44 0
112 111 -44 0
-113 112 49 0
-113 -112 -49 0
113 -112 49 0
113 112 -49 0
-114 113 51 0
-114 -113 -51 0
114 -113 51 0
114 113 -51 0
-115 114 68 0
-115 -114 -68 0
115 -114 68 0
115 114 -68 0
-115 0
-116 6 30 0
-116 -6 -30 0
116 -6 30 0
116 6 -30 0
-117 116 45 0
-117 -116 -45 0
117 -116 45 0
117 116 -45 0
-118 117 49 0
-118 -117 -49 0
118 -117 49 0
118 117 -49 0
-119 118 50 0
-119 -118 -50 0
119 -118 50 0
119 118 -50 0
-120 119 69 0
-120 -119 -69 0
120 -119 69 0
120 119 -69 0
-120 0
-121 1 7 0
-121 -1 -7 0
121 -1 7 0
121 1 -7 0
-122 121 31 0
-122 -121 -31 0
122 -121 31 0
122 121 -31 0
-123 122 53 0
-123 -122 -53 0
123 -122 53 0
123 122 -53 0
-124 123 54 0
-124 -123 -54 0
124 -123 54 0
124 123 -54 0
-125 124 70 0
-125 -124 -70 0
125 -124 70 0
125 124 -70 0
-125 0
-126 2 8 0
-126 -2 -8 0
126 -2 8 0
126 2 -8 0
-127 126 32 0
-127 -126 -32 0
127 -126 32 0
127 126 -32 0
-128 127 52 0
-128 -127 -52 0
128 -127 52 0
128 127 -52 0
-129 128 54 0
-129 -128 -54 0
129 -128 54 0
129 128 -54 0
-130 129 71 0
-130 -129 -71 0
130 -129 71 0
130 129 -71 0
-130 0
-131 3 9 0
-131 -3 -9 0
131 -3 9 0
131 3 -9 0
-132 131 33 0
-132 -131 -33 0
132 -131 33 0
132 131 -33 0
-133 132 52 0
-133 -132 -52 0
133 -132 52 0
133 132 -52 0
-134 133 53 0
-134 -133 -53 0
134 -133 53 0
134 133 -53 0
-135 134 72 0
-135 -134 -72 0
135 -134 72 0
135 134 -72 0
-135 0
-136 4 10 0
-136 -4 -10 0
136 -4 10 0
136 4 -10 0
-137 136 34 0
-137 -136 -34 0
137 -136 34 0
137 136 -34 0
-138 137 56 0
-138 -137 -56 0
138 -137 56 0
138 137 -56 0
-139 138 57 0
-139 -138 -57 0
139 -138 57 0
139 138 -57 0
-140 139 73 0
-140 -139 -73 0
140 -139 73 0
140 139 -73 0
-140 0
-141 5 11 0
-141 -5 -11 0
141 -5 11 0
141 5 -11 0
-142 141 35 0
-142 -141 -35 0
142 -141 35 0
142 141 -35 0
-143 142 55 0
-143 -142 -55 0
143 -142 55 0
143 142 -55 0
-144 143 57 0
-144 -143 -57 0
144 -143 57 0
144 143 -57 0
-145 144 74 0
-145 -144 -74 0
145 -144 74 0
145 144 -74 0
-145 0
-146 6 12 0
-146 -6 -12 0
146 -6 12 0
146 6 -12 0
-147 146 36 0
-147 -146 -36 0
147 -146 36 0
147 146 -36 0
-148 147 55 0
-148 -147 -55 0
148 -147 55 0
148 147 -55 0
-149 148 56 0
-149 -148 -56 0
149 -148 56 0
149 148 -56 0
-150 149 75 0
-150 -149 -75 0
150 -149 75 0
150 149 -75 0
-150 0
-151 7 13 0
-151 -7 -13 0
151 -7 13 0
151 7 -13 0
-152 151 37 0
-152 -151 -37 0
152 -151 37 0
152 151 -37 0
-153 152 59 0
-153 -152 -59 0
153 -152 59 0
153 152 -59 0
-154 153 60 0
-154 -153 -60 0
154 -153 60 0
154 153 -60 0
-155 154 76 0
-155 -154 -76 0
155 -154 76 0
155 154 -76 0
-155 0
-156 8 14 0
-156 -8 -14 0
156 -8 14 0
156 8 -14 0
-157 156 38 0
-157 -156 -38 0
157 -156 38 0
157 156 -38 0
-158 157 58 0
-158 -157 -58 0
158 -157 58 0
158 157 -58 0
-159 158 60 0
-159 -158 -60 0
159 -158 60 0
159 158 -60 0
-160 159 77 0
-160 -159 -77 0
160 -159 77 0
160 159 -77 0
-160 0
-161 9 15 0
-161 -9 -15 0
161 -9 15 0
161 9 -15 0
-162 161 39 0
-162 -161 -39 0
162 -161 39 0
162 161 -39 0
-163 162 58 0
-163 -162 -58 0
163 -162 58 0
163 162 -58 0
-164 163 59 0
-164 -163 -59 0
164 -163 59 0
164 163 -59 0
-165 164 78 0
-165 -164 -78 0
165 -164 78 0
165 164 -78 0
-165 0
-166 10 16 0
-166 -10 -16 0
166 -10 16 0
166 10 -16 0
-167 166 40 0
-167 -166 -40 0
167 -166 40 0
167 166 -40 0
-168 167 62 0
-168 -167 -62 0
168 -167 62 0
168 167 -62 0
-169 168 63 0
-169 -168 -63 0
169 -168 63 0
169 168 -63 0
-170 169 79 0
-170 -169 -79 0
170 -169 79 0
170 169 -79 0
-170 0
-171 11 17 0
-171 -11 -17 0
171 -11 17 0
171 11 -17 0
-172 171 41 0
-172 -171 -41 0
172 -171 41 0
172 171 -41 0
-173 172 61 0
-173 -172 -61 0
173 -172 61 0
173 172 -61 0
-174 173 63 0
-174 -173 -63 0
174 -173 63 0
174 173 -63 0
-175 174 80 0
-175 -174 -80 0
175 -174 80 0
175 174 -80 0
-175 0
-176 12 18 0
-176 -12 -18 0
176 -12 18 0
176 12 -18 0
-177 176 42 0
-177 -176 -42 0
177 -176 42 0
177 176 -42 0
-178 177 61 0
-178 -177 -61 0
178 -177 61 0
178 177 -61 0
-179 178 62 0
-179 -178 -62 0
179 -178 62 0
179 178 -62 0
-180 179 81 0
-180 -179 -81 0
180 -179 81 0
180 179 -81 0
-180 0
-181 13 19 0
-181 -13 -19 0
181 -13 19 0
181 13 -19 0
-182 181 43 0
-182 -181 -43 0
182 -181 43 0
182 181 -43 0
-183 182 65 0
-183 -182 -65 0
183 -182 65 0
183 182 -65 0
-184 183 66 0
-184 -183 -66 0
184 -183 66 0
184 183 -66 0
-185 184 82 0
-185 -184 -82 0
185 -184 82 0
185 184 -82 0
-185 0
-186 14 20 0
-186 -14 -20 0
186 -14 20 0
186 14 -20 0
-187 186 44 0
-187 -186 -44 0
187 -186 44 0
187 186 -44 0
-188 187 64 0
-188 -187 -64 0
188 -187 64 0
188 187 -64 0
-189 188 66 0
-189 -188 -66 0
189 -188 66 0
189 188 -66 0
-190 189 83 0
-190 -189 -83 0
190 -189 83 0
190 189 -83 0
-190 0
-191 15 21 0
-191 -15 -21 0
191 -15 21 0
191 15 -21 0
-192 191 45 0
-192 -191 -45 0
192 -191 45 0
192 191 -45 0
-193 192 64 0
-193 -192 -64 0
193 -192 64 0
193 192 -64 0
-194 193 65 0
-194 -193 -65 0
194 -193 65 0
194 193 -65 0
-195 194 84 0
-195 -194 -84 0
195 -194 84 0
195 194 -84 0
-195 0
-196 1 16 0
-196 -1 -16 0
196 -1 16 0
196 1 -16 0
-197 196 22 0
-197 -196 -22 0
197 -196 22 0
197 196 -22 0
-198 197 68 0
-198 -197 -68 0
198 -197 68 0
198 197 -68 0
-199 198 69 0
-199 -198 -69 0
199 -198 69 0
199 198 -69 0
-200 199 85 0
-200 -199 -85 0
200 -199 85 0
200 199 -85 0
-200 0
-201 2 17 0
-201 -2 -17 0
201 -2 17 0
201 2 -17 0
-202 201 23 0
-202 -201 -23 0
202 -201 23 0
202 201 -23 0
-203 202 67 0
-203 -202 -67 0
203 -202 67 0
203 202 -67 0
-204 203 69 0
-204 -203 -69 0
204 -203 69 0
204 203 -69 0
-205 204 86 0
-205 -204 -86 0
205 -204 86 0
205 204 -86 0
-205 0
-206 3 18 0
-206 -3 -18 0
206 -3 18 0
206 3 -18 0
-207 206 24 0
-207 -206 -24 0
207 -206 24 0
207 206 -24 0
-208 207 67 0
-208 -207 -67 0
208 -207 67 0
208 207 -67 0
-209 208 68 0
-209 -208 -68 0
209 -208 68 0
209 208 -68 0
-210 209 87 0
-210 -209 -87 0
210 -209 87 0
210 209 -87 0
-210 0
-211 4 19 0
-211 -4 -19 0
211 -4 19 0
211 4 -19 0
-212 211 25 0
-212 -211 -25 0
212 -211 25 0
212 211 -25 0
-213 212 71 0
-213 -212 -71 0
213 -212 71 0
213 212 -71 0
-214 213 72 0
-214 -213 -72 0
214 -213 72 0
214 213 -72 0
-215 214 88 0
-215 -214 -88 0
215 -214 88 0
215 214 -88 0
-215 0
-216 5 20 0
-216 -5 -20 0
216 -5 20 0
216 5 -20 0
-217 216 26 0
-217 -216 -26 0
217 -216 26 0
217 216 -26 0
-218 217 70 0
-218 -217 -70 0
218 -217 70 0
218 217 -70 0
-219 218 72 0
-219 -218 -72 0
219 -218 72 0
219 218 -72 0
-220 219 89 0
-220 -219 -89 0
220 -219 89 0
220 219 -89 0
-220 0
-221 6 21 0
-221 -6 -21 0
221 -6 21 0
221 6 -21 0
-222 221 27 0
-222 -221 -27 0
222 -221 27 0
222 221 -27 0
-223 222 70 0
-223 -222 -70 0
223 -222 70 0
223 222 -70 0
-224 223 71 0
-224 -223 -71 0
224 -223 71 0
224 223 -71 0
-225 224 90 0
-225 -224 -90 0
225 -224 90 0
225 224 -90 0
-225 0
-226 7 22 0
-226 -7 -22 0
226 -7 22 0
226 7 -22 0
-227 226 28 0
-227 -226 -28 0
227 -226 28 0
227 226 -28 0
-228 227 46 0
-228 -227 -46 0
228 -227 46 0
228 227 -46 0
-229 228 74 0
-229 -228 -74 0
229 -228 74 0
229 228 -74 0
-230 229 75 0
-230 -229 -75 0
230 -229 75 0
230 229 -75 0
-230 0
-231 8 23 0
-231 -8 -23 0
231 -8 23 0
231 8 -23 0
-232 231 29 0
-232 -231 -29 0
232 -231 29 0
232 231 -29 0
-233 232 47 0
-233 -232 -47 0
233 -232 47 0
233 232 -47 0
-234 233 73 0
-234 -233 -73 0
234 -233 73 0
234 233 -73 0
-235 234 75 0
-235 -234 -75 0
235 -234 75 0
235 234 -75 0
-235 0
-236 9 24 0
-236 -9 -24 0
236 -9 24 0
236 9 -24 0
-237 236 30 0
-237 -236 -30 0
237 -236 30 0
237 236 -30 0
-238 237 48 0
-238 -237 -48 0
238 -237 48 0
238 237 -48 0
-239 238 73 0
-239 -238 -73 0
239 -238 73 0
239 238 -73 0
-240 239 74 0
-240 -239 -74 0
240 -239 74 0
240 239 -74 0
-240 0
-241 10 25 0
-241 -10 -25 0
241 -10 25 0
241 10 -25 0
-242 241 31 0
-242 -241 -31 0
242 -241 31 0
242 241 -31 0
-243 242 49 0
-243 -242 -49 0
243 -242 49 0
243 242 -49 0
-244 243 77 0
-244 -243 -77 0
244 -243 77 0
244 243 -77 0
-245 244 78 0
-245 -244 -78 0
245 -244 78 0
245 244 -78 0
-245 0
-246 11 26 0
-246 -11 -26 0
246 -11 26 0
246 11 -26 0
-247 246 32 0
-247 -246 -32 0
247 -246 32 0
247 246 -32 0
-248 247 50 0
-248 -247 -50 0
248 -247 50 0
248 247 -50 0
-249 248 76 0
-249 -248 -76 0
249 -248 76 0
249 248 -76 0
-250 249 78 0
-250 -249 -78 0
250 -249 78 0
250 249 -78 0
-250 0
-251 12 27 0
-251 -12 -27 0
251 -12 27 0
251 12 -27 0
-252 251 33 0
-252 -251 -33 0
252 -251 33 0
252 251 -33 0
-253 252 51 0
-253 -252 -51 0
253 -252 51 0
253 252 -51 0
-254 253 76 0
-254 -253 -76 0
254 -253 76 0
254 253 -76 0
-255 254 77 0
-255 -254 -77 0
255 -254 77 0
255 254 -77 0
-255 0
-256 13 28 0
-256 -13 -28 0
256 -13 28 0
256 13 -28 0
-257 256 34 0
-257 -256 -34 0
257 -256 34 0
257 256 -34 0
-258 257 52 0
-258 -257 -52 0
258 -257 52 0
258 257 -52 0
-259 258 80 0
-259 -258 -80 0
259 -258 80 0
259 258 -80 0
-260 259 81 0
-260 -259 -81 0
260 -259 81 0
260 259 -81 0
-260 0
-261 14 29 0
-261 -14 -29 0
261 -14 29 0
261 14 -29 0
-262 261 35 0
-262 -261 -35 0
262 -261 35 0
262 261 -35 0
-263 262 53 0
-263 -262 -53 0
263 -262 53 0
263 262 -53 0
-264 263 79 0
-264 -263 -79 0
264 -263 79 0
264 263 -79 0
-265 264 81 0
-265 -264 -81 0
265 -264 81 0
265 264 -81 0
-265 0
-266 15 30 0
-266 -15 -30 0
266 -15 30 0
266 15 -30 0
-267 266 36 0
-267 -266 -36 0
267 -266 36 0
267 266 -36 0
-268 267 54 0
-268 -267 -54 0
268 -267 54 0
268 267 -54 0
-269 268 79 0
-269 -268 -79 0
269 -268 79 0
269 268 -79 0
-270 269 80 0
-270 -269 -80 0
270 -269 80 0
270 269 -80 0
-270 0
-271 16 31 0
-271 -16 -31 0
271 -16 31 0
271 16 -31 0
-272 271 37 0
-272 -271 -37 0
272 -271 37 0
272 271 -37 0
-273 272 55 0
-273 -272 -55 0
273 -272 55 0
273 272 -55 0
-274 273 83 0
-274 -273 -83 0
274 -273 83 0
274 273 -83 0
-275 274 84 0
-275 -274 -84 0
275 -274 84 0
275 274 -84 0
-275 0
-276 17 32 0
-276 -17 -32 0
276 -17 32 0
276 17 -32 0
-277 276 38 0
-277 -276 -38 0
277 -276 38 0
277 276 -38 0
-278 277 56 0
-278 -277 -56 0
278 -277 56 0
278 277 -56 0
-279 278 82 0
-279 -278 -82 0
279 -278 82 0
279 278 -82 0
-280 279 84 0
-280 -279 -84 0
280 -279 84 0
280 279 -84 0
-280 0
-281 18 33 0
-281 -18 -33 0
281 -18 33 0
281 18 -33 0
-282 281 39 0
-282 -281 -39 0
282 -281 39 0
282 281 -39 0
-283 282 57 0
-283 -282 -57 0
283 -282 57 0
283 282 -57 0
-284 283 82 0
-284 -283 -82 0
284 -283 82 0
284 283 -82 0
-285 284 83 0
-285 -284 -83 0
285 -284 83 0
285 284 -83 0
-285 0
-286 19 34 0
-286 -19 -34 0
286 -19 34 0
286 19 -34 0
-287 286 40 0
-287 -286 -40 0
287 -286 40 0
287 286 -40 0
-288 287 58 0
-288 -287 -58 0
288 -287 58 0
288 287 -58 0
-289 288 86 0
-289 -288 -86 0
289 -288 86 0
289 288 -86 0
-290 289 87 0
-290 -289 -87 0
290 -289 87 0
290 289 -87 0
-290 0
-291 20 35 0
-291 -20 -35 0
291 -20 35 0
291 20 -35 0
-292 291 41 0
-292 -291 -41 0
292 -291 41 0
292 291 -41 0
-293 292 59 0
-293 -292 -59 0
293 -292 59 0
293 292 -59 0
-294 293 85 0
-294 -293 -85 0
294 -293 85 0
294 293 -85 0
-295 294 87 0
-295 -294 -87 0
295 -294 87 0
295 294 -87 0
-295 0
-296 21 36 0
-296 -21 -36 0
296 -21 36 0
296 21 -36 0
-297 296 42 0
-297 -296 -42 0
297 -296 42 0
297 296 -42 0
-298 297 60 0
-298 -297 -60 0
298 -297 60 0
298 297 -60 0
-299 298 85 0
-299 -298 -85 0
299 -298 85 0
299 298 -85 0
-300 299 86 0
-300 -299 -86 0
300 -299 86 0
300 299 -86 0
-300 0
-301 22 37 0
-301 -22 -37 0
301 -22 37 0
301 22 -37 0
-302 301 43 0
-302 -301 -43 0
302 -301 43 0
302 301 -43 0
-303 302 61 0
-303 -302 -61 0
303 -302 61 0
303 302 -61 0
-304 303 89 0
-304 -303 -89 0
304 -303 89 0
304 303 -89 0
-305 304 90 0
-305 -304 -90 0
305 -304 90 0
305 304 -90 0
-305 0
-306 23 38 0
-306 -23 -38 0
306 -23 38 0
306 23 -38 0
-307 306 44 0
-307 -306 -44 0
307 -306 44 0
307 306 -44 0
-308 307 62 0
-308 -307 -62 0
308 -307 62 0
308 307 -62 0
-309 308 88 0
-309 -308 -88 0
309 -308 88 0
309 308 -88 0
-310 309 90 0
-310 -309 -90 0
310 -309 90 0
310 309 -90 0
-310 0
-311 24 39 0
-311 -24 -39 0
311 -24 39 0
311 24 -39 0
-312 311 45 0
-312 -311 -45 0
312 -311 45 0
312 311 -45 0
-313 312 63 0
-313 -312 -63 0
313 -312 63 0
313 312 -63 0
-314 313 88 0
-314 -313 -88 0
314 -313 88 0
314 313 -88 0
-315 314 89 0
-315 -314 -89 0
315 -314 89 0
315 314 -89 0
-315 0
-316 1 2 0
-316 -1 -2 0
316 -1 2 0
316 1 -2 0
-317 316 10 0
-317 -316 -10 0
317 -316 10 0
317 316 -10 0
-318 317 11 0
-318 -317 -11 0
318 -317 11 0
318 317 -11 0
-319 318 19 0
-319 -318 -19 0
319 -318 19 0
319 318 -19 0
-320 319 20 0
-320 -319 -20 0
320 -319 20 0
320 319 -20 0
-321 320 28 0
-321 -320 -28 0
321 -320 28 0
321 320 -28 0
-322 321 29 0
-322 -321 -29 0
322 -321 29 0
322 321 -29 0
-323 322 37 0
-323 -322 -37 0
323 -322 37 0
323 322 -37 0
-324 323 38 0
-324 -323 -38 0
324 -323 38 0
324 323 -38 0
-325 1 3 0
-325 -1 -3 0
325 -1 3 0
325 1 -3 0
-326 325 10 0
-326 -325 -10 0
326 -325 10 0
326 325 -10 0
-327 326 12 0
-327 -326 -12 0
327 -326 12 0
327 326 -12 0
-328 327 19 0
-328 -327 -19 0
328 -327 19 0
328 327 -19 0
-329 328 21 0
-329 -328 -21 0
329 -328 21 0
329 328 -21 0
-330 329 28 0
-330 -329 -28 0
330 -329 28 0
330 329 -28 0
-331 330 30 0
-331 -330 -30 0
331 -330 30 0
331 330 -30 0
-332 331 37 0
-332 -331 -37 0
332 -331 37 0
332 331 -37 0
-333 332 39 0
-333 -332 -39 0
333 -332 39 0
333 332 -39 0
-334 4 5 0
-334 -4 -5 0
334 -4 5 0
334 4 -5 0
-335 334 13 0
-335 -334 -13 0
335 -334 13 0
335 334 -13 0
-336 335 14 0
-336 -335 -14 0
336 -335 14 0
336 335 -14 0
-337 336 22 0
-337 -336 -22 0
337 -336 22 0
337 336 -22 0
-338 337 23 0
-338 -337 -23 0
338 -337 23 0
338 337 -23 0
-339 338 31 0
-339 -338 -31 0
339 -338 31 0
339 338 -31 0
-340 339 32 0
-340 -339 -32 0
340 -339 32 0
340 339 -32 0
-341 340 40 0
-341 -340 -40 0
341 -340 40 0
341 340 -40 0
-342 341 41 0
-342 -341 -41 0
342 -341 41 0
342 341 -41 0
-343 4 6 0
-343 -4 -6 0
343 -4 6 0
343 4 -6 0
-344 343 13 0
-344 -343 -13 0
344 -343 13 0
344 343 -13 0
-345 344 15 0
-345 -344 -15 0
345 -344 15 0
345 344 -15 0
-346 345 22 0
-346 -345 -22 0
346 -345 22 0
346 345 -22 0
-347 346 24 0
-347 -346 -24 0
347 -346 24 0
347 346 -24 0
-348 347 31 0
-348 -347 -31 0
348 -347 31 0
348 347 -31 0
-349 348 33 0
-349 -348 -33 0
349 -348 33 0
349 348 -33 0
-350 349 40 0
-350 -349 -40 0
350 -349 40 0
350 349 -40 0
-351 350 42 0
-351 -350 -42 0
351 -350 42 0
351 350 -42 0
-352 5 6 0
-352 -5 -6 0
352 -5 6 0
352 5 -6 0
-353 352 7 0
-353 -352 -7 0
353 -352 7 0
353 352 -7 0
-354 353 8 0
-354 -353 -8 0
354 -353 8 0
354 353 -8 0
-355 354 9 0
-355 -354 -9 0
355 -354 9 0
355 354 -9 0
-356 355 10 0
-356 -355 -10 0
356 -355 10 0
356 355 -10 0
-357 356 11 0
-357 -356 -11 0
357 -356 11 0
357 356 -11 0
-358 357 12 0
-358 -357 -12 0
358 -357 12 0
358 357 -12 0
-359 358 22 0
-359 -358 -22 0
359 -358 22 0
359 358 -22 0
-360 359 25 0
-360 -359 -25 0
360 -359 25 0
360 359 -25 0
-361 360 28 0
-361 -360 -28 0
361 -360 28 0
361 360 -28 0
-362 361 31 0
-362 -361 -31 0
362 -361 31 0
362 361 -31 0
-363 362 32 0
-363 -362 -32 0
363 -362 32 0
363 362 -32 0
-364 363 33 0
-364 -363 -33 0
364 -363 33 0
364 363 -33 0
-365 364 46 0
-365 -364 -46 0
365 -364 46 0
365 364 -46 0
-366 365 49 0
-366 -365 -49 0
366 -365 49 0
366 365 -49 0
-367 4 6 0
-367 -4 -6 0
367 -4 6 0
367 4 -6 0
-368 367 7 0
-368 -367 -7 0
368 -367 7 0
368 367 -7 0
-369 368 8 0
-369 -368 -8 0
369 -368 8 0
369 368 -8 0
-370 369 9 0
-370 -369 -9 0
370 -369 9 0
370 369 -9 0
-371 370 10 0
-371 -370 -10 0
371 -370 10 0
371 370 -10 0
-372 371 11 0
-372 -371 -11 0
372 -371 11 0
372 371 -11 0
-373 372 12 0
-373 -372 -12 0
373 -372 12 0
373 372 -12 0
-374 373 23 0
-374 -373 -23 0
374 -373 23 0
374 373 -23 0
-375 374 26 0
-375 -374 -26 0
375 -374 26 0
375 374 -26 0
-376 375 29 0
-376 -375 -29 0
376 -375 29 0
376 375 -29 0
-377 376 31 0
-377 -376 -31 0
377 -376 31 0
377 376 -31 0
-378 377 32 0
-378 -377 -32 0
378 -377 32 0
378 377 -32 0
-379 378 33 0
-379 -378 -33 0
379 -378 33 0
379 378 -33 0
-380 379 47 0
-380 -379 -47 0
380 -379 47 0
380 379 -47 0
-381 380 50 0
-381 -380 -50 0
381 -380 50 0
381 380 -50 0
-382 5 6 0
-382 -5 -6 0
382 -5 6 0
382 5 -6 0
-383 382 7 0
-383 -382 -7 0
383 -382 7 0
383 382 -7 0
-384 383 13 0
-384 -383 -13 0
384 -383 13 0
384 383 -13 0
-385 384 14 0
-385 -384 -14 0
385 -384 14 0
385 384 -14 0
-386 385 15 0
-386 -385 -15 0
386 -385 15 0
386 385 -15 0
-387 386 22 0
-387 -386 -22 0
387 -386 22 0
387 386 -22 0
-388 387 32 0
-388 -387 -32 0
388 -387 32 0
388 387 -32 0
-389 388 33 0
-389 -388 -33 0
389 -388 33 0
389 388 -33 0
-390 389 34 0
-390 -389 -34 0
390 -389 34 0
390 389 -34 0
-391 390 35 0
-391 -390 -35 0
391 -390 35 0
391 390 -35 0
-392 391 36 0
-392 -391 -36 0
392 -391 36 0
392 391 -36 0
-393 392 46 0
-393 -392 -46 0
393 -392 46 0
393 392 -46 0
-394 393 52 0
-394 -393 -52 0
394 -393 52 0
394 393 -52 0
-395 4 6 0
-395 -4 -6 0
395 -4 6 0
395 4 -6 0
-396 395 8 0
-396 -395 -8 0
396 -395 8 0
396 395 -8 0
-397 396 13 0
-397 -396 -13 0
397 -396 13 0
397 396 -13 0
-398 397 14 0
-398 -397 -14 0
398 -397 14 0
398 397 -14 0
-399 398 15 0
-399 -398 -15 0
399 -398 15 0
399 398 -15 0
-400 399 23 0
-400 -399 -23 0
400 -399 23 0
400 399 -23 0
-401 400 31 0
-401 -400 -31 0
401 -400 31 0
401 400 -31 0
-402 401 33 0
-402 -401 -33 0
402 -401 33 0
402 401 -33 0
-403 402 34 0
-403 -402 -34 0
403 -402 34 0
403 402 -34 0
-404 403 35 0
-404 -403 -35 0
404 -403 35 0
404 403 -35 0
-405 404 36 0
-405 -404 -36 0
405 -404 36 0
405 404 -36 0
-406 405 47 0
-406 -405 -47 0
406 -405 47 0
406 405 -47 0
-407 406 53 0
-407 -406 -53 0
407 -406 53 0
407 406 -53 0
324 333 342 351 366 381 394 407 0
-1 408 0
-409 0
-410 0
-411 0
-412 0
-413 0
-414 0
-415 0
-416 0
-417 0
-2 418 0
-408 418 0
-2 -408 419 0
-409 419 0
-2 -409 420 0
-410 420 0
-2 -410 421 0
-411 421 0
-2 -411 422 0
-412 422 0
-2 -412 423 0
-413 423 0
-2 -413 424 0
-414 424 0
-2 -414 425 0
-415 425 0
-2 -415 426 0
-416 426 0
-2 -416 427 0
-417 427 0
-2 -417 0
-3 428 0
-418 428 0
-3 -418 429 0
-419 429 0
-3 -419 430 0
-420 430 0
-3 -420 431 0
-421 431 0
-3 -421 432 0
-422 432 0
-3 -422 433 0
-423 433 0
-3 -423 434 0
-424 434 0
-3 -424 435 0
-425 435 0
-3 -425 436 0
-426 436 0
-3 -426 437 0
-427 437 0
-3 -427 0
-4 438 0
-428 438 0
-4 -428 439 0
-429 439 0
-4 -429 440 0
-430 440 0
-4 -430 441 0
-431 441 0
-4 -431 442 0
-432 442 0
-4 -432 443 0
-433 443 0
-4 -433 444 0
-434 444 0
-4 -434 445 0
-435 445 0
-4 -435 446 0
-436 446 0
-4 -436 447 0
-437 447 0
-4 -437 0
-5 448 0
-438 448 0
-5 -438 449 0
-439 449 0
-5 -439 450 0
-440 450 0
-5 -440 451 0
-441 451 0
-5 -441 452 0
-442 452 0
-5 -442 453 0
-443 453 0
-5 -443 454 0
-444 454 0
-5 -444 455 0
-445 455 0
-5 -445 456 0
-446 456 0
-5 -446 457 0
-447 457 0
-5 -447 0
-6 458 0
-448 458 0
-6 -448 459 0
-449 459 0
-6 -449 460 0
-450 460 0
-6 -450 461 0
-451 461 0
-6 -451 462 0
-452 462 0
-6 -452 463 0
-453 463 0
-6 -453 464 0
-454 464 0
-6 -454 465 0
-455 465 0
-6 -455 466 0
-456 466 0
-6 -456 467 0
-457 467 0
-6 -457 0
-7 468 0
-458 468 0
-7 -458 469 0
-459 469 0
-7 -459 470 0
-460 470 0
-7 -460 471 0
-461 471 0
-7 -461 472 0
-462 472 0
-7 -462 473 0
-463 473 0
-7 -463 474 0
-464 474 0
-7 -464 475 0
-465 475 0
-7 -465 476 0
-466 476 0
-7 -466 477 0
-467 477 0
-7 -467 0
-8 478 0
-468 478 0
-8 -468 479 0
-469 479 0
-8 -469 480 0
-470 480 0
-8 -470 481 0
-471 481 0
-8 -471 482 0
-472 482 0
-8 -472 483 0
-473 483 0
-8 -473 484 0
-474 484 0
-8 -474 485 0
-475 485 0
-8 -475 486 0
-476 486 0
-8 -476 487 0
-477 487 0
-8 -477 0
-9 488 0
-478 488 0
-9 -478 489 0
-479 489 0
-9 -479 490 0
-480 490 0
-9 -480 491 0
-481 491 0
-9 -481 492 0
-482 492 0
-9 -482 493 0
-483 493 0
-9 -483 494 0
-484 494 0
-9 -484 495 0
-485 495 0
-9 -485 496 0
-486 496 0
-9 -486 497 0
-487 497 0
-9 -487 0
-10 498 0
-488 498 0
-10 -488 499 0
-489 499 0
-10 -489 500 0
-490 500 0
-10 -490 501 0
-491 501 0
-10 -491 502 0
-492 502 0
-10 -492 503 0
-493 503 0
-10 -493 504 0
-494 504 0
-10 -494 505 0
-495 505 0
-10 -495 506 0
-496 506 0
-10 -496 507 0
-497 507 0
-10 -497 0
-11 508 0
-498 508 0
-11 -498 509 0
-499 509 0
-11 -499 510 0
-500 510 0
-11 -500 511 0
-501 511 0
-11 -501 512 0
-502 512 0
-11 -502 513 0
-503 513 0
-11 -503 514 0
-504 514 0
-11 -504 515 0
-505 515 0
-11 -505 516 0
-506 516 0
-11 -506 517 0
-507 517 0
-11 -507 0
-12 518 0
-508 518 0
-12 -508 519 0
-509 519 0
-12 -509 520 0
-510 520 0
-12 -510 521 0
-511 521 0
-12 -511 522 0
-512 522 0
-12 -512 523 0
-513 523 0
-12 -513 524 0
-514 524 0
-12 -514 525 0
-515 525 0
-12 -515 526 0
-516 526 0
-12 -516 527 0
-517 527 0
-12 -517 0
-13 528 0
-518 528 0
-13 -518 529 0
-519 529 0
-13 -519 530 0
-520 530 0
-13 -520 531 0
-521 531 0
-13 -521 532 0
-522 532 0
-13 -522 533 0
-523 533 0
-13 -523 534 0
-524 534 0
-13 -524 535 0
-525 535 0
-13 -525 536 0
-526 536 0
-13 -526 537 0
-527 537 0
-13 -527 0
-14 538 0
-528 538 0
-14 -528 539 0
-529 539 0
-14 -529 540 0
-530 540 0
-14 -530 541 0
-531 541 0
-14 -531 542 0
-532 542 0
-14 -532 543 0
-533 543 0
-14 -533 544 0
-534 544 0
-14 -534 545 0
-535 545 0
-14 -535 546 0
-536 546 0
-14 -536 547 0
-537 547 0
-14 -537 0
-15 548 0
-538 548 0
-15 -538 549 0
-539 549 0
-15 -539 550 0
-540 550 0
-15 -540 551 0
-541 551 0
-15 -541 552 0
-542 552 0
-15 -542 553 0
-543 553 0
-15 -543 554 0
-544 554 0
-15 -544 555 0
-545 555 0
-15 -545 556 0
-546 556 0
-15 -546 557 0
-547 557 0
-15 -547 0
-16 558 0
-548 558 0
-16 -548 559 0
-549 559 0
-16 -549 560 0
-550 560 0
-16 -550 561 0
-551 561 0
-16 -551 562 0
-552 562 0
-16 -552 563 0
-553 563 0
-16 -553 564 0
-554 564 0
-16 -554 565 0
-555 565 0
-16 -555 566 0
-556 566 0
-16 -556 567 0
-557 567 0
-16 -557 0
-17 568 0
-558 568 0
-17 -558 569 0
-559 569 0
-17 -559 570 0
-560 570 0
-17 -560 571 0
-561 571 0
-17 -561 572 0
-562 572 0
-17 -562 573 0
-563 573 0
-17 -563 574 0
-564 574 0
-17 -564 575 0
-565 575 0
-17 -565 576 0
-566 576 0
-17 -566 577 0
-567 577 0
-17 -567 0
-18 578 0
-568 578 0
-18 -568 579 0
-569 579 0
-18 -569 580 0
-570 580 0
-18 -570 581 0
-571 581 0
-18 -571 582 0
-572 582 0
-18 -572 583 0
-573 583 0
-18 -573 584 0
-574 584 0
-18 -574 585 0
-575 585 0
-18 -575 586 0
-576 586 0
-18 -576 587 0
-577 587 0
-18 -577 0
-19 588 0
-578 588 0
-19 -578 589 0
-579 589 0
-19 -579 590 0
-580 590 0
-19 -580 591 0
-581 591 0
-19 -581 592 0
-582 592 0
-19 -582 593 0
-583 593 0
-19 -583 594 0
-584 594 0
-19 -584 595 0
-585 595 0
-19 -585 596 0
-586 596 0
-19 -586 597 0
-587 597 0
-19 -587 0
-20 598 0
-588 598 0
-20 -588 599 0
-589 599 0
-20 -589 600 0
-590 600 0
-20 -590 601 0
-591 601 0
-20 -591 602 0
-592 602 0
-20 -592 603 0
-593 603 0
-20 -593 604 0
-594 604 0
-20 -594 605 0
-595 605 0
-20 -595 606 0
-596 606 0
-20 -596 607 0
-597 607 0
-20 -597 0
-21 608 0
-598 608 0
-21 -598 609 0
-599 609 0
-21 -599 610 0
-600 610 0
-21 -600 611 0
-601 611 0
-21 -601 612 0
-602 612 0
-21 -602 613 0
-603 613 0
-21 -603 614 0
-604 614 0
-21 -604 615 0
-605 615 0
-21 -605 616 0
-606 616 0
-21 -606 617 0
-607 617 0
-21 -607 0
-22 618 0
-608 618 0
-22 -608 619 0
-609 619 0
-22 -609 620 0
-610 620 0
-22 -610 621 0
-611 621 0
-22 -611 622 0
-612 622 0
-22 -612 623 0
-613 623 0
-22 -613 624 0
-614 624 0
-22 -614 625 0
-615 625 0
-22 -615 626 0
-616 626 0
-22 -616 627 0
-617 627 0
-22 -617 0
-23 628 0
-618 628 0
-23 -618 629 0
-619 629 0
-23 -619 630 0
-620 630 0
-23 -620 631 0
-621 631 0
-23 -621 632 0
-622 632 0
-23 -622 633 0
-623 633 0
-23 -623 634 0
-624 634 0
-23 -624 635 0
-625 635 0
-23 -625 636 0
-626 636 0
-23 -626 637 0
-627 637 0
-23 -627 0
-24 638 0
-628 638 0
-24 -628 639 0
-629 639 0
-24 -629 640 0
-630 640 0
-24 -630 641 0
-631 641 0
-24 -631 642 0
-632 642 0
-24 -632 643 0
-633 643 0
-24 -633 644 0
-634 644 0
-24 -634 645 0
-635 645 0
-24 -635 646 0
-636 646 0
-24 -636 647 0
-637 647 0
-24 -637 0
-25 648 0
-638 648 0
-25 -638 649 0
-639 649 0
-25 -639 650 0
-640 650 0
-25 -640 651 0
-641 651 0
-25 -641 652 0
-642 652 0
-25 -642 653 0
-643 653 0
-25 -643 654 0
-644 654 0
-25 -644 655 0
-645 655 0
-25 -645 656 0
-646 656 0
-25 -646 657 0
-647 657 0
-25 -647 0
-26 658 0
-648 658 0
-26 -648 659 0
-649 659 0
-26 -649 660 0
-650 660 0
-26 -650 661 0
-651 661 0
-26 -651 662 0
-652 662 0
-26 -652 663 0
-653 663 0
-26 -653 664 0
-654 664 0
-26 -654 665 0
-655 665 0
-26 -655 666 0
-656 666 0
-26 -656 667 0
-657 667 0
-26 -657 0
-27 668 0
-658 668 0
-27 -658 669 0
-659 669 0
-27 -659 670 0
-660 670 0
-27 -660 671 0
-661 671 0
-27 -661 672 0
-662 672 0
-27 -662 673 0
-663 673 0
-27 -663 674 0
-664 674 0
-27 -664 675 0
-665 675 0
-27 -665 676 0
-666 676 0
-27 -666 677 0
-667 677 0
-27 -667 0
-28 678 0
-668 678 0
-28 -668 679 0
-669 679 0
-28 -669 680 0
-670 680 0
-28 -670 681 0
-671 681 0
-28 -671 682 0
-672 682 0
-28 -672 683 0
-673 683 0
-28 -673 684 0
-674 684 0
-28 -674 685 0
-675 685 0
-28 -675 686 0
-676 686 0
-28 -676 687 0
-677 687 0
-28 -677 0
-29 688 0
-678 688 0
-29 -678 689 0
-679 689 0
-29 -679 690 0
-680 690 0
-29 -680 691 0
-681 691 0
-29 -681 692 0
-682 692 0
-29 -682 693 0
-683 693 0
-29 -683 694 0
-684 694 0
-29 -684 695 0
-685 695 0
-29 -685 696 0
-686 696 0
-29 -686 697 0
-687 697 0
-29 -687 0
-30 698 0
-688 698 0
-30 -688 699 0
-689 699 0
-30 -689 700 0
-690 700 0
-30 -690 701 0
-691 701 0
-30 -691 702 0
-692 702 0
-30 -692 703 0
-693 703 0
-30 -693 704 0
-694 704 0
-30 -694 705 0
-695 705 0
-30 -695 706 0
-696 706 0
-30 -696 707 0
-697 707 0
-30 -697 0
-31 708 0
-698 708 0
-31 -698 709 0
-699 709 0
-31 -699 710 0
-700 710 0
-31 -700 711 0
-701 711 0
-31 -701 712 0
-702 712 0
-31 -702 713 0
-703 713 0
-31 -703 714 0
-704 714 0
-31 -704 715 0
-705 715 0
-31 -705 716 0
-706 716 0
-31 -706 717 0
-707 717 0
-31 -707 0
-32 718 0
-708 718 0
-32 -708 719 0
-709 719 0
-32 -709 720 0
-710 720 0
-32 -710 721 0
-711 721 0
-32 -711 722 0
-712 722 0
-32 -712 723 0
-713 723 0
-32 -713 724 0
-714 724 0
-32 -714 725 0
-715 725 0
-32 -715 726 0
-716 726 0
-32 -716 727 0
-717 727 0
-32 -717 0
-33 728 0
-718 728 0
-33 -718 729 0
-719 729 0
-33 -719 730 0
-720 730 0
-33 -720 731 0
-721 731 0
-33 -721 732 0
-722 732 0
-33 -722 733 0
-723 733 0
-33 -723 734 0
-724 734 0
-33 -724 735 0
-725 735 0
-33 -725 736 0
-726 736 0
-33 -726 737 0
-727 737 0
-33 -727 0
-34 738 0
-728 738 0
-34 -728 739 0
-729 739 0
-34 -729 740 0
-730 740 0
-34 -730 741 0
-731 741 0
-34 -731 742 0
-732 742 0
-34 -732 743 0
-733 743 0
-34 -733 744 0
-734 744 0
-34 -734 745 0
-735 745 0
-34 -735 746 0
-736 746 0
-34 -736 747 0
-737 747 0
-34 -737 0
-35 748 0
-738 748 0
-35 -738 749 0
-739 749 0
-35 -739 750 0
-740 750 0
-35 -740 751 0
-741 751 0
-35 -741 752 0
-742 752 0
-35 -742 753 0
-743 753 0
-35 -743 754 0
-744 754 0
-35 -744 755 0
-745 755 0
-35 -745 756 0
-746 756 0
-35 -746 757 0
-747 757 0
-35 -747 0
-36 758 0
-748 758 0
-36 -748 759 0
-749 759 0
-36 -749 760 0
-750 760 0
-36 -750 761 0
-751 761 0
-36 -751 762 0
-752 762 0
-36 -752 763 0
-753 763 0
-36 -753 764 0
-754 764 0
-36 -754 765 0
-755 765 0
-36 -755 766 0
-756 766 0
-36 -756 767 0
-757 767 0
-36 -757 0
-37 768 0
-758 768 0
-37 -758 769 0
-759 769 0
-37 -759 770 0
-760 770 0
-37 -760 771 0
-761 771 0
-37 -761 772 0
-762 772 0
-37 -762 773 0
-763 773 0
-37 -763 774 0
-764 774 0
-37 -764 775 0
-765 775 0
-37 -765 776 0
-766 776 0
-37 -766 777 0
-767 777 0
-37 -767 0
-38 778 0
-768 778 0
-38 -768 779 0
-769 779 0
-38 -769 780 0
-770 780 0
-38 -770 781 0
-771 781 0
-38 -771 782 0
-772 782 0
-38 -772 783 0
-773 783 0
-38 -773 784 0
-774 784 0
-38 -774 785 0
-775 785 0
-38 -775 786 0
-776 786 0
-38 -776 787 0
-777 787 0
-38 -777 0
-39 788 0
-778 788 0
-39 -778 789 0
-779 789 0
-39 -779 790 0
-780 790 0
-39 -780 791 0
-781 791 0
-39 -781 792 0
-782 792 0
-39 -782 793 0
-783 793 0
-39 -783 794 0
-784 794 0
-39 -784 795 0
-785 795 0
-39 -785 796 0
-786 796 0
-39 -786 797 0
-787 797 0
-39 -787 0
-40 798 0
-788 798 0
-40 -788 799 0
-789 799 0
-40 -789 800 0
-790 800 0
-40 -790 801 0
-791 801 0
-40 -791 802 0
-792 802 0
-40 -792 803 0
-793 803 0
-40 -793 804 0
-794 804 0
-40 -794 805 0
-795 805 0
-40 -795 806 0
-796 806 0
-40 -796 807 0
-797 807 0
-40 -797 0
-41 808 0
-798 808 0
-41 -798 809 0
-799 809 0
-41 -799 810 0
-800 810 0
-41 -800 811 0
-801 811 0
-41 -801 812 0
-802 812 0
-41 -802 813 0
-803 813 0
-41 -803 814 0
-804 814 0
-41 -804 815 0
-805 815 0
-41 -805 816 0
-806 816 0
-41 -806 817 0
-807 817 0
-41 -807 0
-42 818 0
-808 818 0
-42 -808 819 0
-809 819 0
-42 -809 820 0
-810 820 0
-42 -810 821 0
-811 821 0
-42 -811 822 0
-812 822 0
-42 -812 823 0
-813 823 0
-42 -813 824 0
-814 824 0
-42 -814 825 0
-815 825 0
-42 -815 826 0
-816 826 0
-42 -816 827 0
-817 827 0
-42 -817 0
-43 828 0
-818 828 0
-43 -818 829 0
-819 829 0
-43 -819 830 0
-820 830 0
-43 -820 831 0
-821 831 0
-43 -821 832 0
-822 832 0
-43 -822 833 0
-823 833 0
-43 -823 834 0
-824 834 0
-43 -824 835 0
-825 835 0
-43 -825 836 0
-826 836 0
-43 -826 837 0
-827 837 0
-43 -827 0
-44 838 0
-828 838 0
-44 -828 839 0
-829 839 0
-44 -829 840 0
-830 840 0
-44 -830 841 0
-831 841 0
-44 -831 842 0
-832 842 0
-44 -832 843 0
-833 843 0
-44 -833 844 0
-834 844 0
-44 -834 845 0
-835 845 0
-44 -835 846 0
-836 846 0
-44 -836 847 0
-837 847 0
-44 -837 0
-45 848 0
-838 848 0
-45 -838 849 0
-839 849 0
-45 -839 850 0
-840 850 0
-45 -840 851 0
-841 851 0
-45 -841 852 0
-842 852 0
-45 -842 853 0
-843 853 0
-45 -843 854 0
-844 854 0
-45 -844 855 0
-845 855 0
-45 -845 856 0
-846 856 0
-45 -846 857 0
-847 857 0
-45 -847 0
-46 858 0
-848 858 0
-46 -848 859 0
-849 859 0
-46 -849 860 0
-850 860 0
-46 -850 861 0
-851 861 0
-46 -851 862 0
-852 862 0
-46 -852 863 0
-853 863 0
-46 -853 864 0
-854 864 0
-46 -854 865 0
-855 865 0
-46 -855 866 0
-856 866 0
-46 -856 867 0
-857 867 0
-46 -857 0
-47 868 0
-858 868 0
-47 -858 869 0
-859 869 0
-47 -859 870 0
-860 870 0
-47 -860 871 0
-861 871 0
-47 -861 872 0
-862 872 0
-47 -862 873 0
-863 873 0
-47 -863 874 0
-864 874 0
-47 -864 875 0
-865 875 0
-47 -865 876 0
-866 876 0
-47 -866 877 0
-867 877 0
-47 -867 0
-48 878 0
-868 878 0
-48 -868 879 0
-869 879 0
-48 -869 880 0
-870 880 0
-48 -870 881 0
-871 881 0
-48 -871 882 0
-872 882 0
-48 -872 883 0
-873 883 0
-48 -873 884 0
-874 884 0
-48 -874 885 0
-875 885 0
-48 -875 886 0
-876 886 0
-48 -876 887 0
-877 887 0
-48 -877 0
-49 888 0
-878 888 0
-49 -878 889 0
-879 889 0
-49 -879 890 0
-880 890 0
-49 -880 891 0
-881 891 0
-49 -881 892 0
-882 892 0
-49 -882 893 0
-883 893 0
-49 -883 894 0
-884 894 0
-49 -884 895 0
-885 895 0
-49 -885 896 0
-886 896 0
-49 -886 897 0
-887 897 0
-49 -887 0
-50 898 0
-888 898 0
-50 -888 899 0
-889 899 0
-50 -889 900 0
-890 900 0
-50 -890 901 0
-891 901 0
-50 -891 902 0
-892 902 0
-50 -892 903 0
-893 903 0
-50 -893 904 0
-894 904 0
-50 -894 905 0
-895 905 0
-50 -895 906 0
-896 906 0
-50 -896 907 0
-897 907 0
-50 -897 0
-51 908 0
-898 908 0
-51 -898 909 0
-899 909 0
-51 -899 910 0
-900 910 0
-51 -900 911 0
-901 911 0
-51 -901 912 0
-902 912 0
-51 -902 913 0
-903 913 0
-51 -903 914 0
-904 914 0
-51 -904 915 0
-905 915 0
-51 -905 916 0
-906 916 0
-51 -906 917 0
-907 917 0
-51 -907 0
-52 918 0
-908 918 0
-52 -908 919 0
-909 919 0
-52 -909 920 0
-910 920 0
-52 -910 921 0
-911 921 0
-52 -911 922 0
-912 922 0
-52 -912 923 0
-913 923 0
-52 -913 924 0
-914 924 0
-52 -914 925 0
-915 925 0
-52 -915 926 0
-916 926 0
-52 -916 927 0
-917 927 0
-52 -917 0
-53 928 0
-918 928 0
-53 -918 929 0
-919 929 0
-53 -919 930 0
-920 930 0
-53 -920 931 0
-921 931 0
-53 -921 932 0
-922 932 0
-53 -922 933 0
-923 933 0
-53 -923 934 0
-924 934 0
-53 -924 935 0
-925 935 0
-53 -925 936 0
-926 936 0
-53 -926 937 0
-927 937 0
-53 -927 0
-54 938 0
-928 938 0
-54 -928 939 0
-929 939 0
-54 -929 940 0
-930 940 0
-54 -930 941 0
-931 941 0
-54 -931 942 0
-932 942 0
-54 -932 943 0
-933 943 0
-54 -933 944 0
-934 944 0
-54 -934 945 0
-935 945 0
-54 -935 946 0
-936 946 0
-54 -936 947 0
-937 947 0
-54 -937 0
-55 948 0
-938 948 0
-55 -938 949 0
-939 949 0
-55 -939 950 0
-940 950 0
-55 -940 951 0
-941 951 0
-55 -941 952 0
-942 952 0
-55 -942 953 0
-943 953 0
-55 -943 954 0
-944 954 0
-55 -944 955 0
-945 955 0
-55 -945 956 0
-946 956 0
-55 -946 957 0
-947 957 0
-55 -947 0
-56 958 0
-948 958 0
-56 -948 959 0
-949 959 0
-56 -949 960 0
-950 960 0
-56 -950 961 0
-951 961 0
-56 -951 962 0
-952 962 0
-56 -952 963 0
-953 963 0
-56 -953 964 0
-954 964 0
-56 -954 965 0
-955 965 0
-56 -955 966 0
-956 966 0
-56 -956 967 0
-957 967 0
-56 -957 0
-57 968 0
-958 968 0
-57 -958 969 0
-959 969 0
-57 -959 970 0
-960 970 0
-57 -960 971 0
-961 971 0
-57 -961 972 0
-962 972 0
-57 -962 973 0
-963 973 0
-57 -963 974 0
-964 974 0
-57 -964 975 0
-965 975 0
-57 -965 976 0
-966 976 0
-57 -966 977 0
-967 977 0
-57 -967 0
-58 978 0
-968 978 0
-58 -968 979 0
-969 979 0
-58 -969 980 0
-970 980 0
-58 -970 981 0
-971 981 0
-58 -971 982 0
-972 982 0
-58 -972 983 0
-973 983 0
-58 -973 984 0
-974 984 0
-58 -974 985 0
-975 985 0
-58 -975 986 0
-976 986 0
-58 -976 987 0
-977 987 0
-58 -977 0
-59 988 0
-978 988 0
-59 -978 989 0
-979 989 0
-59 -979 990 0
-980 990 0
-59 -980 991 0
-981 991 0
-59 -981 992 0
-982 992 0
-59 -982 993 0
-983 993 0
-59 -983 994 0
-984 994 0
-59 -984 995 0
-985 995 0
-59 -985 996 0
-986 996 0
-59 -986 997 0
-987 997 0
-59 -987 0
-60 998 0
-988 998 0
-60 -988 999 0
-989 999 0
-60 -989 1000 0
-990 1000 0
-60 -990 1001 0
-991 1001 0
-60 -991 1002 0
-992 1002 0
-60 -992 1003 0
-993 1003 0
-60 -993 1004 0
-994 1004 0
-60 -994 1005 0
-995 1005 0
-60 -995 1006 0
-996 1006 0
-60 -996 1007 0
-997 1007 0
-60 -997 0
-61 1008 0
-998 1008 0
-61 -998 1009 0
-999 1009 0
-61 -999 1010 0
-1000 1010 0
-61 -1000 1011 0
-1001 1011 0
-61 -1001 1012 0
-1002 1012 0
-61 -1002 1013 0
-1003 1013 0
-61 -1003 1014 0
-1004 1014 0
-61 -1004 1015 0
-1005 1015 0
-61 -1005 1016 0
-1006 1016 0
-61 -1006 1017 0
-1007 1017 0
-61 -1007 0
-62 1018 0
-1008 1018 0
-62 -1008 1019 0
-1009 1019 0
-62 -1009 1020 0
-1010 1020 0
-62 -1010 1021 0
-1011 1021 0
-62 -1011 1022 0
-1012 1022 0
-62 -1012 1023 0
-1013 1023 0
-62 -1013 1024 0
-1014 1024 0
-62 -1014 1025 0
-1015 1025 0
-62 -1015 1026 0
-1016 1026 0
-62 -1016 1027 0
-1017 1027 0
-62 -1017 0
-63 1028 0
-1018 1028 0
-63 -1018 1029 0
-1019 1029 0
-63 -1019 1030 0
-1020 1030 0
-63 -1020 1031 0
-1021 1031 0
-63 -1021 1032 0
-1022 1032 0
-63 -1022 1033 0
-1023 1033 0
-63 -1023 1034 0
-1024 1034 0
-63 -1024 1035 0
-1025 1035 0
-63 -1025 1036 0
-1026 1036 0
-63 -1026 1037 0
-1027 1037 0
-63 -1027 0
-64 1038 0
-1028 1038 0
-64 -1028 1039 0
-1029 1039 0
-64 -1029 1040 0
-1030 1040 0
-64 -1030 1041 0
-1031 1041 0
-64 -1031 1042 0
-1032 1042 0
-64 -1032 1043 0
-1033 1043 0
-64 -1033 1044 0
-1034 1044 0
-64 -1034 1045 0
-1035 1045 0
-64 -1035 1046 0
-1036 1046 0
-64 -1036 1047 0
-1037 1047 0
-64 -1037 0
-65 1048 0
-1038 1048 0
-65 -1038 1049 0
-1039 1049 0
-65 -1039 1050 0
-1040 1050 0
-65 -1040 1051 0
-1041 1051 0
-65 -1041 1052 0
-1042 1052 0
-65 -1042 1053 0
-1043 1053 0
-65 -1043 1054 0
-1044 1054 0
-65 -1044 1055 0
-1045 1055 0
-65 -1045 1056 0
-1046 1056 0
-65 -1046 1057 0
-1047 1057 0
-65 -1047 0
-66 1058 0
-1048 1058 0
-66 -1048 1059 0
-1049 1059 0
-66 -1049 1060 0
-1050 1060 0
-66 -1050 1061 0
-1051 1061 0
-66 -1051 1062 0
-1052 1062 0
-66 -1052 1063 0
-1053 1063 0
-66 -1053 1064 0
-1054 1064 0
-66 -1054 1065 0
-1055 1065 0
-66 -1055 1066 0
-1056 1066 0
-66 -1056 1067 0
-1057 1067 0
-66 -1057 0
-67 1068 0
-1058 1068 0
-67 -1058 1069 0
-1059 1069 0
-67 -1059 1070 0
-1060 1070 0
-67 -1060 1071 0
-1061 1071 0
-67 -1061 1072 0
-1062 1072 0
-67 -1062 1073 0
-1063 1073 0
-67 -1063 1074 0
-1064 1074 0
-67 -1064 1075 0
-1065 1075 0
-67 -1065 1076 0
-1066 1076 0
-67 -1066 1077 0
-1067 1077 0
-67 -1067 0
-68 1078 0
-1068 1078 0
-68 -1068 1079 0
-1069 1079 0
-68 -1069 1080 0
-1070 1080 0
-68 -1070 1081 0
-1071 1081 0
-68 -1071 1082 0
-1072 1082 0
-68 -1072 1083 0
-1073 1083 0
-68 -1073 1084 0
-1074 1084 0
-68 -1074 1085 0
-1075 1085 0
-68 -1075 1086 0
-1076 1086 0
-68 -1076 1087 0
-1077 1087 0
-68 -1077 0
-69 1088 0
-1078 1088 0
-69 -1078 1089 0
-1079 1089 0
-69 -1079 1090 0
-1080 1090 0
-69 -1080 1091 0
-1081 1091 0
-69 -1081 1092 0
-1082 1092 0
-69 -1082 1093 0
-1083 1093 0
-69 -1083 1094 0
-1084 1094 0
-69 -1084 1095 0
-1085 1095 0
-69 -1085 1096 0
-1086 1096 0
-69 -1086 1097 0
-1087 1097 0
-69 -1087 0
-70 1098 0
-1088 1098 0
-70 -1088 1099 0
-1089 1099 0
-70 -1089 1100 0
-1090 1100 0
-70 -1090 1101 0
-1091 1101 0
-70 -1091 1102 0
-1092 1102 0
-70 -1092 1103 0
-1093 1103 0
-70 -1093 1104 0
-1094 1104 0
-70 -1094 1105 0
-1095 1105 0
-70 -1095 1106 0
-1096 1106 0
-70 -1096 1107 0
-1097 1107 0
-70 -1097 0
-71 1108 0
-1098 1108 0
-71 -1098 1109 0
-1099 1109 0
-71 -1099 1110 0
-1100 1110 0
-71 -1100 1111 0
-1101 1111 0
-71 -1101 1112 0
-1102 1112 0
-71 -1102 1113 0
-1103 1113 0
-71 -1103 1114 0
-1104 1114 0
-71 -1104 1115 0
-1105 1115 0
-71 -1105 1116 0
-1106 1116 0
-71 -1106 1117 0
-1107 1117 0
-71 -1107 0
-72 1118 0
-1108 1118 0
-72 -1108 1119 0
-1109 1119 0
-72 -1109 1120 0
-1110 1120 0
-72 -1110 1121 0
-1111 1121 0
-72 -1111 1122 0
-1112 1122 0
-72 -1112 1123 0
-1113 1123 0
-72 -1113 1124 0
-1114 1124 0
-72 -1114 1125 0
-1115 1125 0
-72 -1115 1126 0
-1116 1126 0
-72 -1116 1127 0
-1117 1127 0
-72 -1117 0
-73 1128 0
-1118 1128 0
-73 -1118 1129 0
-1119 1129 0
-73 -1119 1130 0
-1120 1130 0
-73 -1120 1131 0
-1121 1131 0
-73 -1121 1132 0
-1122 1132 0
-73 -1122 1133 0
-1123 1133 0
-73 -1123 1134 0
-1124 1134 0
-73 -1124 1135 0
-1125 1135 0
-73 -1125 1136 0
-1126 1136 0
-73 -1126 1137 0
-1127 1137 0
-73 -1127 0
-74 1138 0
-1128 1138 0
-74 -1128 1139 0
-1129 1139 0
-74 -1129 1140 0
-1130 1140 0
-74 -1130 1141 0
-1131 1141 0
-74 -1131 1142 0
-1132 1142 0
-74 -1132 1143 0
-1133 1143 0
-74 -1133 1144 0
-1134 1144 0
-74 -1134 1145 0
-1135 1145 0
-74 -1135 1146 0
-1136 1146 0
-74 -1136 1147 0
-1137 1147 0
-74 -1137 0
-75 1148 0
-1138 1148 0
-75 -1138 1149 0
-1139 1149 0
-75 -1139 1150 0
-1140 1150 0
-75 -1140 1151 0
-1141 1151 0
-75 -1141 1152 0
-1142 1152 0
-75 -1142 1153 0
-1143 1153 0
-75 -1143 1154 0
-1144 1154 0
-75 -1144 1155 0
-1145 1155 0
-75 -1145 1156 0
-1146 1156 0
-75 -1146 1157 0
-1147 1157 0
-75 -1147 0
-76 1158 0
-1148 1158 0
-76 -1148 1159 0
-1149 1159 0
-76 -1149 1160 0
-1150 1160 0
-76 -1150 1161 0
-1151 1161 0
-76 -1151 1162 0
-1152 1162 0
-76 -1152 1163 0
-1153 1163 0
-76 -1153 1164 0
-1154 1164 0
-76 -1154 1165 0
-1155 1165 0
-76 -1155 1166 0
-1156 1166 0
-76 -1156 1167 0
-1157 1167 0
-76 -1157 0
-77 1168 0
-1158 1168 0
-77 -1158 1169 0
-1159 1169 0
-77 -1159 1170 0
-1160 1170 0
-77 -1160 1171 0
-1161 1171 0
-77 -1161 1172 0
-1162 1172 0
-77 -1162 1173 0
-1163 1173 0
-77 -1163 1174 0
-1164 1174 0
-77 -1164 1175 0
-1165 1175 0
-77 -1165 1176 0
-1166 1176 0
-77 -1166 1177 0
-1167 1177 0
-77 -1167 0
-78 1178 0
-1168 1178 0
-78 -1168 1179 0
-1169 1179 0
-78 -1169 1180 0
-1170 1180 0
-78 -1170 1181 0
-1171 1181 0
-78 -1171 1182 0
-1172 1182 0
-78 -1172 1183 0
-1173 1183 0
-78 -1173 1184 0
-1174 1184 0
-78 -1174 1185 0
-1175 1185 0
-78 -1175 1186 0
-1176 1186 0
-78 -1176 1187 0
-1177 1187 0
-78 -1177 0
-79 1188 0
-1178 1188 0
-79 -1178 1189 0
-1179 1189 0
-79 -1179 1190 0
-1180 1190 0
-79 -1180 1191 0
-1181 1191 0
-79 -1181 1192 0
-1182 1192 0
-79 -1182 1193 0
-1183 1193 0
-79 -1183 1194 0
-1184 1194 0
-79 -1184 1195 0
-1185 1195 0
-79 -1185 1196 0
-1186 1196 0
-79 -1186 1197 0
-1187 1197 0
-79 -1187 0
-80 1198 0
-1188 1198 0
-80 -1188 1199 0
-1189 1199 0
-80 -1189 1200 0
-1190 1200 0
-80 -1190 1201 0
-1191 1201 0
-80 -1191 1202 0
-1192 1202 0
-80 -1192 1203 0
-1193 1203 0
-80 -1193 1204 0
-1194 1204 0
-80 -1194 1205 0
-1195 1205 0
-80 -1195 1206 0
-1196 1206 0
-80 -1196 1207 0
-1197 1207 0
-80 -1197 0
-81 1208 0
-1198 1208 0
-81 -1198 1209 0
-1199 1209 0
-81 -1199 1210 0
-1200 1210 0
-81 -1200 1211 0
-1201 1211 0
-81 -1201 1212 0
-1202 1212 0
-81 -1202 1213 0
-1203 1213 0
-81 -1203 1214 0
-1204 1214 0
-81 -1204 1215 0
-1205 1215 0
-81 -1205 1216 0
-1206 1216 0
-81 -1206 1217 0
-1207 1217 0
-81 -1207 0
-82 1218 0
-1208 1218 0
-82 -1208 1219 0
-1209 1219 0
-82 -1209 1220 0
-1210 1220 0
-82 -1210 1221 0
-1211 1221 0
-82 -1211 1222 0
-1212 1222 0
-82 -1212 1223 0
-1213 1223 0
-82 -1213 1224 0
-1214 1224 0
-82 -1214 1225 0
-1215 1225 0
-82 -1215 1226 0
-1216 1226 0
-82 -1216 1227 0
-1217 1227 0
-82 -1217 0
-83 1228 0
-1218 1228 0
-83 -1218 1229 0
-1219 1229 0
-83 -1219 1230 0
-1220 1230 0
-83 -1220 1231 0
-1221 1231 0
-83 -1221 1232 0
-1222 1232 0
-83 -1222 1233 0
-1223 1233 0
-83 -1223 1234 0
-1224 1234 0
-83 -1224 1235 0
-1225 1235 0
-83 -1225 1236 0
-1226 1236 0
-83 -1226 1237 0
-1227 1237 0
-83 -1227 0
-84 1238 0
-1228 1238 0
-84 -1228 1239 0
-1229 1239 0
-84 -1229 1240 0
-1230 1240 0
-84 -1230 1241 0
-1231 1241 0
-84 -1231 1242 0
-1232 1242 0
-84 -1232 1243 0
-1233 1243 0
-84 -1233 1244 0
-1234 1244 0
-84 -1234 1245 0
-1235 1245 0
-84 -1235 1246 0
-1236 1246 0
-84 -1236 1247 0
-1237 1247 0
-84 -1237 0
-85 1248 0
-1238 1248 0
-85 -1238 1249 0
-1239 1249 0
-85 -1239 1250 0
-1240 1250 0
-85 -1240 1251 0
-1241 1251 0
-85 -1241 1252 0
-1242 1252 0
-85 -1242 1253 0
-1243 1253 0
-85 -1243 1254 0
-1244 1254 0
-85 -1244 1255 0
-1245 1255 0
-85 -1245 1256 0
-1246 1256 0
-85 -1246 1257 0
-1247 1257 0
-85 -1247 0
-86 1258 0
-1248 1258 0
-86 -1248 1259 0
-1249 1259 0
-86 -1249 1260 0
-1250 1260 0
-86 -1250 1261 0
-1251 1261 0
-86 -1251 1262 0
-1252 1262 0
-86 -1252 1263 0
-1253 1263 0
-86 -1253 1264 0
-1254 1264 0
-86 -1254 1265 0
-1255 1265 0
-86 -1255 1266 0
-1256 1266 0
-86 -1256 1267 0
-1257 1267 0
-86 -1257 0
-87 1268 0
-1258 1268 0
-87 -1258 1269 0
-1259 1269 0
-87 -1259 1270 0
-1260 1270 0
-87 -1260 1271 0
-1261 1271 0
-87 -1261 1272 0
-1262 1272 0
-87 -1262 1273 0
-1263 1273 0
-87 -1263 1274 0
-1264 1274 0
-87 -1264 1275 0
-1265 1275 0
-87 -1265 1276 0
-1266 1276 0
-87 -1266 1277 0
-1267 1277 0
-87 -1267 0
-88 1278 0
-1268 1278 0
-88 -1268 1279 0
-1269 1279 0
-88 -1269 1280 0
-1270 1280 0
-88 -1270 1281 0
-1271 1281 0
-88 -1271 1282 0
-1272 1282 0
-88 -1272 1283 0
-1273 1283 0
-88 -1273 1284 0
-1274 1284 0
-88 -1274 1285 0
-1275 1285 0
-88 -1275 1286 0
-1276 1286 0
-88 -1276 1287 0
-1277 1287 0
-88 -1277 0
-89 1288 0
-1278 1288 0
-89 -1278 1289 0
-1279 1289 0
-89 -1279 1290 0
-1280 1290 0
-89 -1280 1291 0
-1281 1291 0
-89 -1281 1292 0
-1282 1292 0
-89 -1282 1293 0
-1283 1293 0
-89 -1283 1294 0
-1284 1294 0
-89 -1284 1295 0
-1285 1295 0
-89 -1285 1296 0
-1286 1296 0
-89 -1286 1297 0
-1287 1297 0
-89 -1287 0
-90 -1297 0
