p cnf 727 2013
-73 4 25 0
-73 -4 -25 0
73 -4 25 0
73 4 -25 0
-74 73 31 0
-74 -73 -31 0
74 -73 31 0
74 73 -31 0
-75 74 41 0
-75 -74 -41 0
75 -74 41 0
75 74 -41 0
-76 75 42 0
-76 -75 -42 0
76 -75 42 0
76 75 -42 0
-77 76 55 0
-77 -76 -55 0
77 -76 55 0
77 76 -55 0
-77 0
-78 5 26 0
-78 -5 -26 0
78 -5 26 0
78 5 -26 0
-79 78 32 0
-79 -78 -32 0
79 -78 32 0
79 78 -32 0
-80 79 37 0
-80 -79 -37 0
80 -79 37 0
80 79 -37 0
-81 80 42 0
-81 -80 -42 0
81 -80 42 0
81 80 -42 0
-82 81 56 0
-82 -81 -56 0
82 -81 56 0
82 81 -56 0
-82 0
-83 6 27 0
-83 -6 -27 0
83 -6 27 0
83 6 -27 0
-84 83 33 0
-84 -83 -33 0
84 -83 33 0
84 83 -33 0
-85 84 37 0
-85 -84 -37 0
85 -84 37 0
85 84 -37 0
-86 85 38 0
-86 -85 -38 0
86 -85 38 0
86 85 -38 0
-87 86 57 0
-87 -86 -57 0
87 -86 57 0
87 86 -57 0
-87 0
-88 1 28 0
-88 -1 -28 0
88 -1 28 0
88 1 -28 0
-89 88 34 0
-89 -88 -34 0
89 -88 34 0
89 88 -34 0
-90 89 38 0
-90 -89 -38 0
90 -89 38 0
90 89 -38 0
-91 90 39 0
-91 -90 -39 0
91 -90 39 0
91 90 -39 0
-92 91 58 0
-92 -91 -58 0
92 -91 58 0
92 91 -58 0
-92 0
-93 2 29 0
-93 -2 -29 0
93 -2 29 0
93 2 -29 0
-94 93 35 0
-94 -93 -35 0
94 -93 35 0
94 93 -35 0
-95 94 39 0
-95 -94 -39 0
95 -94 39 0
95 94 -39 0
-96 95 40 0
-96 -95 -40 0
96 -95 40 0
96 95 -40 0
-97 96 59 0
-97 -96 -59 0
97 -96 59 0
97 96 -59 0
-97 0
-98 3 30 0
-98 -3 -30 0
98 -3 30 0
98 3 -30 0
-99 98 36 0
-99 -98 -36 0
99 -98 36 0
99 98 -36 0
-100 99 40 0
-100 -99 -40 0
100 -99 40 0
100 99 -40 0
-101 100 41 0
-101 -100 -41 0
101 -100 41 0
101 100 -41 0
-102 101 60 0
-102 -101 -60 0
102 -101 60 0
102 101 -60 0
-102 0
-103 1 10 0
-103 -1 -10 0
103 -1 10 0
103 1 -10 0
-104 103 31 0
-104 -103 -31 0
104 -103 31 0
104 103 -31 0
-105 104 47 0
-105 -104 -47 0
105 -104 47 0
105 104 -47 0
-106 105 48 0
-106 -105 -48 0
106 -105 48 0
106 105 -48 0
-107 106 61 0
-107 -106 -61 0
107 -106 61 0
107 106 -61 0
-107 0
-108 2 11 0
-108 -2 -11 0
108 -2 11 0
108 2 -11 0
-109 108 32 0
-109 -108 -32 0
109 -108 32 0
109 108 -32 0
-110 109 43 0
-110 -109 -43 0
110 -109 43 0
110 109 -43 0
-111 110 48 0
-111 -110 -48 0
111 -110 48 0
111 110 -48 0
-112 111 62 0
-112 -111 -62 0
112 -111 62 0
112 111 -62 0
-112 0
-113 3 12 0
-113 -3 -12 0
113 -3 12 0
113 3 -12 0
-114 113 33 0
-114 -113 -33 0
114 -113 33 0
114 113 -33 0
-115 114 43 0
-115 -114 -43 0
115 -114 43 0
115 114 -43 0
-116 115 44 0
-116 -115 -44 0
116 -115 44 0
116 115 -44 0
-117 116 63 0
-117 -116 -63 0
117 -116 63 0
117 116 -63 0
-117 0
-118 4 7 0
-118 -4 -7 0
118 -4 7 0
118 4 -7 0
-119 118 34 0
-119 -118 -34 0
119 -118 34 0
119 118 -34 0
-120 119 44 0
-120 -119 -44 0
120 -119 44 0
120 119 -44 0
-121 120 45 0
-121 -120 -45 0
121 -120 45 0
121 120 -45 0
-122 121 64 0
-122 -121 -64 0
122 -121 64 0
122 121 -64 0
-122 0
-123 5 8 0
-123 -5 -8 0
123 -5 8 0
123 5 -8 0
-124 123 35 0
-124 -123 -35 0
124 -123 35 0
124 123 -35 0
-125 124 45 0
-125 -124 -45 0
125 -124 45 0
125 124 -45 0
-126 125 46 0
-126 -125 -46 0
126 -125 46 0
126 125 -46 0
-127 126 65 0
-127 -126 -65 0
127 -126 65 0
127 126 -65 0
-127 0
-128 6 9 0
-128 -6 -9 0
128 -6 9 0
128 6 -9 0
-129 128 36 0
-129 -128 -36 0
129 -128 36 0
129 128 -36 0
-130 129 46 0
-130 -129 -46 0
130 -129 46 0
130 129 -46 0
-131 130 47 0
-131 -130 -47 0
131 -130 47 0
131 130 -47 0
-132 131 66 0
-132 -131 -66 0
132 -131 66 0
132 131 -66 0
-132 0
-133 1 7 0
-133 -1 -7 0
133 -1 7 0
133 1 -7 0
-134 133 16 0
-134 -133 -16 0
134 -133 16 0
134 133 -16 0
-135 134 53 0
-135 -134 -53 0
135 -134 53 0
135 134 -53 0
-136 135 54 0
-136 -135 -54 0
136 -135 54 0
136 135 -54 0
-137 136 67 0
-137 -136 -67 0
137 -136 67 0
137 136 -67 0
-137 0
-138 2 8 0
-138 -2 -8 0
138 -2 8 0
138 2 -8 0
-139 138 17 0
-139 -138 -17 0
139 -138 17 0
139 138 -17 0
-140 139 49 0
-140 -139 -49 0
140 -139 49 0
140 139 -49 0
-141 140 54 0
-141 -140 -54 0
141 -140 54 0
141 140 -54 0
-142 141 68 0
-142 -141 -68 0
142 -141 68 0
142 141 -68 0
-142 0
-143 3 9 0
-143 -3 -9 0
143 -3 9 0
143 3 -9 0
-144 143 18 0
-144 -143 -18 0
144 -143 18 0
144 143 -18 0
-145 144 49 0
-145 -144 -49 0
145 -144 49 0
145 144 -49 0
-146 145 50 0
-146 -145 -50 0
146 -145 50 0
146 145 -50 0
-147 146 69 0
-147 -146 -69 0
147 -146 69 0
147 146 -69 0
-147 0
-148 4 10 0
-148 -4 -10 0
148 -4 10 0
148 4 -10 0
-149 148 13 0
-149 -148 -13 0
149 -148 13 0
149 148 -13 0
-150 149 50 0
-150 -149 -50 0
150 -149 50 0
150 149 -50 0
-151 150 51 0
-151 -150 -51 0
151 -150 51 0
151 150 -51 0
-152 151 70 0
-152 -151 -70 0
152 -151 70 0
152 151 -70 0
-152 0
-153 5 11 0
-153 -5 -11 0
153 -5 11 0
153 5 -11 0
-154 153 14 0
-154 -153 -14 0
154 -153 14 0
154 153 -14 0
-155 154 51 0
-155 -154 -51 0
155 -154 51 0
155 154 -51 0
-156 155 52 0
-156 -155 -52 0
156 -155 52 0
156 155 -52 0
-157 156 71 0
-157 -156 -71 0
157 -156 71 0
157 156 -71 0
-157 0
-158 6 12 0
-158 -6 -12 0
158 -6 12 0
158 6 -12 0
-159 158 15 0
-159 -158 -15 0
159 -158 15 0
159 158 -15 0
-160 159 52 0
-160 -159 -52 0
160 -159 52 0
160 159 -52 0
-161 160 53 0
-161 -160 -53 0
161 -160 53 0
161 160 -53 0
-162 161 72 0
-162 -161 -72 0
162 -161 72 0
162 161 -72 0
-162 0
-163 7 13 0
-163 -7 -13 0
163 -7 13 0
163 7 -13 0
-164 163 22 0
-164 -163 -22 0
164 -163 22 0
164 163 -22 0
-165 164 37 0
-165 -164 -37 0
165 -164 37 0
165 164 -37 0
-166 165 59 0
-166 -165 -59 0
166 -165 59 0
166 165 -59 0
-167 166 60 0
-167 -166 -60 0
167 -166 60 0
167 166 -60 0
-167 0
-168 8 14 0
-168 -8 -14 0
168 -8 14 0
168 8 -14 0
-169 168 23 0
-169 -168 -23 0
169 -168 23 0
169 168 -23 0
-170 169 38 0
-170 -169 -38 0
170 -169 38 0
170 169 -38 0
-171 170 55 0
-171 -170 -55 0
171 -170 55 0
171 170 -55 0
-172 171 60 0
-172 -171 -60 0
172 -171 60 0
172 171 -60 0
-172 0
-173 9 15 0
-173 -9 -15 0
173 -9 15 0
173 9 -15 0
-174 173 24 0
-174 -173 -24 0
174 -173 24 0
174 173 -24 0
-175 174 39 0
-175 -174 -39 0
175 -174 39 0
175 174 -39 0
-176 175 55 0
-176 -175 -55 0
176 -175 55 0
176 175 -55 0
-177 176 56 0
-177 -176 -56 0
177 -176 56 0
177 176 -56 0
-177 0
-178 10 16 0
-178 -10 -16 0
178 -10 16 0
178 10 -16 0
-179 178 19 0
-179 -178 -19 0
179 -178 19 0
179 178 -19 0
-180 179 40 0
-180 -179 -40 0
180 -179 40 0
180 179 -40 0
-181 180 56 0
-181 -180 -56 0
181 -180 56 0
181 180 -56 0
-182 181 57 0
-182 -181 -57 0
182 -181 57 0
182 181 -57 0
-182 0
-183 11 17 0
-183 -11 -17 0
183 -11 17 0
183 11 -17 0
-184 183 20 0
-184 -183 -20 0
184 -183 20 0
184 183 -20 0
-185 184 41 0
-185 -184 -41 0
185 -184 41 0
185 184 -41 0
-186 185 57 0
-186 -185 -57 0
186 -185 57 0
186 185 -57 0
-187 186 58 0
-187 -186 -58 0
187 -186 58 0
187 186 -58 0
-187 0
-188 12 18 0
-188 -12 -18 0
188 -12 18 0
188 12 -18 0
-189 188 21 0
-189 -188 -21 0
189 -188 21 0
189 188 -21 0
-190 189 42 0
-190 -189 -42 0
190 -189 42 0
190 189 -42 0
-191 190 58 0
-191 -190 -58 0
191 -190 58 0
191 190 -58 0
-192 191 59 0
-192 -191 -59 0
192 -191 59 0
192 191 -59 0
-192 0
-193 13 19 0
-193 -13 -19 0
193 -13 19 0
193 13 -19 0
-194 193 28 0
-194 -193 -28 0
194 -193 28 0
194 193 -28 0
-195 194 43 0
-195 -194 -43 0
195 -194 43 0
195 194 -43 0
-196 195 65 0
-196 -195 -65 0
196 -195 65 0
196 195 -65 0
-197 196 66 0
-197 -196 -66 0
197 -196 66 0
197 196 -66 0
-197 0
-198 14 20 0
-198 -14 -20 0
198 -14 20 0
198 14 -20 0
-199 198 29 0
-199 -198 -29 0
199 -198 29 0
199 198 -29 0
-200 199 44 0
-200 -199 -44 0
200 -199 44 0
200 199 -44 0
-201 200 61 0
-201 -200 -61 0
201 -200 61 0
201 200 -61 0
-202 201 66 0
-202 -201 -66 0
202 -201 66 0
202 201 -66 0
-202 0
-203 15 21 0
-203 -15 -21 0
203 -15 21 0
203 15 -21 0
-204 203 30 0
-204 -203 -30 0
204 -203 30 0
204 203 -30 0
-205 204 45 0
-205 -204 -45 0
205 -204 45 0
205 204 -45 0
-206 205 61 0
-206 -205 -61 0
206 -205 61 0
206 205 -61 0
-207 206 62 0
-207 -206 -62 0
207 -206 62 0
207 206 -62 0
-207 0
-208 16 22 0
-208 -16 -22 0
208 -16 22 0
208 16 -22 0
-209 208 25 0
-209 -208 -25 0
209 -208 25 0
209 208 -25 0
-210 209 46 0
-210 -209 -46 0
210 -209 46 0
210 209 -46 0
-211 210 62 0
-211 -210 -62 0
211 -210 62 0
211 210 -62 0
-212 211 63 0
-212 -211 -63 0
212 -211 63 0
212 211 -63 0
-212 0
-213 17 23 0
-213 -17 -23 0
213 -17 23 0
213 17 -23 0
-214 213 26 0
-214 -213 -26 0
214 -213 26 0
214 213 -26 0
-215 214 47 0
-215 -214 -47 0
215 -214 47 0
215 214 -47 0
-216 215 63 0
-216 -215 -63 0
216 -215 63 0
216 215 -63 0
-217 216 64 0
-217 -216 -64 0
217 -216 64 0
217 216 -64 0
-217 0
-218 18 24 0
-218 -18 -24 0
218 -18 24 0
218 18 -24 0
-219 218 27 0
-219 -218 -27 0
219 -218 27 0
219 218 -27 0
-220 219 48 0
-220 -219 -48 0
220 -219 48 0
220 219 -48 0
-221 220 64 0
-221 -220 -64 0
221 -220 64 0
221 220 -64 0
-222 221 65 0
-222 -221 -65 0
222 -221 65 0
222 221 -65 0
-222 0
-223 19 25 0
-223 -19 -25 0
223 -19 25 0
223 19 -25 0
-224 223 34 0
-224 -223 -34 0
224 -223 34 0
224 223 -34 0
-225 224 49 0
-225 -224 -49 0
225 -224 49 0
225 224 -49 0
-226 225 71 0
-226 -225 -71 0
226 -225 71 0
226 225 -71 0
-227 226 72 0
-227 -226 -72 0
227 -226 72 0
227 226 -72 0
-227 0
-228 20 26 0
-228 -20 -26 0
228 -20 26 0
228 20 -26 0
-229 228 35 0
-229 -228 -35 0
229 -228 35 0
229 228 -35 0
-230 229 50 0
-230 -229 -50 0
230 -229 50 0
230 229 -50 0
-231 230 67 0
-231 -230 -67 0
231 -230 67 0
231 230 -67 0
-232 231 72 0
-232 -231 -72 0
232 -231 72 0
232 231 -72 0
-232 0
-233 21 27 0
-233 -21 -27 0
233 -21 27 0
233 21 -27 0
-234 233 36 0
-234 -233 -36 0
234 -233 36 0
234 233 -36 0
-235 234 51 0
-235 -234 -51 0
235 -234 51 0
235 234 -51 0
-236 235 67 0
-236 -235 -67 0
236 -235 67 0
236 235 -67 0
-237 236 68 0
-237 -236 -68 0
237 -236 68 0
237 236 -68 0
-237 0
-238 22 28 0
-238 -22 -28 0
238 -22 28 0
238 22 -28 0
-239 238 31 0
-239 -238 -31 0
239 -238 31 0
239 238 -31 0
-240 239 52 0
-240 -239 -52 0
240 -239 52 0
240 239 -52 0
-241 240 68 0
-241 -240 -68 0
241 -240 68 0
241 240 -68 0
-242 241 69 0
-242 -241 -69 0
242 -241 69 0
242 241 -69 0
-242 0
-243 23 29 0
-243 -23 -29 0
243 -23 29 0
243 23 -29 0
-244 243 32 0
-244 -243 -32 0
244 -243 32 0
244 243 -32 0
-245 244 53 0
-245 -244 -53 0
245 -244 53 0
245 244 -53 0
-246 245 69 0
-246 -245 -69 0
246 -245 69 0
246 245 -69 0
-247 246 70 0
-247 -246 -70 0
247 -246 70 0
247 246 -70 0
-247 0
-248 24 30 0
-248 -24 -30 0
248 -24 30 0
248 24 -30 0
-249 248 33 0
-249 -248 -33 0
249 -248 33 0
249 248 -33 0
-250 249 54 0
-250 -249 -54 0
250 -249 54 0
250 249 -54 0
-251 250 70 0
-251 -250 -70 0
251 -250 70 0
251 250 -70 0
-252 251 71 0
-252 -251 -71 0
252 -251 71 0
252 251 -71 0
-252 0
-253 1 2 0
-253 -1 -2 0
253 -1 2 0
253 1 -2 0
-254 253 5 0
-254 -253 -5 0
254 -253 5 0
254 253 -5 0
-255 254 6 0
-255 -254 -6 0
255 -254 6 0
255 254 -6 0
-256 255 19 0
-256 -255 -19 0
256 -255 19 0
256 255 -19 0
-257 256 21 0
-257 -256 -21 0
257 -256 21 0
257 256 -21 0
-258 1 2 0
-258 -1 -2 0
258 -1 2 0
258 1 -2 0
-259 258 3 0
-259 -258 -3 0
259 -258 3 0
259 258 -3 0
-260 259 6 0
-260 -259 -6 0
260 -259 6 0
260 259 -6 0
-261 260 20 0
-261 -260 -20 0
261 -260 20 0
261 260 -20 0
-262 261 22 0
-262 -261 -22 0
262 -261 22 0
262 261 -22 0
-263 3 4 0
-263 -3 -4 0
263 -3 4 0
263 3 -4 0
-264 263 5 0
-264 -263 -5 0
264 -263 5 0
264 263 -5 0
-265 264 6 0
-265 -264 -6 0
265 -264 6 0
265 264 -6 0
-266 265 19 0
-266 -265 -19 0
266 -265 19 0
266 265 -19 0
-267 266 23 0
-267 -266 -23 0
267 -266 23 0
267 266 -23 0
-268 1 4 0
-268 -1 -4 0
268 -1 4 0
268 1 -4 0
-269 268 5 0
-269 -268 -5 0
269 -268 5 0
269 268 -5 0
-270 269 6 0
-270 -269 -6 0
270 -269 6 0
270 269 -6 0
-271 270 20 0
-271 -270 -20 0
271 -270 20 0
271 270 -20 0
-272 271 24 0
-272 -271 -24 0
272 -271 24 0
272 271 -24 0
-273 7 8 0
-273 -7 -8 0
273 -7 8 0
273 7 -8 0
-274 273 11 0
-274 -273 -11 0
274 -273 11 0
274 273 -11 0
-275 274 12 0
-275 -274 -12 0
275 -274 12 0
275 274 -12 0
-276 275 25 0
-276 -275 -25 0
276 -275 25 0
276 275 -25 0
-277 276 27 0
-277 -276 -27 0
277 -276 27 0
277 276 -27 0
-278 7 8 0
-278 -7 -8 0
278 -7 8 0
278 7 -8 0
-279 278 9 0
-279 -278 -9 0
279 -278 9 0
279 278 -9 0
-280 279 12 0
-280 -279 -12 0
280 -279 12 0
280 279 -12 0
-281 280 26 0
-281 -280 -26 0
281 -280 26 0
281 280 -26 0
-282 281 28 0
-282 -281 -28 0
282 -281 28 0
282 281 -28 0
-283 1 5 0
-283 -1 -5 0
283 -1 5 0
283 1 -5 0
-284 283 8 0
-284 -283 -8 0
284 -283 8 0
284 283 -8 0
-285 284 9 0
-285 -284 -9 0
285 -284 9 0
285 284 -9 0
-286 285 12 0
-286 -285 -12 0
286 -285 12 0
286 285 -12 0
-287 286 19 0
-287 -286 -19 0
287 -286 19 0
287 286 -19 0
-288 287 20 0
-288 -287 -20 0
288 -287 20 0
288 287 -20 0
-289 288 26 0
-289 -288 -26 0
289 -288 26 0
289 288 -26 0
-290 289 37 0
-290 -289 -37 0
290 -289 37 0
290 289 -37 0
-291 290 38 0
-291 -290 -38 0
291 -290 38 0
291 290 -38 0
-292 291 39 0
-292 -291 -39 0
292 -291 39 0
292 291 -39 0
-293 292 43 0
-293 -292 -43 0
293 -292 43 0
293 292 -43 0
-294 293 44 0
-294 -293 -44 0
294 -293 44 0
294 293 -44 0
-295 294 45 0
-295 -294 -45 0
295 -294 45 0
295 294 -45 0
-296 10 11 0
-296 -10 -11 0
296 -10 11 0
296 10 -11 0
-297 296 25 0
-297 -296 -25 0
297 -296 25 0
297 296 -25 0
-298 297 26 0
-298 -297 -26 0
298 -297 26 0
298 297 -26 0
-299 298 37 0
-299 -298 -37 0
299 -298 37 0
299 298 -37 0
-300 299 40 0
-300 -299 -40 0
300 -299 40 0
300 299 -40 0
-301 300 43 0
-301 -300 -43 0
301 -300 43 0
301 300 -43 0
-302 301 46 0
-302 -301 -46 0
302 -301 46 0
302 301 -46 0
-303 1 6 0
-303 -1 -6 0
303 -1 6 0
303 1 -6 0
-304 303 9 0
-304 -303 -9 0
304 -303 9 0
304 303 -9 0
-305 304 12 0
-305 -304 -12 0
305 -304 12 0
305 304 -12 0
-306 305 13 0
-306 -305 -13 0
306 -305 13 0
306 305 -13 0
-307 306 14 0
-307 -306 -14 0
307 -306 14 0
307 306 -14 0
-308 307 15 0
-308 -307 -15 0
308 -307 15 0
308 307 -15 0
-309 308 18 0
-309 -308 -18 0
309 -308 18 0
309 308 -18 0
-310 309 20 0
-310 -309 -20 0
310 -309 20 0
310 309 -20 0
-311 310 26 0
-311 -310 -26 0
311 -310 26 0
311 310 -26 0
-312 311 32 0
-312 -311 -32 0
312 -311 32 0
312 311 -32 0
-313 312 37 0
-313 -312 -37 0
313 -312 37 0
313 312 -37 0
-314 313 39 0
-314 -313 -39 0
314 -313 39 0
314 313 -39 0
-315 314 43 0
-315 -314 -43 0
315 -314 43 0
315 314 -43 0
-316 315 44 0
-316 -315 -44 0
316 -315 44 0
316 315 -44 0
-317 316 49 0
-317 -316 -49 0
317 -316 49 0
317 316 -49 0
-318 1 6 0
-318 -1 -6 0
318 -1 6 0
318 1 -6 0
-319 318 9 0
-319 -318 -9 0
319 -318 9 0
319 318 -9 0
-320 319 10 0
-320 -319 -10 0
320 -319 10 0
320 319 -10 0
-321 320 11 0
-321 -320 -11 0
321 -320 11 0
321 320 -11 0
-322 321 15 0
-322 -321 -15 0
322 -321 15 0
322 321 -15 0
-323 322 16 0
-323 -322 -16 0
323 -322 16 0
323 322 -16 0
-324 323 17 0
-324 -323 -17 0
324 -323 17 0
324 323 -17 0
-325 324 18 0
-325 -324 -18 0
325 -324 18 0
325 324 -18 0
-326 325 20 0
-326 -325 -20 0
326 -325 20 0
326 325 -20 0
-327 326 25 0
-327 -326 -25 0
327 -326 25 0
327 326 -25 0
-328 327 26 0
-328 -327 -26 0
328 -327 26 0
328 327 -26 0
-329 328 31 0
-329 -328 -31 0
329 -328 31 0
329 328 -31 0
-330 329 37 0
-330 -329 -37 0
330 -329 37 0
330 329 -37 0
-331 330 39 0
-331 -330 -39 0
331 -330 39 0
331 330 -39 0
-332 331 40 0
-332 -331 -40 0
332 -331 40 0
332 331 -40 0
-333 332 43 0
-333 -332 -43 0
333 -332 43 0
333 332 -43 0
-334 333 50 0
-334 -333 -50 0
334 -333 50 0
334 333 -50 0
-335 1 5 0
-335 -1 -5 0
335 -1 5 0
335 1 -5 0
-336 335 7 0
-336 -335 -7 0
336 -335 7 0
336 335 -7 0
-337 336 8 0
-337 -336 -8 0
337 -336 8 0
337 336 -8 0
-338 337 9 0
-338 -337 -9 0
338 -337 9 0
338 337 -9 0
-339 338 10 0
-339 -338 -10 0
339 -338 10 0
339 338 -10 0
-340 339 13 0
-340 -339 -13 0
340 -339 13 0
340 339 -13 0
-341 340 15 0
-341 -340 -15 0
341 -340 15 0
341 340 -15 0
-342 341 16 0
-342 -341 -16 0
342 -341 16 0
342 341 -16 0
-343 342 17 0
-343 -342 -17 0
343 -342 17 0
343 342 -17 0
-344 343 18 0
-344 -343 -18 0
344 -343 18 0
344 343 -18 0
-345 344 19 0
-345 -344 -19 0
345 -344 19 0
345 344 -19 0
-346 345 20 0
-346 -345 -20 0
346 -345 20 0
346 345 -20 0
-347 346 31 0
-347 -346 -31 0
347 -346 31 0
347 346 -31 0
-348 347 37 0
-348 -347 -37 0
348 -347 37 0
348 347 -37 0
-349 348 38 0
-349 -348 -38 0
349 -348 38 0
349 348 -38 0
-350 349 39 0
-350 -349 -39 0
350 -349 39 0
350 349 -39 0
-351 350 40 0
-351 -350 -40 0
351 -350 40 0
351 350 -40 0
-352 351 44 0
-352 -351 -44 0
352 -351 44 0
352 351 -44 0
-353 352 51 0
-353 -352 -51 0
353 -352 51 0
353 352 -51 0
-354 1 6 0
-354 -1 -6 0
354 -1 6 0
354 1 -6 0
-355 354 9 0
-355 -354 -9 0
355 -354 9 0
355 354 -9 0
-356 355 10 0
-356 -355 -10 0
356 -355 10 0
356 355 -10 0
-357 356 11 0
-357 -356 -11 0
357 -356 11 0
357 356 -11 0
-358 357 12 0
-358 -357 -12 0
358 -357 12 0
358 357 -12 0
-359 358 13 0
-359 -358 -13 0
359 -358 13 0
359 358 -13 0
-360 359 14 0
-360 -359 -14 0
360 -359 14 0
360 359 -14 0
-361 360 15 0
-361 -360 -15 0
361 -360 15 0
361 360 -15 0
-362 361 16 0
-362 -361 -16 0
362 -361 16 0
362 361 -16 0
-363 362 17 0
-363 -362 -17 0
363 -362 17 0
363 362 -17 0
-364 363 18 0
-364 -363 -18 0
364 -363 18 0
364 363 -18 0
-365 364 20 0
-365 -364 -20 0
365 -364 20 0
365 364 -20 0
-366 365 25 0
-366 -365 -25 0
366 -365 25 0
366 365 -25 0
-367 366 31 0
-367 -366 -31 0
367 -366 31 0
367 366 -31 0
-368 367 39 0
-368 -367 -39 0
368 -367 39 0
368 367 -39 0
-369 368 40 0
-369 -368 -40 0
369 -368 40 0
369 368 -40 0
-370 369 43 0
-370 -369 -43 0
370 -369 43 0
370 369 -43 0
-371 370 44 0
-371 -370 -44 0
371 -370 44 0
371 370 -44 0
-372 371 52 0
-372 -371 -52 0
372 -371 52 0
372 371 -52 0
257 262 267 272 277 282 295 302 317 334 353 372 0
-1 373 0
-374 0
-375 0
-376 0
-377 0
-2 378 0
-373 378 0
-2 -373 379 0
-374 379 0
-2 -374 380 0
-375 380 0
-2 -375 381 0
-376 381 0
-2 -376 382 0
-377 382 0
-2 -377 0
-3 383 0
-378 383 0
-3 -378 384 0
-379 384 0
-3 -379 385 0
-380 385 0
-3 -380 386 0
-381 386 0
-3 -381 387 0
-382 387 0
-3 -382 0
-4 388 0
-383 388 0
-4 -383 389 0
-384 389 0
-4 -384 390 0
-385 390 0
-4 -385 391 0
-386 391 0
-4 -386 392 0
-387 392 0
-4 -387 0
-5 393 0
-388 393 0
-5 -388 394 0
-389 394 0
-5 -389 395 0
-390 395 0
-5 -390 396 0
-391 396 0
-5 -391 397 0
-392 397 0
-5 -392 0
-6 398 0
-393 398 0
-6 -393 399 0
-394 399 0
-6 -394 400 0
-395 400 0
-6 -395 401 0
-396 401 0
-6 -396 402 0
-397 402 0
-6 -397 0
-7 403 0
-398 403 0
-7 -398 404 0
-399 404 0
-7 -399 405 0
-400 405 0
-7 -400 406 0
-401 406 0
-7 -401 407 0
-402 407 0
-7 -402 0
-8 408 0
-403 408 0
-8 -403 409 0
-404 409 0
-8 -404 410 0
-405 410 0
-8 -405 411 0
-406 411 0
-8 -406 412 0
-407 412 0
-8 -407 0
-9 413 0
-408 413 0
-9 -408 414 0
-409 414 0
-9 -409 415 0
-410 415 0
-9 -410 416 0
-411 416 0
-9 -411 417 0
-412 417 0
-9 -412 0
-10 418 0
-413 418 0
-10 -413 419 0
-414 419 0
-10 -414 420 0
-415 420 0
-10 -415 421 0
-416 421 0
-10 -416 422 0
-417 422 0
-10 -417 0
-11 423 0
-418 423 0
-11 -418 424 0
-419 424 0
-11 -419 425 0
-420 425 0
-11 -420 426 0
-421 426 0
-11 -421 427 0
-422 427 0
-11 -422 0
-12 428 0
-423 428 0
-12 -423 429 0
-424 429 0
-12 -424 430 0
-425 430 0
-12 -425 431 0
-426 431 0
-12 -426 432 0
-427 432 0
-12 -427 0
-13 433 0
-428 433 0
-13 -428 434 0
-429 434 0
-13 -429 435 0
-430 435 0
-13 -430 436 0
-431 436 0
-13 -431 437 0
-432 437 0
-13 -432 0
-14 438 0
-433 438 0
-14 -433 439 0
-434 439 0
-14 -434 440 0
-435 440 0
-14 -435 441 0
-436 441 0
-14 -436 442 0
-437 442 0
-14 -437 0
-15 443 0
-438 443 0
-15 -438 444 0
-439 444 0
-15 -439 445 0
-440 445 0
-15 -440 446 0
-441 446 0
-15 -441 447 0
-442 447 0
-15 -442 0
-16 448 0
-443 448 0
-16 -443 449 0
-444 449 0
-16 -444 450 0
-445 450 0
-16 -445 451 0
-446 451 0
-16 -446 452 0
-447 452 0
-16 -447 0
-17 453 0
-448 453 0
-17 -448 454 0
-449 454 0
-17 -449 455 0
-450 455 0
-17 -450 456 0
-451 456 0
-17 -451 457 0
-452 457 0
-17 -452 0
-18 458 0
-453 458 0
-18 -453 459 0
-454 459 0
-18 -454 460 0
-455 460 0
-18 -455 461 0
-456 461 0
-18 -456 462 0
-457 462 0
-18 -457 0
-19 463 0
-458 463 0
-19 -458 464 0
-459 464 0
-19 -459 465 0
-460 465 0
-19 -460 466 0
-461 466 0
-19 -461 467 0
-462 467 0
-19 -462 0
-20 468 0
-463 468 0
-20 -463 469 0
-464 469 0
-20 -464 470 0
-465 470 0
-20 -465 471 0
-466 471 0
-20 -466 472 0
-467 472 0
-20 -467 0
-21 473 0
-468 473 0
-21 -468 474 0
-469 474 0
-21 -469 475 0
-470 475 0
-21 -470 476 0
-471 476 0
-21 -471 477 0
-472 477 0
-21 -472 0
-22 478 0
-473 478 0
-22 -473 479 0
-474 479 0
-22 -474 480 0
-475 480 0
-22 -475 481 0
-476 481 0
-22 -476 482 0
-477 482 0
-22 -477 0
-23 483 0
-478 483 0
-23 -478 484 0
-479 484 0
-23 -479 485 0
-480 485 0
-23 -480 486 0
-481 486 0
-23 -481 487 0
-482 487 0
-23 -482 0
-24 488 0
-483 488 0
-24 -483 489 0
-484 489 0
-24 -484 490 0
-485 490 0
-24 -485 491 0
-486 491 0
-24 -486 492 0
-487 492 0
-24 -487 0
-25 493 0
-488 493 0
-25 -488 494 0
-489 494 0
-25 -489 495 0
-490 495 0
-25 -490 496 0
-491 496 0
-25 -491 497 0
-492 497 0
-25 -492 0
-26 498 0
-493 498 0
-26 -493 499 0
-494 499 0
-26 -494 500 0
-495 500 0
-26 -495 501 0
-496 501 0
-26 -496 502 0
-497 502 0
-26 -497 0
-27 503 0
-498 503 0
-27 -498 504 0
-499 504 0
-27 -499 505 0
-500 505 0
-27 -500 506 0
-501 506 0
-27 -501 507 0
-502 507 0
-27 -502 0
-28 508 0
-503 508 0
-28 -503 509 0
-504 509 0
-28 -504 510 0
-505 510 0
-28 -505 511 0
-506 511 0
-28 -506 512 0
-507 512 0
-28 -507 0
-29 513 0
-508 513 0
-29 -508 514 0
-509 514 0
-29 -509 515 0
-510 515 0
-29 -510 516 0
-511 516 0
-29 -511 517 0
-512 517 0
-29 -512 0
-30 518 0
-513 518 0
-30 -513 519 0
-514 519 0
-30 -514 520 0
-515 520 0
-30 -515 521 0
-516 521 0
-30 -516 522 0
-517 522 0
-30 -517 0
-31 523 0
-518 523 0
-31 -518 524 0
-519 524 0
-31 -519 525 0
-520 525 0
-31 -520 526 0
-521 526 0
-31 -521 527 0
-522 527 0
-31 -522 0
-32 528 0
-523 528 0
-32 -523 529 0
-524 529 0
-32 -524 530 0
-525 530 0
-32 -525 531 0
-526 531 0
-32 -526 532 0
-527 532 0
-32 -527 0
-33 533 0
-528 533 0
-33 -528 534 0
-529 534 0
-33 -529 535 0
-530 535 0
-33 -530 536 0
-531 536 0
-33 -531 537 0
-532 537 0
-33 -532 0
-34 538 0
-533 538 0
-34 -533 539 0
-534 539 0
-34 -534 540 0
-535 540 0
-34 -535 541 0
-536 541 0
-34 -536 542 0
-537 542 0
-34 -537 0
-35 543 0
-538 543 0
-35 -538 544 0
-539 544 0
-35 -539 545 0
-540 545 0
-35 -540 546 0
-541 546 0
-35 -541 547 0
-542 547 0
-35 -542 0
-36 548 0
-543 548 0
-36 -543 549 0
-544 549 0
-36 -544 550 0
-545 550 0
-36 -545 551 0
-546 551 0
-36 -546 552 0
-547 552 0
-36 -547 0
-37 553 0
-548 553 0
-37 -548 554 0
-549 554 0
-37 -549 555 0
-550 555 0
-37 -550 556 0
-551 556 0
-37 -551 557 0
-552 557 0
-37 -552 0
-38 558 0
-553 558 0
-38 -553 559 0
-554 559 0
-38 -554 560 0
-555 560 0
-38 -555 561 0
-556 561 0
-38 -556 562 0
-557 562 0
-38 -557 0
-39 563 0
-558 563 0
-39 -558 564 0
-559 564 0
-39 -559 565 0
-560 565 0
-39 -560 566 0
-561 566 0
-39 -561 567 0
-562 567 0
-39 -562 0
-40 568 0
-563 568 0
-40 -563 569 0
-564 569 0
-40 -564 570 0
-565 570 0
-40 -565 571 0
-566 571 0
-40 -566 572 0
-567 572 0
-40 -567 0
-41 573 0
-568 573 0
-41 -568 574 0
-569 574 0
-41 -569 575 0
-570 575 0
-41 -570 576 0
-571 576 0
-41 -571 577 0
-572 577 0
-41 -572 0
-42 578 0
-573 578 0
-42 -573 579 0
-574 579 0
-42 -574 580 0
-575 580 0
-42 -575 581 0
-576 581 0
-42 -576 582 0
-577 582 0
-42 -577 0
-43 583 0
-578 583 0
-43 -578 584 0
-579 584 0
-43 -579 585 0
-580 585 0
-43 -580 586 0
-581 586 0
-43 -581 587 0
-582 587 0
-43 -582 0
-44 588 0
-583 588 0
-44 -583 589 0
-584 589 0
-44 -584 590 0
-585 590 0
-44 -585 591 0
-586 591 0
-44 -586 592 0
-587 592 0
-44 -587 0
-45 593 0
-588 593 0
-45 -588 594 0
-589 594 0
-45 -589 595 0
-590 595 0
-45 -590 596 0
-591 596 0
-45 -591 597 0
-592 597 0
-45 -592 0
-46 598 0
-593 598 0
-46 -593 599 0
-594 599 0
-46 -594 600 0
-595 600 0
-46 -595 601 0
-596 601 0
-46 -596 602 0
-597 602 0
-46 -597 0
-47 603 0
-598 603 0
-47 -598 604 0
-599 604 0
-47 -599 605 0
-600 605 0
-47 -600 606 0
-601 606 0
-47 -601 607 0
-602 607 0
-47 -602 0
-48 608 0
-603 608 0
-48 -603 609 0
-604 609 0
-48 -604 610 0
-605 610 0
-48 -605 611 0
-606 611 0
-48 -606 612 0
-607 612 0
-48 -607 0
-49 613 0
-608 613 0
-49 -608 614 0
-609 614 0
-49 -609 615 0
-610 615 0
-49 -610 616 0
-611 616 0
-49 -611 617 0
-612 617 0
-49 -612 0
-50 618 0
-613 618 0
-50 -613 619 0
-614 619 0
-50 -614 620 0
-615 620 0
-50 -615 621 0
-616 621 0
-50 -616 622 0
-617 622 0
-50 -617 0
-51 623 0
-618 623 0
-51 -618 624 0
-619 624 0
-51 -619 625 0
-620 625 0
-51 -620 626 0
-621 626 0
-51 -621 627 0
-622 627 0
-51 -622 0
-52 628 0
-623 628 0
-52 -623 629 0
-624 629 0
-52 -624 630 0
-625 630 0
-52 -625 631 0
-626 631 0
-52 -626 632 0
-627 632 0
-52 -627 0
-53 633 0
-628 633 0
-53 -628 634 0
-629 634 0
-53 -629 635 0
-630 635 0
-53 -630 636 0
-631 636 0
-53 -631 637 0
-632 637 0
-53 -632 0
-54 638 0
-633 638 0
-54 -633 639 0
-634 639 0
-54 -634 640 0
-635 640 0
-54 -635 641 0
-636 641 0
-54 -636 642 0
-637 642 0
-54 -637 0
-55 643 0
-638 643 0
-55 -638 644 0
-639 644 0
-55 -639 645 0
-640 645 0
-55 -640 646 0
-641 646 0
-55 -641 647 0
-642 647 0
-55 -642 0
-56 648 0
-643 648 0
-56 -643 649 0
-644 649 0
-56 -644 650 0
-645 650 0
-56 -645 651 0
-646 651 0
-56 -646 652 0
-647 652 0
-56 -647 0
-57 653 0
-648 653 0
-57 -648 654 0
-649 654 0
-57 -649 655 0
-650 655 0
-57 -650 656 0
-651 656 0
-57 -651 657 0
-652 657 0
-57 -652 0
-58 658 0
-653 658 0
-58 -653 659 0
-654 659 0
-58 -654 660 0
-655 660 0
-58 -655 661 0
-656 661 0
-58 -656 662 0
-657 662 0
-58 -657 0
-59 663 0
-658 663 0
-59 -658 664 0
-659 664 0
-59 -659 665 0
-660 665 0
-59 -660 666 0
-661 666 0
-59 -661 667 0
-662 667 0
-59 -662 0
-60 668 0
-663 668 0
-60 -663 669 0
-664 669 0
-60 -664 670 0
-665 670 0
-60 -665 671 0
-666 671 0
-60 -666 672 0
-667 672 0
-60 -667 0
-61 673 0
-668 673 0
-61 -668 674 0
-669 674 0
-61 -669 675 0
-670 675 0
-61 -670 676 0
-671 676 0
-61 -671 677 0
-672 677 0
-61 -672 0
-62 678 0
-673 678 0
-62 -673 679 0
-674 679 0
-62 -674 680 0
-675 680 0
-62 -675 681 0
-676 681 0
-62 -676 682 0
-677 682 0
-62 -677 0
-63 683 0
-678 683 0
-63 -678 684 0
-679 684 0
-63 -679 685 0
-680 685 0
-63 -680 686 0
-681 686 0
-63 -681 687 0
-682 687 0
-63 -682 0
-64 688 0
-683 688 0
-64 -683 689 0
-684 689 0
-64 -684 690 0
-685 690 0
-64 -685 691 0
-686 691 0
-64 -686 692 0
-687 692 0
-64 -687 0
-65 693 0
-688 693 0
-65 -688 694 0
-689 694 0
-65 -689 695 0
-690 695 0
-65 -690 696 0
-691 696 0
-65 -691 697 0
-692 697 0
-65 -692 0
-66 698 0
-693 698 0
-66 -693 699 0
-694 699 0
-66 -694 700 0
-695 700 0
-66 -695 701 0
-696 701 0
-66 -696 702 0
-697 702 0
-66 -697 0
-67 703 0
-698 703 0
-67 -698 704 0
-699 704 0
-67 -699 705 0
-700 705 0
-67 -700 706 0
-701 706 0
-67 -701 707 0
-702 707 0
-67 -702 0
-68 708 0
-703 708 0
-68 -703 709 0
-704 709 0
-68 -704 710 0
-705 710 0
-68 -705 711 0
-706 711 0
-68 -706 712 0
-707 712 0
-68 -707 0
-69 713 0
-708 713 0
-69 -708 714 0
-709 714 0
-69 -709 715 0
-710 715 0
-69 -710 716 0
-711 716 0
-69 -711 717 0
-712 717 0
-69 -712 0
-70 718 0
-713 718 0
-70 -713 719 0
-714 719 0
-70 -714 720 0
-715 720 0
-70 -715 721 0
-716 721 0
-70 -716 722 0
-717 722 0
-70 -717 0
-71 723 0
-718 723 0
-71 -718 724 0
-719 724 0
-71 -719 725 0
-720 725 0
-71 -720 726 0
-721 726 0
-71 -721 727 0
-722 727 0
-71 -722 0
-72 -727 0
