p cnf 709 1941
-73 2 3 0
-73 -2 -3 0
73 -2 3 0
73 2 -3 0
-74 73 19 0
-74 -73 -19 0
74 -73 19 0
74 73 -19 0
-75 74 40 0
-75 -74 -40 0
75 -74 40 0
75 74 -40 0
-76 75 43 0
-76 -75 -43 0
76 -75 43 0
76 75 -43 0
-77 76 49 0
-77 -76 -49 0
77 -76 49 0
77 76 -49 0
-77 0
-78 3 4 0
-78 -3 -4 0
78 -3 4 0
78 3 -4 0
-79 78 20 0
-79 -78 -20 0
79 -78 20 0
79 78 -20 0
-80 79 41 0
-80 -79 -41 0
80 -79 41 0
80 79 -41 0
-81 80 44 0
-81 -80 -44 0
81 -80 44 0
81 80 -44 0
-82 81 50 0
-82 -81 -50 0
82 -81 50 0
82 81 -50 0
-82 0
-83 4 5 0
-83 -4 -5 0
83 -4 5 0
83 4 -5 0
-84 83 21 0
-84 -83 -21 0
84 -83 21 0
84 83 -21 0
-85 84 42 0
-85 -84 -42 0
85 -84 42 0
85 84 -42 0
-86 85 45 0
-86 -85 -45 0
86 -85 45 0
86 85 -45 0
-87 86 51 0
-87 -86 -51 0
87 -86 51 0
87 86 -51 0
-87 0
-88 5 6 0
-88 -5 -6 0
88 -5 6 0
88 5 -6 0
-89 88 22 0
-89 -88 -22 0
89 -88 22 0
89 88 -22 0
-90 89 37 0
-90 -89 -37 0
90 -89 37 0
90 89 -37 0
-91 90 46 0
-91 -90 -46 0
91 -90 46 0
91 90 -46 0
-92 91 52 0
-92 -91 -52 0
92 -91 52 0
92 91 -52 0
-92 0
-93 1 6 0
-93 -1 -6 0
93 -1 6 0
93 1 -6 0
-94 93 23 0
-94 -93 -23 0
94 -93 23 0
94 93 -23 0
-95 94 38 0
-95 -94 -38 0
95 -94 38 0
95 94 -38 0
-96 95 47 0
-96 -95 -47 0
96 -95 47 0
96 95 -47 0
-97 96 53 0
-97 -96 -53 0
97 -96 53 0
97 96 -53 0
-97 0
-98 1 2 0
-98 -1 -2 0
98 -1 2 0
98 1 -2 0
-99 98 24 0
-99 -98 -24 0
99 -98 24 0
99 98 -24 0
-100 99 39 0
-100 -99 -39 0
100 -99 39 0
100 99 -39 0
-101 100 48 0
-101 -100 -48 0
101 -100 48 0
101 100 -48 0
-102 101 54 0
-102 -101 -54 0
102 -101 54 0
102 101 -54 0
-102 0
-103 8 9 0
-103 -8 -9 0
103 -8 9 0
103 8 -9 0
-104 103 25 0
-104 -103 -25 0
104 -103 25 0
104 103 -25 0
-105 104 46 0
-105 -104 -46 0
105 -104 46 0
105 104 -46 0
-106 105 49 0
-106 -105 -49 0
106 -105 49 0
106 105 -49 0
-107 106 55 0
-107 -106 -55 0
107 -106 55 0
107 106 -55 0
-107 0
-108 9 10 0
-108 -9 -10 0
108 -9 10 0
108 9 -10 0
-109 108 26 0
-109 -108 -26 0
109 -108 26 0
109 108 -26 0
-110 109 47 0
-110 -109 -47 0
110 -109 47 0
110 109 -47 0
-111 110 50 0
-111 -110 -50 0
111 -110 50 0
111 110 -50 0
-112 111 56 0
-112 -111 -56 0
112 -111 56 0
112 111 -56 0
-112 0
-113 10 11 0
-113 -10 -11 0
113 -10 11 0
113 10 -11 0
-114 113 27 0
-114 -113 -27 0
114 -113 27 0
114 113 -27 0
-115 114 48 0
-115 -114 -48 0
115 -114 48 0
115 114 -48 0
-116 115 51 0
-116 -115 -51 0
116 -115 51 0
116 115 -51 0
-117 116 57 0
-117 -116 -57 0
117 -116 57 0
117 116 -57 0
-117 0
-118 11 12 0
-118 -11 -12 0
118 -11 12 0
118 11 -12 0
-119 118 28 0
-119 -118 -28 0
119 -118 28 0
119 118 -28 0
-120 119 43 0
-120 -119 -43 0
120 -119 43 0
120 119 -43 0
-121 120 52 0
-121 -120 -52 0
121 -120 52 0
121 120 -52 0
-122 121 58 0
-122 -121 -58 0
122 -121 58 0
122 121 -58 0
-122 0
-123 7 12 0
-123 -7 -12 0
123 -7 12 0
123 7 -12 0
-124 123 29 0
-124 -123 -29 0
124 -123 29 0
124 123 -29 0
-125 124 44 0
-125 -124 -44 0
125 -124 44 0
125 124 -44 0
-126 125 53 0
-126 -125 -53 0
126 -125 53 0
126 125 -53 0
-127 126 59 0
-127 -126 -59 0
127 -126 59 0
127 126 -59 0
-127 0
-128 7 8 0
-128 -7 -8 0
128 -7 8 0
128 7 -8 0
-129 128 30 0
-129 -128 -30 0
129 -128 30 0
129 128 -30 0
-130 129 45 0
-130 -129 -45 0
130 -129 45 0
130 129 -45 0
-131 130 54 0
-131 -130 -54 0
131 -130 54 0
131 130 -54 0
-132 131 60 0
-132 -131 -60 0
132 -131 60 0
132 131 -60 0
-132 0
-133 14 15 0
-133 -14 -15 0
133 -14 15 0
133 14 -15 0
-134 133 31 0
-134 -133 -31 0
134 -133 31 0
134 133 -31 0
-135 134 52 0
-135 -134 -52 0
135 -134 52 0
135 134 -52 0
-136 135 55 0
-136 -135 -55 0
136 -135 55 0
136 135 -55 0
-137 136 61 0
-137 -136 -61 0
137 -136 61 0
137 136 -61 0
-137 0
-138 15 16 0
-138 -15 -16 0
138 -15 16 0
138 15 -16 0
-139 138 32 0
-139 -138 -32 0
139 -138 32 0
139 138 -32 0
-140 139 53 0
-140 -139 -53 0
140 -139 53 0
140 139 -53 0
-141 140 56 0
-141 -140 -56 0
141 -140 56 0
141 140 -56 0
-142 141 62 0
-142 -141 -62 0
142 -141 62 0
142 141 -62 0
-142 0
-143 16 17 0
-143 -16 -17 0
143 -16 17 0
143 16 -17 0
-144 143 33 0
-144 -143 -33 0
144 -143 33 0
144 143 -33 0
-145 144 54 0
-145 -144 -54 0
145 -144 54 0
145 144 -54 0
-146 145 57 0
-146 -145 -57 0
146 -145 57 0
146 145 -57 0
-147 146 63 0
-147 -146 -63 0
147 -146 63 0
147 146 -63 0
-147 0
-148 17 18 0
-148 -17 -18 0
148 -17 18 0
148 17 -18 0
-149 148 34 0
-149 -148 -34 0
149 -148 34 0
149 148 -34 0
-150 149 49 0
-150 -149 -49 0
150 -149 49 0
150 149 -49 0
-151 150 58 0
-151 -150 -58 0
151 -150 58 0
151 150 -58 0
-152 151 64 0
-152 -151 -64 0
152 -151 64 0
152 151 -64 0
-152 0
-153 13 18 0
-153 -13 -18 0
153 -13 18 0
153 13 -18 0
-154 153 35 0
-154 -153 -35 0
154 -153 35 0
154 153 -35 0
-155 154 50 0
-155 -154 -50 0
155 -154 50 0
155 154 -50 0
-156 155 59 0
-156 -155 -59 0
156 -155 59 0
156 155 -59 0
-157 156 65 0
-157 -156 -65 0
157 -156 65 0
157 156 -65 0
-157 0
-158 13 14 0
-158 -13 -14 0
158 -13 14 0
158 13 -14 0
-159 158 36 0
-159 -158 -36 0
159 -158 36 0
159 158 -36 0
-160 159 51 0
-160 -159 -51 0
160 -159 51 0
160 159 -51 0
-161 160 60 0
-161 -160 -60 0
161 -160 60 0
161 160 -60 0
-162 161 66 0
-162 -161 -66 0
162 -161 66 0
162 161 -66 0
-162 0
-163 1 20 0
-163 -1 -20 0
163 -1 20 0
163 1 -20 0
-164 163 21 0
-164 -163 -21 0
164 -163 21 0
164 163 -21 0
-165 164 58 0
-165 -164 -58 0
165 -164 58 0
165 164 -58 0
-166 165 61 0
-166 -165 -61 0
166 -165 61 0
166 165 -61 0
-167 166 67 0
-167 -166 -67 0
167 -166 67 0
167 166 -67 0
-167 0
-168 2 21 0
-168 -2 -21 0
168 -2 21 0
168 2 -21 0
-169 168 22 0
-169 -168 -22 0
169 -168 22 0
169 168 -22 0
-170 169 59 0
-170 -169 -59 0
170 -169 59 0
170 169 -59 0
-171 170 62 0
-171 -170 -62 0
171 -170 62 0
171 170 -62 0
-172 171 68 0
-172 -171 -68 0
172 -171 68 0
172 171 -68 0
-172 0
-173 3 22 0
-173 -3 -22 0
173 -3 22 0
173 3 -22 0
-174 173 23 0
-174 -173 -23 0
174 -173 23 0
174 173 -23 0
-175 174 60 0
-175 -174 -60 0
175 -174 60 0
175 174 -60 0
-176 175 63 0
-176 -175 -63 0
176 -175 63 0
176 175 -63 0
-177 176 69 0
-177 -176 -69 0
177 -176 69 0
177 176 -69 0
-177 0
-178 4 23 0
-178 -4 -23 0
178 -4 23 0
178 4 -23 0
-179 178 24 0
-179 -178 -24 0
179 -178 24 0
179 178 -24 0
-180 179 55 0
-180 -179 -55 0
180 -179 55 0
180 179 -55 0
-181 180 64 0
-181 -180 -64 0
181 -180 64 0
181 180 -64 0
-182 181 70 0
-182 -181 -70 0
182 -181 70 0
182 181 -70 0
-182 0
-183 5 19 0
-183 -5 -19 0
183 -5 19 0
183 5 -19 0
-184 183 24 0
-184 -183 -24 0
184 -183 24 0
184 183 -24 0
-185 184 56 0
-185 -184 -56 0
185 -184 56 0
185 184 -56 0
-186 185 65 0
-186 -185 -65 0
186 -185 65 0
186 185 -65 0
-187 186 71 0
-187 -186 -71 0
187 -186 71 0
187 186 -71 0
-187 0
-188 6 19 0
-188 -6 -19 0
188 -6 19 0
188 6 -19 0
-189 188 20 0
-189 -188 -20 0
189 -188 20 0
189 188 -20 0
-190 189 57 0
-190 -189 -57 0
190 -189 57 0
190 189 -57 0
-191 190 66 0
-191 -190 -66 0
191 -190 66 0
191 190 -66 0
-192 191 72 0
-192 -191 -72 0
192 -191 72 0
192 191 -72 0
-192 0
-193 7 26 0
-193 -7 -26 0
193 -7 26 0
193 7 -26 0
-194 193 27 0
-194 -193 -27 0
194 -193 27 0
194 193 -27 0
-195 194 37 0
-195 -194 -37 0
195 -194 37 0
195 194 -37 0
-196 195 64 0
-196 -195 -64 0
196 -195 64 0
196 195 -64 0
-197 196 67 0
-197 -196 -67 0
197 -196 67 0
197 196 -67 0
-197 0
-198 8 27 0
-198 -8 -27 0
198 -8 27 0
198 8 -27 0
-199 198 28 0
-199 -198 -28 0
199 -198 28 0
199 198 -28 0
-200 199 38 0
-200 -199 -38 0
200 -199 38 0
200 199 -38 0
-201 200 65 0
-201 -200 -65 0
201 -200 65 0
201 200 -65 0
-202 201 68 0
-202 -201 -68 0
202 -201 68 0
202 201 -68 0
-202 0
-203 9 28 0
-203 -9 -28 0
203 -9 28 0
203 9 -28 0
-204 203 29 0
-204 -203 -29 0
204 -203 29 0
204 203 -29 0
-205 204 39 0
-205 -204 -39 0
205 -204 39 0
205 204 -39 0
-206 205 66 0
-206 -205 -66 0
206 -205 66 0
206 205 -66 0
-207 206 69 0
-207 -206 -69 0
207 -206 69 0
207 206 -69 0
-207 0
-208 10 29 0
-208 -10 -29 0
208 -10 29 0
208 10 -29 0
-209 208 30 0
-209 -208 -30 0
209 -208 30 0
209 208 -30 0
-210 209 40 0
-210 -209 -40 0
210 -209 40 0
210 209 -40 0
-211 210 61 0
-211 -210 -61 0
211 -210 61 0
211 210 -61 0
-212 211 70 0
-212 -211 -70 0
212 -211 70 0
212 211 -70 0
-212 0
-213 11 25 0
-213 -11 -25 0
213 -11 25 0
213 11 -25 0
-214 213 30 0
-214 -213 -30 0
214 -213 30 0
214 213 -30 0
-215 214 41 0
-215 -214 -41 0
215 -214 41 0
215 214 -41 0
-216 215 62 0
-216 -215 -62 0
216 -215 62 0
216 215 -62 0
-217 216 71 0
-217 -216 -71 0
217 -216 71 0
217 216 -71 0
-217 0
-218 12 25 0
-218 -12 -25 0
218 -12 25 0
218 12 -25 0
-219 218 26 0
-219 -218 -26 0
219 -218 26 0
219 218 -26 0
-220 219 42 0
-220 -219 -42 0
220 -219 42 0
220 219 -42 0
-221 220 63 0
-221 -220 -63 0
221 -220 63 0
221 220 -63 0
-222 221 72 0
-222 -221 -72 0
222 -221 72 0
222 221 -72 0
-222 0
-223 13 32 0
-223 -13 -32 0
223 -13 32 0
223 13 -32 0
-224 223 33 0
-224 -223 -33 0
224 -223 33 0
224 223 -33 0
-225 224 37 0
-225 -224 -37 0
225 -224 37 0
225 224 -37 0
-226 225 43 0
-226 -225 -43 0
226 -225 43 0
226 225 -43 0
-227 226 70 0
-227 -226 -70 0
227 -226 70 0
227 226 -70 0
-227 0
-228 14 33 0
-228 -14 -33 0
228 -14 33 0
228 14 -33 0
-229 228 34 0
-229 -228 -34 0
229 -228 34 0
229 228 -34 0
-230 229 38 0
-230 -229 -38 0
230 -229 38 0
230 229 -38 0
-231 230 44 0
-231 -230 -44 0
231 -230 44 0
231 230 -44 0
-232 231 71 0
-232 -231 -71 0
232 -231 71 0
232 231 -71 0
-232 0
-233 15 34 0
-233 -15 -34 0
233 -15 34 0
233 15 -34 0
-234 233 35 0
-234 -233 -35 0
234 -233 35 0
234 233 -35 0
-235 234 39 0
-235 -234 -39 0
235 -234 39 0
235 234 -39 0
-236 235 45 0
-236 -235 -45 0
236 -235 45 0
236 235 -45 0
-237 236 72 0
-237 -236 -72 0
237 -236 72 0
237 236 -72 0
-237 0
-238 16 35 0
-238 -16 -35 0
238 -16 35 0
238 16 -35 0
-239 238 36 0
-239 -238 -36 0
239 -238 36 0
239 238 -36 0
-240 239 40 0
-240 -239 -40 0
240 -239 40 0
240 239 -40 0
-241 240 46 0
-241 -240 -46 0
241 -240 46 0
241 240 -46 0
-242 241 67 0
-242 -241 -67 0
242 -241 67 0
242 241 -67 0
-242 0
-243 17 31 0
-243 -17 -31 0
243 -17 31 0
243 17 -31 0
-244 243 36 0
-244 -243 -36 0
244 -243 36 0
244 243 -36 0
-245 244 41 0
-245 -244 -41 0
245 -244 41 0
245 244 -41 0
-246 245 47 0
-246 -245 -47 0
246 -245 47 0
246 245 -47 0
-247 246 68 0
-247 -246 -68 0
247 -246 68 0
247 246 -68 0
-247 0
-248 18 31 0
-248 -18 -31 0
248 -18 31 0
248 18 -31 0
-249 248 32 0
-249 -248 -32 0
249 -248 32 0
249 248 -32 0
-250 249 42 0
-250 -249 -42 0
250 -249 42 0
250 249 -42 0
-251 250 48 0
-251 -250 -48 0
251 -250 48 0
251 250 -48 0
-252 251 69 0
-252 -251 -69 0
252 -251 69 0
252 251 -69 0
-252 0
-253 4 7 0
-253 -4 -7 0
253 -4 7 0
253 4 -7 0
-254 253 13 0
-254 -253 -13 0
254 -253 13 0
254 253 -13 0
-255 254 16 0
-255 -254 -16 0
255 -254 16 0
255 254 -16 0
-256 255 19 0
-256 -255 -19 0
256 -255 19 0
256 255 -19 0
-257 256 25 0
-257 -256 -25 0
257 -256 25 0
257 256 -25 0
-258 5 8 0
-258 -5 -8 0
258 -5 8 0
258 5 -8 0
-259 258 14 0
-259 -258 -14 0
259 -258 14 0
259 258 -14 0
-260 259 17 0
-260 -259 -17 0
260 -259 17 0
260 259 -17 0
-261 260 20 0
-261 -260 -20 0
261 -260 20 0
261 260 -20 0
-262 261 26 0
-262 -261 -26 0
262 -261 26 0
262 261 -26 0
-263 6 9 0
-263 -6 -9 0
263 -6 9 0
263 6 -9 0
-264 263 15 0
-264 -263 -15 0
264 -263 15 0
264 263 -15 0
-265 264 18 0
-265 -264 -18 0
265 -264 18 0
265 264 -18 0
-266 265 21 0
-266 -265 -21 0
266 -265 21 0
266 265 -21 0
-267 266 27 0
-267 -266 -27 0
267 -266 27 0
267 266 -27 0
-268 1 10 0
-268 -1 -10 0
268 -1 10 0
268 1 -10 0
-269 268 13 0
-269 -268 -13 0
269 -268 13 0
269 268 -13 0
-270 269 16 0
-270 -269 -16 0
270 -269 16 0
270 269 -16 0
-271 270 22 0
-271 -270 -22 0
271 -270 22 0
271 270 -22 0
-272 271 28 0
-272 -271 -28 0
272 -271 28 0
272 271 -28 0
-273 4 7 0
-273 -4 -7 0
273 -4 7 0
273 4 -7 0
-274 273 10 0
-274 -273 -10 0
274 -273 10 0
274 273 -10 0
-275 274 16 0
-275 -274 -16 0
275 -274 16 0
275 274 -16 0
-276 275 22 0
-276 -275 -22 0
276 -275 22 0
276 275 -22 0
-277 276 31 0
-277 -276 -31 0
277 -276 31 0
277 276 -31 0
-278 5 8 0
-278 -5 -8 0
278 -5 8 0
278 5 -8 0
-279 278 11 0
-279 -278 -11 0
279 -278 11 0
279 278 -11 0
-280 279 17 0
-280 -279 -17 0
280 -279 17 0
280 279 -17 0
-281 280 23 0
-281 -280 -23 0
281 -280 23 0
281 280 -23 0
-282 281 32 0
-282 -281 -32 0
282 -281 32 0
282 281 -32 0
-283 1 2 0
-283 -1 -2 0
283 -1 2 0
283 1 -2 0
-284 283 4 0
-284 -283 -4 0
284 -283 4 0
284 283 -4 0
-285 284 5 0
-285 -284 -5 0
285 -284 5 0
285 284 -5 0
-286 285 7 0
-286 -285 -7 0
286 -285 7 0
286 285 -7 0
-287 286 8 0
-287 -286 -8 0
287 -286 8 0
287 286 -8 0
-288 287 10 0
-288 -287 -10 0
288 -287 10 0
288 287 -10 0
-289 288 11 0
-289 -288 -11 0
289 -288 11 0
289 288 -11 0
-290 289 37 0
-290 -289 -37 0
290 -289 37 0
290 289 -37 0
-291 290 38 0
-291 -290 -38 0
291 -290 38 0
291 290 -38 0
-292 291 40 0
-292 -291 -40 0
292 -291 40 0
292 291 -40 0
-293 292 41 0
-293 -292 -41 0
293 -292 41 0
293 292 -41 0
-294 1 3 0
-294 -1 -3 0
294 -1 3 0
294 1 -3 0
-295 294 4 0
-295 -294 -4 0
295 -294 4 0
295 294 -4 0
-296 295 6 0
-296 -295 -6 0
296 -295 6 0
296 295 -6 0
-297 296 7 0
-297 -296 -7 0
297 -296 7 0
297 296 -7 0
-298 297 9 0
-298 -297 -9 0
298 -297 9 0
298 297 -9 0
-299 298 10 0
-299 -298 -10 0
299 -298 10 0
299 298 -10 0
-300 299 12 0
-300 -299 -12 0
300 -299 12 0
300 299 -12 0
-301 300 37 0
-301 -300 -37 0
301 -300 37 0
301 300 -37 0
-302 301 39 0
-302 -301 -39 0
302 -301 39 0
302 301 -39 0
-303 302 40 0
-303 -302 -40 0
303 -302 40 0
303 302 -40 0
-304 303 42 0
-304 -303 -42 0
304 -303 42 0
304 303 -42 0
-305 1 2 0
-305 -1 -2 0
305 -1 2 0
305 1 -2 0
-306 305 3 0
-306 -305 -3 0
306 -305 3 0
306 305 -3 0
-307 306 6 0
-307 -306 -6 0
307 -306 6 0
307 306 -6 0
-308 307 7 0
-308 -307 -7 0
308 -307 7 0
308 307 -7 0
-309 308 8 0
-309 -308 -8 0
309 -308 8 0
309 308 -8 0
-310 309 9 0
-310 -309 -9 0
310 -309 9 0
310 309 -9 0
-311 310 10 0
-311 -310 -10 0
311 -310 10 0
311 310 -10 0
-312 311 13 0
-312 -311 -13 0
312 -311 13 0
312 311 -13 0
-313 312 15 0
-313 -312 -15 0
313 -312 15 0
313 312 -15 0
-314 313 38 0
-314 -313 -38 0
314 -313 38 0
314 313 -38 0
-315 314 40 0
-315 -314 -40 0
315 -314 40 0
315 314 -40 0
-316 315 43 0
-316 -315 -43 0
316 -315 43 0
316 315 -43 0
-317 316 45 0
-317 -316 -45 0
317 -316 45 0
317 316 -45 0
-318 3 5 0
-318 -3 -5 0
318 -3 5 0
318 3 -5 0
-319 318 7 0
-319 -318 -7 0
319 -318 7 0
319 318 -7 0
-320 319 9 0
-320 -319 -9 0
320 -319 9 0
320 319 -9 0
-321 320 14 0
-321 -320 -14 0
321 -320 14 0
321 320 -14 0
-322 321 16 0
-322 -321 -16 0
322 -321 16 0
322 321 -16 0
-323 322 37 0
-323 -322 -37 0
323 -322 37 0
323 322 -37 0
-324 323 38 0
-324 -323 -38 0
324 -323 38 0
324 323 -38 0
-325 324 39 0
-325 -324 -39 0
325 -324 39 0
325 324 -39 0
-326 325 40 0
-326 -325 -40 0
326 -325 40 0
326 325 -40 0
-327 326 44 0
-327 -326 -44 0
327 -326 44 0
327 326 -44 0
-328 327 46 0
-328 -327 -46 0
328 -327 46 0
328 327 -46 0
-329 3 5 0
-329 -3 -5 0
329 -3 5 0
329 3 -5 0
-330 329 8 0
-330 -329 -8 0
330 -329 8 0
330 329 -8 0
-331 330 9 0
-331 -330 -9 0
331 -330 9 0
331 330 -9 0
-332 331 10 0
-332 -331 -10 0
332 -331 10 0
332 331 -10 0
-333 332 11 0
-333 -332 -11 0
333 -332 11 0
333 332 -11 0
-334 333 13 0
-334 -333 -13 0
334 -333 13 0
334 333 -13 0
-335 334 17 0
-335 -334 -17 0
335 -334 17 0
335 334 -17 0
-336 335 37 0
-336 -335 -37 0
336 -335 37 0
336 335 -37 0
-337 336 38 0
-337 -336 -38 0
337 -336 38 0
337 336 -38 0
-338 337 39 0
-338 -337 -39 0
338 -337 39 0
338 337 -39 0
-339 338 40 0
-339 -338 -40 0
339 -338 40 0
339 338 -40 0
-340 339 43 0
-340 -339 -43 0
340 -339 43 0
340 339 -43 0
-341 340 47 0
-341 -340 -47 0
341 -340 47 0
341 340 -47 0
-342 1 2 0
-342 -1 -2 0
342 -1 2 0
342 1 -2 0
-343 342 5 0
-343 -342 -5 0
343 -342 5 0
343 342 -5 0
-344 343 6 0
-344 -343 -6 0
344 -343 6 0
344 343 -6 0
-345 344 7 0
-345 -344 -7 0
345 -344 7 0
345 344 -7 0
-346 345 8 0
-346 -345 -8 0
346 -345 8 0
346 345 -8 0
-347 346 9 0
-347 -346 -9 0
347 -346 9 0
347 346 -9 0
-348 347 12 0
-348 -347 -12 0
348 -347 12 0
348 347 -12 0
-349 348 14 0
-349 -348 -14 0
349 -348 14 0
349 348 -14 0
-350 349 18 0
-350 -349 -18 0
350 -349 18 0
350 349 -18 0
-351 350 37 0
-351 -350 -37 0
351 -350 37 0
351 350 -37 0
-352 351 39 0
-352 -351 -39 0
352 -351 39 0
352 351 -39 0
-353 352 44 0
-353 -352 -44 0
353 -352 44 0
353 352 -44 0
-354 353 48 0
-354 -353 -48 0
354 -353 48 0
354 353 -48 0
257 262 267 272 277 282 293 304 317 328 341 354 0
-1 355 0
-356 0
-357 0
-358 0
-359 0
-2 360 0
-355 360 0
-2 -355 361 0
-356 361 0
-2 -356 362 0
-357 362 0
-2 -357 363 0
-358 363 0
-2 -358 364 0
-359 364 0
-2 -359 0
-3 365 0
-360 365 0
-3 -360 366 0
-361 366 0
-3 -361 367 0
-362 367 0
-3 -362 368 0
-363 368 0
-3 -363 369 0
-364 369 0
-3 -364 0
-4 370 0
-365 370 0
-4 -365 371 0
-366 371 0
-4 -366 372 0
-367 372 0
-4 -367 373 0
-368 373 0
-4 -368 374 0
-369 374 0
-4 -369 0
-5 375 0
-370 375 0
-5 -370 376 0
-371 376 0
-5 -371 377 0
-372 377 0
-5 -372 378 0
-373 378 0
-5 -373 379 0
-374 379 0
-5 -374 0
-6 380 0
-375 380 0
-6 -375 381 0
-376 381 0
-6 -376 382 0
-377 382 0
-6 -377 383 0
-378 383 0
-6 -378 384 0
-379 384 0
-6 -379 0
-7 385 0
-380 385 0
-7 -380 386 0
-381 386 0
-7 -381 387 0
-382 387 0
-7 -382 388 0
-383 388 0
-7 -383 389 0
-384 389 0
-7 -384 0
-8 390 0
-385 390 0
-8 -385 391 0
-386 391 0
-8 -386 392 0
-387 392 0
-8 -387 393 0
-388 393 0
-8 -388 394 0
-389 394 0
-8 -389 0
-9 395 0
-390 395 0
-9 -390 396 0
-391 396 0
-9 -391 397 0
-392 397 0
-9 -392 398 0
-393 398 0
-9 -393 399 0
-394 399 0
-9 -394 0
-10 400 0
-395 400 0
-10 -395 401 0
-396 401 0
-10 -396 402 0
-397 402 0
-10 -397 403 0
-398 403 0
-10 -398 404 0
-399 404 0
-10 -399 0
-11 405 0
-400 405 0
-11 -400 406 0
-401 406 0
-11 -401 407 0
-402 407 0
-11 -402 408 0
-403 408 0
-11 -403 409 0
-404 409 0
-11 -404 0
-12 410 0
-405 410 0
-12 -405 411 0
-406 411 0
-12 -406 412 0
-407 412 0
-12 -407 413 0
-408 413 0
-12 -408 414 0
-409 414 0
-12 -409 0
-13 415 0
-410 415 0
-13 -410 416 0
-411 416 0
-13 -411 417 0
-412 417 0
-13 -412 418 0
-413 418 0
-13 -413 419 0
-414 419 0
-13 -414 0
-14 420 0
-415 420 0
-14 -415 421 0
-416 421 0
-14 -416 422 0
-417 422 0
-14 -417 423 0
-418 423 0
-14 -418 424 0
-419 424 0
-14 -419 0
-15 425 0
-420 425 0
-15 -420 426 0
-421 426 0
-15 -421 427 0
-422 427 0
-15 -422 428 0
-423 428 0
-15 -423 429 0
-424 429 0
-15 -424 0
-16 430 0
-425 430 0
-16 -425 431 0
-426 431 0
-16 -426 432 0
-427 432 0
-16 -427 433 0
-428 433 0
-16 -428 434 0
-429 434 0
-16 -429 0
-17 435 0
-430 435 0
-17 -430 436 0
-431 436 0
-17 -431 437 0
-432 437 0
-17 -432 438 0
-433 438 0
-17 -433 439 0
-434 439 0
-17 -434 0
-18 440 0
-435 440 0
-18 -435 441 0
-436 441 0
-18 -436 442 0
-437 442 0
-18 -437 443 0
-438 443 0
-18 -438 444 0
-439 444 0
-18 -439 0
-19 445 0
-440 445 0
-19 -440 446 0
-441 446 0
-19 -441 447 0
-442 447 0
-19 -442 448 0
-443 448 0
-19 -443 449 0
-444 449 0
-19 -444 0
-20 450 0
-445 450 0
-20 -445 451 0
-446 451 0
-20 -446 452 0
-447 452 0
-20 -447 453 0
-448 453 0
-20 -448 454 0
-449 454 0
-20 -449 0
-21 455 0
-450 455 0
-21 -450 456 0
-451 456 0
-21 -451 457 0
-452 457 0
-21 -452 458 0
-453 458 0
-21 -453 459 0
-454 459 0
-21 -454 0
-22 460 0
-455 460 0
-22 -455 461 0
-456 461 0
-22 -456 462 0
-457 462 0
-22 -457 463 0
-458 463 0
-22 -458 464 0
-459 464 0
-22 -459 0
-23 465 0
-460 465 0
-23 -460 466 0
-461 466 0
-23 -461 467 0
-462 467 0
-23 -462 468 0
-463 468 0
-23 -463 469 0
-464 469 0
-23 -464 0
-24 470 0
-465 470 0
-24 -465 471 0
-466 471 0
-24 -466 472 0
-467 472 0
-24 -467 473 0
-468 473 0
-24 -468 474 0
-469 474 0
-24 -469 0
-25 475 0
-470 475 0
-25 -470 476 0
-471 476 0
-25 -471 477 0
-472 477 0
-25 -472 478 0
-473 478 0
-25 -473 479 0
-474 479 0
-25 -474 0
-26 480 0
-475 480 0
-26 -475 481 0
-476 481 0
-26 -476 482 0
-477 482 0
-26 -477 483 0
-478 483 0
-26 -478 484 0
-479 484 0
-26 -479 0
-27 485 0
-480 485 0
-27 -480 486 0
-481 486 0
-27 -481 487 0
-482 487 0
-27 -482 488 0
-483 488 0
-27 -483 489 0
-484 489 0
-27 -484 0
-28 490 0
-485 490 0
-28 -485 491 0
-486 491 0
-28 -486 492 0
-487 492 0
-28 -487 493 0
-488 493 0
-28 -488 494 0
-489 494 0
-28 -489 0
-29 495 0
-490 495 0
-29 -490 496 0
-491 496 0
-29 -491 497 0
-492 497 0
-29 -492 498 0
-493 498 0
-29 -493 499 0
-494 499 0
-29 -494 0
-30 500 0
-495 500 0
-30 -495 501 0
-496 501 0
-30 -496 502 0
-497 502 0
-30 -497 503 0
-498 503 0
-30 -498 504 0
-499 504 0
-30 -499 0
-31 505 0
-500 505 0
-31 -500 506 0
-501 506 0
-31 -501 507 0
-502 507 0
-31 -502 508 0
-503 508 0
-31 -503 509 0
-504 509 0
-31 -504 0
-32 510 0
-505 510 0
-32 -505 511 0
-506 511 0
-32 -506 512 0
-507 512 0
-32 -507 513 0
-508 513 0
-32 -508 514 0
-509 514 0
-32 -509 0
-33 515 0
-510 515 0
-33 -510 516 0
-511 516 0
-33 -511 517 0
-512 517 0
-33 -512 518 0
-513 518 0
-33 -513 519 0
-514 519 0
-33 -514 0
-34 520 0
-515 520 0
-34 -515 521 0
-516 521 0
-34 -516 522 0
-517 522 0
-34 -517 523 0
-518 523 0
-34 -518 524 0
-519 524 0
-34 -519 0
-35 525 0
-520 525 0
-35 -520 526 0
-521 526 0
-35 -521 527 0
-522 527 0
-35 -522 528 0
-523 528 0
-35 -523 529 0
-524 529 0
-35 -524 0
-36 530 0
-525 530 0
-36 -525 531 0
-526 531 0
-36 -526 532 0
-527 532 0
-36 -527 533 0
-528 533 0
-36 -528 534 0
-529 534 0
-36 -529 0
-37 535 0
-530 535 0
-37 -530 536 0
-531 536 0
-37 -531 537 0
-532 537 0
-37 -532 538 0
-533 538 0
-37 -533 539 0
-534 539 0
-37 -534 0
-38 540 0
-535 540 0
-38 -535 541 0
-536 541 0
-38 -536 542 0
-537 542 0
-38 -537 543 0
-538 543 0
-38 -538 544 0
-539 544 0
-38 -539 0
-39 545 0
-540 545 0
-39 -540 546 0
-541 546 0
-39 -541 547 0
-542 547 0
-39 -542 548 0
-543 548 0
-39 -543 549 0
-544 549 0
-39 -544 0
-40 550 0
-545 550 0
-40 -545 551 0
-546 551 0
-40 -546 552 0
-547 552 0
-40 -547 553 0
-548 553 0
-40 -548 554 0
-549 554 0
-40 -549 0
-41 555 0
-550 555 0
-41 -550 556 0
-551 556 0
-41 -551 557 0
-552 557 0
-41 -552 558 0
-553 558 0
-41 -553 559 0
-554 559 0
-41 -554 0
-42 560 0
-555 560 0
-42 -555 561 0
-556 561 0
-42 -556 562 0
-557 562 0
-42 -557 563 0
-558 563 0
-42 -558 564 0
-559 564 0
-42 -559 0
-43 565 0
-560 565 0
-43 -560 566 0
-561 566 0
-43 -561 567 0
-562 567 0
-43 -562 568 0
-563 568 0
-43 -563 569 0
-564 569 0
-43 -564 0
-44 570 0
-565 570 0
-44 -565 571 0
-566 571 0
-44 -566 572 0
-567 572 0
-44 -567 573 0
-568 573 0
-44 -568 574 0
-569 574 0
-44 -569 0
-45 575 0
-570 575 0
-45 -570 576 0
-571 576 0
-45 -571 577 0
-572 577 0
-45 -572 578 0
-573 578 0
-45 -573 579 0
-574 579 0
-45 -574 0
-46 580 0
-575 580 0
-46 -575 581 0
-576 581 0
-46 -576 582 0
-577 582 0
-46 -577 583 0
-578 583 0
-46 -578 584 0
-579 584 0
-46 -579 0
-47 585 0
-580 585 0
-47 -580 586 0
-581 586 0
-47 -581 587 0
-582 587 0
-47 -582 588 0
-583 588 0
-47 -583 589 0
-584 589 0
-47 -584 0
-48 590 0
-585 590 0
-48 -585 591 0
-586 591 0
-48 -586 592 0
-587 592 0
-48 -587 593 0
-588 593 0
-48 -588 594 0
-589 594 0
-48 -589 0
-49 595 0
-590 595 0
-49 -590 596 0
-591 596 0
-49 -591 597 0
-592 597 0
-49 -592 598 0
-593 598 0
-49 -593 599 0
-594 599 0
-49 -594 0
-50 600 0
-595 600 0
-50 -595 601 0
-596 601 0
-50 -596 602 0
-597 602 0
-50 -597 603 0
-598 603 0
-50 -598 604 0
-599 604 0
-50 -599 0
-51 605 0
-600 605 0
-51 -600 606 0
-601 606 0
-51 -601 607 0
-602 607 0
-51 -602 608 0
-603 608 0
-51 -603 609 0
-604 609 0
-51 -604 0
-52 610 0
-605 610 0
-52 -605 611 0
-606 611 0
-52 -606 612 0
-607 612 0
-52 -607 613 0
-608 613 0
-52 -608 614 0
-609 614 0
-52 -609 0
-53 615 0
-610 615 0
-53 -610 616 0
-611 616 0
-53 -611 617 0
-612 617 0
-53 -612 618 0
-613 618 0
-53 -613 619 0
-614 619 0
-53 -614 0
-54 620 0
-615 620 0
-54 -615 621 0
-616 621 0
-54 -616 622 0
-617 622 0
-54 -617 623 0
-618 623 0
-54 -618 624 0
-619 624 0
-54 -619 0
-55 625 0
-620 625 0
-55 -620 626 0
-621 626 0
-55 -621 627 0
-622 627 0
-55 -622 628 0
-623 628 0
-55 -623 629 0
-624 629 0
-55 -624 0
-56 630 0
-625 630 0
-56 -625 631 0
-626 631 0
-56 -626 632 0
-627 632 0
-56 -627 633 0
-628 633 0
-56 -628 634 0
-629 634 0
-56 -629 0
-57 635 0
-630 635 0
-57 -630 636 0
-631 636 0
-57 -631 637 0
-632 637 0
-57 -632 638 0
-633 638 0
-57 -633 639 0
-634 639 0
-57 -634 0
-58 640 0
-635 640 0
-58 -635 641 0
-636 641 0
-58 -636 642 0
-637 642 0
-58 -637 643 0
-638 643 0
-58 -638 644 0
-639 644 0
-58 -639 0
-59 645 0
-640 645 0
-59 -640 646 0
-641 646 0
-59 -641 647 0
-642 647 0
-59 -642 648 0
-643 648 0
-59 -643 649 0
-644 649 0
-59 -644 0
-60 650 0
-645 650 0
-60 -645 651 0
-646 651 0
-60 -646 652 0
-647 652 0
-60 -647 653 0
-648 653 0
-60 -648 654 0
-649 654 0
-60 -649 0
-61 655 0
-650 655 0
-61 -650 656 0
-651 656 0
-61 -651 657 0
-652 657 0
-61 -652 658 0
-653 658 0
-61 -653 659 0
-654 659 0
-61 -654 0
-62 660 0
-655 660 0
-62 -655 661 0
-656 661 0
-62 -656 662 0
-657 662 0
-62 -657 663 0
-658 663 0
-62 -658 664 0
-659 664 0
-62 -659 0
-63 665 0
-660 665 0
-63 -660 666 0
-661 666 0
-63 -661 667 0
-662 667 0
-63 -662 668 0
-663 668 0
-63 -663 669 0
-664 669 0
-63 -664 0
-64 670 0
-665 670 0
-64 -665 671 0
-666 671 0
-64 -666 672 0
-667 672 0
-64 -667 673 0
-668 673 0
-64 -668 674 0
-669 674 0
-64 -669 0
-65 675 0
-670 675 0
-65 -670 676 0
-671 676 0
-65 -671 677 0
-672 677 0
-65 -672 678 0
-673 678 0
-65 -673 679 0
-674 679 0
-65 -674 0
-66 680 0
-675 680 0
-66 -675 681 0
-676 681 0
-66 -676 682 0
-677 682 0
-66 -677 683 0
-678 683 0
-66 -678 684 0
-679 684 0
-66 -679 0
-67 685 0
-680 685 0
-67 -680 686 0
-681 686 0
-67 -681 687 0
-682 687 0
-67 -682 688 0
-683 688 0
-67 -683 689 0
-684 689 0
-67 -684 0
-68 690 0
-685 690 0
-68 -685 691 0
-686 691 0
-68 -686 692 0
-687 692 0
-68 -687 693 0
-688 693 0
-68 -688 694 0
-689 694 0
-68 -689 0
-69 695 0
-690 695 0
-69 -690 696 0
-691 696 0
-69 -691 697 0
-692 697 0
-69 -692 698 0
-693 698 0
-69 -693 699 0
-694 699 0
-69 -694 0
-70 700 0
-695 700 0
-70 -695 701 0
-696 701 0
-70 -696 702 0
-697 702 0
-70 -697 703 0
-698 703 0
-70 -698 704 0
-699 704 0
-70 -699 0
-71 705 0
-700 705 0
-71 -700 706 0
-701 706 0
-71 -701 707 0
-702 707 0
-71 -702 708 0
-703 708 0
-71 -703 709 0
-704 709 0
-71 -704 0
-72 -709 0
