p cnf 798 2154
-73 4 25 0
-73 -4 -25 0
73 -4 25 0
73 4 -25 0
-74 73 31 0
-74 -73 -31 0
74 -73 31 0
74 73 -31 0
-75 74 41 0
-75 -74 -41 0
75 -74 41 0
75 74 -41 0
-76 75 42 0
-76 -75 -42 0
76 -75 42 0
76 75 -42 0
-77 76 55 0
-77 -76 -55 0
77 -76 55 0
77 76 -55 0
-77 0
-78 5 26 0
-78 -5 -26 0
78 -5 26 0
78 5 -26 0
-79 78 32 0
-79 -78 -32 0
79 -78 32 0
79 78 -32 0
-80 79 37 0
-80 -79 -37 0
80 -79 37 0
80 79 -37 0
-81 80 42 0
-81 -80 -42 0
81 -80 42 0
81 80 -42 0
-82 81 56 0
-82 -81 -56 0
82 -81 56 0
82 81 -56 0
-82 0
-83 6 27 0
-83 -6 -27 0
83 -6 27 0
83 6 -27 0
-84 83 33 0
-84 -83 -33 0
84 -83 33 0
84 83 -33 0
-85 84 37 0
-85 -84 -37 0
85 -84 37 0
85 84 -37 0
-86 85 38 0
-86 -85 -38 0
86 -85 38 0
86 85 -38 0
-87 86 57 0
-87 -86 -57 0
87 -86 57 0
87 86 -57 0
-87 0
-88 1 28 0
-88 -1 -28 0
88 -1 28 0
88 1 -28 0
-89 88 34 0
-89 -88 -34 0
89 -88 34 0
89 88 -34 0
-90 89 38 0
-90 -89 -38 0
90 -89 38 0
90 89 -38 0
-91 90 39 0
-91 -90 -39 0
91 -90 39 0
91 90 -39 0
-92 91 58 0
-92 -91 -58 0
92 -91 58 0
92 91 -58 0
-92 0
-93 2 29 0
-93 -2 -29 0
93 -2 29 0
93 2 -29 0
-94 93 35 0
-94 -93 -35 0
94 -93 35 0
94 93 -35 0
-95 94 39 0
-95 -94 -39 0
95 -94 39 0
95 94 -39 0
-96 95 40 0
-96 -95 -40 0
96 -95 40 0
96 95 -40 0
-97 96 59 0
-97 -96 -59 0
97 -96 59 0
97 96 -59 0
-97 0
-98 3 30 0
-98 -3 -30 0
98 -3 30 0
98 3 -30 0
-99 98 36 0
-99 -98 -36 0
99 -98 36 0
99 98 -36 0
-100 99 40 0
-100 -99 -40 0
100 -99 40 0
100 99 -40 0
-101 100 41 0
-101 -100 -41 0
101 -100 41 0
101 100 -41 0
-102 101 60 0
-102 -101 -60 0
102 -101 60 0
102 101 -60 0
-102 0
-103 1 10 0
-103 -1 -10 0
103 -1 10 0
103 1 -10 0
-104 103 31 0
-104 -103 -31 0
104 -103 31 0
104 103 -31 0
-105 104 47 0
-105 -104 -47 0
105 -104 47 0
105 104 -47 0
-106 105 48 0
-106 -105 -48 0
106 -105 48 0
106 105 -48 0
-107 106 61 0
-107 -106 -61 0
107 -106 61 0
107 106 -61 0
-107 0
-108 2 11 0
-108 -2 -11 0
108 -2 11 0
108 2 -11 0
-109 108 32 0
-109 -108 -32 0
109 -108 32 0
109 108 -32 0
-110 109 43 0
-110 -109 -43 0
110 -109 43 0
110 109 -43 0
-111 110 48 0
-111 -110 -48 0
111 -110 48 0
111 110 -48 0
-112 111 62 0
-112 -111 -62 0
112 -111 62 0
112 111 -62 0
-112 0
-113 3 12 0
-113 -3 -12 0
113 -3 12 0
113 3 -12 0
-114 113 33 0
-114 -113 -33 0
114 -113 33 0
114 113 -33 0
-115 114 43 0
-115 -114 -43 0
115 -114 43 0
115 114 -43 0
-116 115 44 0
-116 -115 -44 0
116 -115 44 0
116 115 -44 0
-117 116 63 0
-117 -116 -63 0
117 -116 63 0
117 116 -63 0
-117 0
-118 4 7 0
-118 -4 -7 0
118 -4 7 0
118 4 -7 0
-119 118 34 0
-119 -118 -34 0
119 -118 34 0
119 118 -34 0
-120 119 44 0
-120 -119 -44 0
120 -119 44 0
120 119 -44 0
-121 120 45 0
-121 -120 -45 0
121 -120 45 0
121 120 -45 0
-122 121 64 0
-122 -121 -64 0
122 -121 64 0
122 121 -64 0
-122 0
-123 5 8 0
-123 -5 -8 0
123 -5 8 0
123 5 -8 0
-124 123 35 0
-124 -123 -35 0
124 -123 35 0
124 123 -35 0
-125 124 45 0
-125 -124 -45 0
125 -124 45 0
125 124 -45 0
-126 125 46 0
-126 -125 -46 0
126 -125 46 0
126 125 -46 0
-127 126 65 0
-127 -126 -65 0
127 -126 65 0
127 126 -65 0
-127 0
-128 6 9 0
-128 -6 -9 0
128 -6 9 0
128 6 -9 0
-129 128 36 0
-129 -128 -36 0
129 -128 36 0
129 128 -36 0
-130 129 46 0
-130 -129 -46 0
130 -129 46 0
130 129 -46 0
-131 130 47 0
-131 -130 -47 0
131 -130 47 0
131 130 -47 0
-132 131 66 0
-132 -131 -66 0
132 -131 66 0
132 131 -66 0
-132 0
-133 1 7 0
-133 -1 -7 0
133 -1 7 0
133 1 -7 0
-134 133 16 0
-134 -133 -16 0
134 -133 16 0
134 133 -16 0
-135 134 53 0
-135 -134 -53 0
135 -134 53 0
135 134 -53 0
-136 135 54 0
-136 -135 -54 0
136 -135 54 0
136 135 -54 0
-137 136 67 0
-137 -136 -67 0
137 -136 67 0
137 136 -67 0
-137 0
-138 2 8 0
-138 -2 -8 0
138 -2 8 0
138 2 -8 0
-139 138 17 0
-139 -138 -17 0
139 -138 17 0
139 138 -17 0
-140 139 49 0
-140 -139 -49 0
140 -139 49 0
140 139 -49 0
-141 140 54 0
-141 -140 -54 0
141 -140 54 0
141 140 -54 0
-142 141 68 0
-142 -141 -68 0
142 -141 68 0
142 141 -68 0
-142 0
-143 3 9 0
-143 -3 -9 0
143 -3 9 0
143 3 -9 0
-144 143 18 0
-144 -143 -18 0
144 -143 18 0
144 143 -18 0
-145 144 49 0
-145 -144 -49 0
145 -144 49 0
145 144 -49 0
-146 145 50 0
-146 -145 -50 0
146 -145 50 0
146 145 -50 0
-147 146 69 0
-147 -146 -69 0
147 -146 69 0
147 146 -69 0
-147 0
-148 4 10 0
-148 -4 -10 0
148 -4 10 0
148 4 -10 0
-149 148 13 0
-149 -148 -13 0
149 -148 13 0
149 148 -13 0
-150 149 50 0
-150 -149 -50 0
150 -149 50 0
150 149 -50 0
-151 150 51 0
-151 -150 -51 0
151 -150 51 0
151 150 -51 0
-152 151 70 0
-152 -151 -70 0
152 -151 70 0
152 151 -70 0
-152 0
-153 5 11 0
-153 -5 -11 0
153 -5 11 0
153 5 -11 0
-154 153 14 0
-154 -153 -14 0
154 -153 14 0
154 153 -14 0
-155 154 51 0
-155 -154 -51 0
155 -154 51 0
155 154 -51 0
-156 155 52 0
-156 -155 -52 0
156 -155 52 0
156 155 -52 0
-157 156 71 0
-157 -156 -71 0
157 -156 71 0
157 156 -71 0
-157 0
-158 6 12 0
-158 -6 -12 0
158 -6 12 0
158 6 -12 0
-159 158 15 0
-159 -158 -15 0
159 -158 15 0
159 158 -15 0
-160 159 52 0
-160 -159 -52 0
160 -159 52 0
160 159 -52 0
-161 160 53 0
-161 -160 -53 0
161 -160 53 0
161 160 -53 0
-162 161 72 0
-162 -161 -72 0
162 -161 72 0
162 161 -72 0
-162 0
-163 7 13 0
-163 -7 -13 0
163 -7 13 0
163 7 -13 0
-164 163 22 0
-164 -163 -22 0
164 -163 22 0
164 163 -22 0
-165 164 37 0
-165 -164 -37 0
165 -164 37 0
165 164 -37 0
-166 165 59 0
-166 -165 -59 0
166 -165 59 0
166 165 -59 0
-167 166 60 0
-167 -166 -60 0
167 -166 60 0
167 166 -60 0
-167 0
-168 8 14 0
-168 -8 -14 0
168 -8 14 0
168 8 -14 0
-169 168 23 0
-169 -168 -23 0
169 -168 23 0
169 168 -23 0
-170 169 38 0
-170 -169 -38 0
170 -169 38 0
170 169 -38 0
-171 170 55 0
-171 -170 -55 0
171 -170 55 0
171 170 -55 0
-172 171 60 0
-172 -171 -60 0
172 -171 60 0
172 171 -60 0
-172 0
-173 9 15 0
-173 -9 -15 0
173 -9 15 0
173 9 -15 0
-174 173 24 0
-174 -173 -24 0
174 -173 24 0
174 173 -24 0
-175 174 39 0
-175 -174 -39 0
175 -174 39 0
175 174 -39 0
-176 175 55 0
-176 -175 -55 0
176 -175 55 0
176 175 -55 0
-177 176 56 0
-177 -176 -56 0
177 -176 56 0
177 176 -56 0
-177 0
-178 10 16 0
-178 -10 -16 0
178 -10 16 0
178 10 -16 0
-179 178 19 0
-179 -178 -19 0
179 -178 19 0
179 178 -19 0
-180 179 40 0
-180 -179 -40 0
180 -179 40 0
180 179 -40 0
-181 180 56 0
-181 -180 -56 0
181 -180 56 0
181 180 -56 0
-182 181 57 0
-182 -181 -57 0
182 -181 57 0
182 181 -57 0
-182 0
-183 11 17 0
-183 -11 -17 0
183 -11 17 0
183 11 -17 0
-184 183 20 0
-184 -183 -20 0
184 -183 20 0
184 183 -20 0
-185 184 41 0
-185 -184 -41 0
185 -184 41 0
185 184 -41 0
-186 185 57 0
-186 -185 -57 0
186 -185 57 0
186 185 -57 0
-187 186 58 0
-187 -186 -58 0
187 -186 58 0
187 186 -58 0
-187 0
-188 12 18 0
-188 -12 -18 0
188 -12 18 0
188 12 -18 0
-189 188 21 0
-189 -188 -21 0
189 -188 21 0
189 188 -21 0
-190 189 42 0
-190 -189 -42 0
190 -189 42 0
190 189 -42 0
-191 190 58 0
-191 -190 -58 0
191 -190 58 0
191 190 -58 0
-192 191 59 0
-192 -191 -59 0
192 -191 59 0
192 191 -59 0
-192 0
-193 13 19 0
-193 -13 -19 0
193 -13 19 0
193 13 -19 0
-194 193 28 0
-194 -193 -28 0
194 -193 28 0
194 193 -28 0
-195 194 43 0
-195 -194 -43 0
195 -194 43 0
195 194 -43 0
-196 195 65 0
-196 -195 -65 0
196 -195 65 0
196 195 -65 0
-197 196 66 0
-197 -196 -66 0
197 -196 66 0
197 196 -66 0
-197 0
-198 14 20 0
-198 -14 -20 0
198 -14 20 0
198 14 -20 0
-199 198 29 0
-199 -198 -29 0
199 -198 29 0
199 198 -29 0
-200 199 44 0
-200 -199 -44 0
200 -199 44 0
200 199 -44 0
-201 200 61 0
-201 -200 -61 0
201 -200 61 0
201 200 -61 0
-202 201 66 0
-202 -201 -66 0
202 -201 66 0
202 201 -66 0
-202 0
-203 15 21 0
-203 -15 -21 0
203 -15 21 0
203 15 -21 0
-204 203 30 0
-204 -203 -30 0
204 -203 30 0
204 203 -30 0
-205 204 45 0
-205 -204 -45 0
205 -204 45 0
205 204 -45 0
-206 205 61 0
-206 -205 -61 0
206 -205 61 0
206 205 -61 0
-207 206 62 0
-207 -206 -62 0
207 -206 62 0
207 206 -62 0
-207 0
-208 16 22 0
-208 -16 -22 0
208 -16 22 0
208 16 -22 0
-209 208 25 0
-209 -208 -25 0
209 -208 25 0
209 208 -25 0
-210 209 46 0
-210 -209 -46 0
210 -209 46 0
210 209 -46 0
-211 210 62 0
-211 -210 -62 0
211 -210 62 0
211 210 -62 0
-212 211 63 0
-212 -211 -63 0
212 -211 63 0
212 211 -63 0
-212 0
-213 17 23 0
-213 -17 -23 0
213 -17 23 0
213 17 -23 0
-214 213 26 0
-214 -213 -26 0
214 -213 26 0
214 213 -26 0
-215 214 47 0
-215 -214 -47 0
215 -214 47 0
215 214 -47 0
-216 215 63 0
-216 -215 -63 0
216 -215 63 0
216 215 -63 0
-217 216 64 0
-217 -216 -64 0
217 -216 64 0
217 216 -64 0
-217 0
-218 18 24 0
-218 -18 -24 0
218 -18 24 0
218 18 -24 0
-219 218 27 0
-219 -218 -27 0
219 -218 27 0
219 218 -27 0
-220 219 48 0
-220 -219 -48 0
220 -219 48 0
220 219 -48 0
-221 220 64 0
-221 -220 -64 0
221 -220 64 0
221 220 -64 0
-222 221 65 0
-222 -221 -65 0
222 -221 65 0
222 221 -65 0
-222 0
-223 19 25 0
-223 -19 -25 0
223 -19 25 0
223 19 -25 0
-224 223 34 0
-224 -223 -34 0
224 -223 34 0
224 223 -34 0
-225 224 49 0
-225 -224 -49 0
225 -224 49 0
225 224 -49 0
-226 225 71 0
-226 -225 -71 0
226 -225 71 0
226 225 -71 0
-227 226 72 0
-227 -226 -72 0
227 -226 72 0
227 226 -72 0
-227 0
-228 20 26 0
-228 -20 -26 0
228 -20 26 0
228 20 -26 0
-229 228 35 0
-229 -228 -35 0
229 -228 35 0
229 228 -35 0
-230 229 50 0
-230 -229 -50 0
230 -229 50 0
230 229 -50 0
-231 230 67 0
-231 -230 -67 0
231 -230 67 0
231 230 -67 0
-232 231 72 0
-232 -231 -72 0
232 -231 72 0
232 231 -72 0
-232 0
-233 21 27 0
-233 -21 -27 0
233 -21 27 0
233 21 -27 0
-234 233 36 0
-234 -233 -36 0
234 -233 36 0
234 233 -36 0
-235 234 51 0
-235 -234 -51 0
235 -234 51 0
235 234 -51 0
-236 235 67 0
-236 -235 -67 0
236 -235 67 0
236 235 -67 0
-237 236 68 0
-237 -236 -68 0
237 -236 68 0
237 236 -68 0
-237 0
-238 22 28 0
-238 -22 -28 0
238 -22 28 0
238 22 -28 0
-239 238 31 0
-239 -238 -31 0
239 -238 31 0
239 238 -31 0
-240 239 52 0
-240 -239 -52 0
240 -239 52 0
240 239 -52 0
-241 240 68 0
-241 -240 -68 0
241 -240 68 0
241 240 -68 0
-242 241 69 0
-242 -241 -69 0
242 -241 69 0
242 241 -69 0
-242 0
-243 23 29 0
-243 -23 -29 0
243 -23 29 0
243 23 -29 0
-244 243 32 0
-244 -243 -32 0
244 -243 32 0
244 243 -32 0
-245 244 53 0
-245 -244 -53 0
245 -244 53 0
245 244 -53 0
-246 245 69 0
-246 -245 -69 0
246 -245 69 0
246 245 -69 0
-247 246 70 0
-247 -246 -70 0
247 -246 70 0
247 246 -70 0
-247 0
-248 24 30 0
-248 -24 -30 0
248 -24 30 0
248 24 -30 0
-249 248 33 0
-249 -248 -33 0
249 -248 33 0
249 248 -33 0
-250 249 54 0
-250 -249 -54 0
250 -249 54 0
250 249 -54 0
-251 250 70 0
-251 -250 -70 0
251 -250 70 0
251 250 -70 0
-252 251 71 0
-252 -251 -71 0
252 -251 71 0
252 251 -71 0
-252 0
-253 1 2 0
-253 -1 -2 0
253 -1 2 0
253 1 -2 0
-254 253 5 0
-254 -253 -5 0
254 -253 5 0
254 253 -5 0
-255 254 6 0
-255 -254 -6 0
255 -254 6 0
255 254 -6 0
-256 255 19 0
-256 -255 -19 0
256 -255 19 0
256 255 -19 0
-257 256 21 0
-257 -256 -21 0
257 -256 21 0
257 256 -21 0
-258 1 2 0
-258 -1 -2 0
258 -1 2 0
258 1 -2 0
-259 258 3 0
-259 -258 -3 0
259 -258 3 0
259 258 -3 0
-260 259 6 0
-260 -259 -6 0
260 -259 6 0
260 259 -6 0
-261 260 20 0
-261 -260 -20 0
261 -260 20 0
261 260 -20 0
-262 261 22 0
-262 -261 -22 0
262 -261 22 0
262 261 -22 0
-263 3 4 0
-263 -3 -4 0
263 -3 4 0
263 3 -4 0
-264 263 5 0
-264 -263 -5 0
264 -263 5 0
264 263 -5 0
-265 264 6 0
-265 -264 -6 0
265 -264 6 0
265 264 -6 0
-266 265 19 0
-266 -265 -19 0
266 -265 19 0
266 265 -19 0
-267 266 23 0
-267 -266 -23 0
267 -266 23 0
267 266 -23 0
-268 1 4 0
-268 -1 -4 0
268 -1 4 0
268 1 -4 0
-269 268 5 0
-269 -268 -5 0
269 -268 5 0
269 268 -5 0
-270 269 6 0
-270 -269 -6 0
270 -269 6 0
270 269 -6 0
-271 270 20 0
-271 -270 -20 0
271 -270 20 0
271 270 -20 0
-272 271 24 0
-272 -271 -24 0
272 -271 24 0
272 271 -24 0
-273 7 8 0
-273 -7 -8 0
273 -7 8 0
273 7 -8 0
-274 273 11 0
-274 -273 -11 0
274 -273 11 0
274 273 -11 0
-275 274 12 0
-275 -274 -12 0
275 -274 12 0
275 274 -12 0
-276 275 25 0
-276 -275 -25 0
276 -275 25 0
276 275 -25 0
-277 276 27 0
-277 -276 -27 0
277 -276 27 0
277 276 -27 0
-278 7 8 0
-278 -7 -8 0
278 -7 8 0
278 7 -8 0
-279 278 9 0
-279 -278 -9 0
279 -278 9 0
279 278 -9 0
-280 279 12 0
-280 -279 -12 0
280 -279 12 0
280 279 -12 0
-281 280 26 0
-281 -280 -26 0
281 -280 26 0
281 280 -26 0
-282 281 28 0
-282 -281 -28 0
282 -281 28 0
282 281 -28 0
-283 1 5 0
-283 -1 -5 0
283 -1 5 0
283 1 -5 0
-284 283 8 0
-284 -283 -8 0
284 -283 8 0
284 283 -8 0
-285 284 9 0
-285 -284 -9 0
285 -284 9 0
285 284 -9 0
-286 285 12 0
-286 -285 -12 0
286 -285 12 0
286 285 -12 0
-287 286 19 0
-287 -286 -19 0
287 -286 19 0
287 286 -19 0
-288 287 20 0
-288 -287 -20 0
288 -287 20 0
288 287 -20 0
-289 288 26 0
-289 -288 -26 0
289 -288 26 0
289 288 -26 0
-290 289 37 0
-290 -289 -37 0
290 -289 37 0
290 289 -37 0
-291 290 38 0
-291 -290 -38 0
291 -290 38 0
291 290 -38 0
-292 291 39 0
-292 -291 -39 0
292 -291 39 0
292 291 -39 0
-293 292 43 0
-293 -292 -43 0
293 -292 43 0
293 292 -43 0
-294 293 44 0
-294 -293 -44 0
294 -293 44 0
294 293 -44 0
-295 294 45 0
-295 -294 -45 0
295 -294 45 0
295 294 -45 0
-296 10 11 0
-296 -10 -11 0
296 -10 11 0
296 10 -11 0
-297 296 25 0
-297 -296 -25 0
297 -296 25 0
297 296 -25 0
-298 297 26 0
-298 -297 -26 0
298 -297 26 0
298 297 -26 0
-299 298 37 0
-299 -298 -37 0
299 -298 37 0
299 298 -37 0
-300 299 40 0
-300 -299 -40 0
300 -299 40 0
300 299 -40 0
-301 300 43 0
-301 -300 -43 0
301 -300 43 0
301 300 -43 0
-302 301 46 0
-302 -301 -46 0
302 -301 46 0
302 301 -46 0
-303 1 6 0
-303 -1 -6 0
303 -1 6 0
303 1 -6 0
-304 303 9 0
-304 -303 -9 0
304 -303 9 0
304 303 -9 0
-305 304 12 0
-305 -304 -12 0
305 -304 12 0
305 304 -12 0
-306 305 13 0
-306 -305 -13 0
306 -305 13 0
306 305 -13 0
-307 306 14 0
-307 -306 -14 0
307 -306 14 0
307 306 -14 0
-308 307 15 0
-308 -307 -15 0
308 -307 15 0
308 307 -15 0
-309 308 18 0
-309 -308 -18 0
309 -308 18 0
309 308 -18 0
-310 309 20 0
-310 -309 -20 0
310 -309 20 0
310 309 -20 0
-311 310 26 0
-311 -310 -26 0
311 -310 26 0
311 310 -26 0
-312 311 32 0
-312 -311 -32 0
312 -311 32 0
312 311 -32 0
-313 312 37 0
-313 -312 -37 0
313 -312 37 0
313 312 -37 0
-314 313 39 0
-314 -313 -39 0
314 -313 39 0
314 313 -39 0
-315 314 43 0
-315 -314 -43 0
315 -314 43 0
315 314 -43 0
-316 315 44 0
-316 -315 -44 0
316 -315 44 0
316 315 -44 0
-317 316 49 0
-317 -316 -49 0
317 -316 49 0
317 316 -49 0
-318 1 6 0
-318 -1 -6 0
318 -1 6 0
318 1 -6 0
-319 318 9 0
-319 -318 -9 0
319 -318 9 0
319 318 -9 0
-320 319 10 0
-320 -319 -10 0
320 -319 10 0
320 319 -10 0
-321 320 11 0
-321 -320 -11 0
321 -320 11 0
321 320 -11 0
-322 321 15 0
-322 -321 -15 0
322 -321 15 0
322 321 -15 0
-323 322 16 0
-323 -322 -16 0
323 -322 16 0
323 322 -16 0
-324 323 17 0
-324 -323 -17 0
324 -323 17 0
324 323 -17 0
-325 324 18 0
-325 -324 -18 0
325 -324 18 0
325 324 -18 0
-326 325 20 0
-326 -325 -20 0
326 -325 20 0
326 325 -20 0
-327 326 25 0
-327 -326 -25 0
327 -326 25 0
327 326 -25 0
-328 327 26 0
-328 -327 -26 0
328 -327 26 0
328 327 -26 0
-329 328 31 0
-329 -328 -31 0
329 -328 31 0
329 328 -31 0
-330 329 37 0
-330 -329 -37 0
330 -329 37 0
330 329 -37 0
-331 330 39 0
-331 -330 -39 0
331 -330 39 0
331 330 -39 0
-332 331 40 0
-332 -331 -40 0
332 -331 40 0
332 331 -40 0
-333 332 43 0
-333 -332 -43 0
333 -332 43 0
333 332 -43 0
-334 333 50 0
-334 -333 -50 0
334 -333 50 0
334 333 -50 0
-335 1 5 0
-335 -1 -5 0
335 -1 5 0
335 1 -5 0
-336 335 7 0
-336 -335 -7 0
336 -335 7 0
336 335 -7 0
-337 336 8 0
-337 -336 -8 0
337 -336 8 0
337 336 -8 0
-338 337 9 0
-338 -337 -9 0
338 -337 9 0
338 337 -9 0
-339 338 10 0
-339 -338 -10 0
339 -338 10 0
339 338 -10 0
-340 339 13 0
-340 -339 -13 0
340 -339 13 0
340 339 -13 0
-341 340 15 0
-341 -340 -15 0
341 -340 15 0
341 340 -15 0
-342 341 16 0
-342 -341 -16 0
342 -341 16 0
342 341 -16 0
-343 342 17 0
-343 -342 -17 0
343 -342 17 0
343 342 -17 0
-344 343 18 0
-344 -343 -18 0
344 -343 18 0
344 343 -18 0
-345 344 19 0
-345 -344 -19 0
345 -344 19 0
345 344 -19 0
-346 345 20 0
-346 -345 -20 0
346 -345 20 0
346 345 -20 0
-347 346 31 0
-347 -346 -31 0
347 -346 31 0
347 346 -31 0
-348 347 37 0
-348 -347 -37 0
348 -347 37 0
348 347 -37 0
-349 348 38 0
-349 -348 -38 0
349 -348 38 0
349 348 -38 0
-350 349 39 0
-350 -349 -39 0
350 -349 39 0
350 349 -39 0
-351 350 40 0
-351 -350 -40 0
351 -350 40 0
351 350 -40 0
-352 351 44 0
-352 -351 -44 0
352 -351 44 0
352 351 -44 0
-353 352 51 0
-353 -352 -51 0
353 -352 51 0
353 352 -51 0
-354 1 6 0
-354 -1 -6 0
354 -1 6 0
354 1 -6 0
-355 354 9 0
-355 -354 -9 0
355 -354 9 0
355 354 -9 0
-356 355 10 0
-356 -355 -10 0
356 -355 10 0
356 355 -10 0
-357 356 11 0
-357 -356 -11 0
357 -356 11 0
357 356 -11 0
-358 357 12 0
-358 -357 -12 0
358 -357 12 0
358 357 -12 0
-359 358 13 0
-359 -358 -13 0
359 -358 13 0
359 358 -13 0
-360 359 14 0
-360 -359 -14 0
360 -359 14 0
360 359 -14 0
-361 360 15 0
-361 -360 -15 0
361 -360 15 0
361 360 -15 0
-362 361 16 0
-362 -361 -16 0
362 -361 16 0
362 361 -16 0
-363 362 17 0
-363 -362 -17 0
363 -362 17 0
363 362 -17 0
-364 363 18 0
-364 -363 -18 0
364 -363 18 0
364 363 -18 0
-365 364 20 0
-365 -364 -20 0
365 -364 20 0
365 364 -20 0
-366 365 25 0
-366 -365 -25 0
366 -365 25 0
366 365 -25 0
-367 366 31 0
-367 -366 -31 0
367 -366 31 0
367 366 -31 0
-368 367 39 0
-368 -367 -39 0
368 -367 39 0
368 367 -39 0
-369 368 40 0
-369 -368 -40 0
369 -368 40 0
369 368 -40 0
-370 369 43 0
-370 -369 -43 0
370 -369 43 0
370 369 -43 0
-371 370 44 0
-371 -370 -44 0
371 -370 44 0
371 370 -44 0
-372 371 52 0
-372 -371 -52 0
372 -371 52 0
372 371 -52 0
257 262 267 272 277 282 295 302 317 334 353 372 0
-1 373 0
-374 0
-375 0
-376 0
-377 0
-378 0
-2 379 0
-373 379 0
-2 -373 380 0
-374 380 0
-2 -374 381 0
-375 381 0
-2 -375 382 0
-376 382 0
-2 -376 383 0
-377 383 0
-2 -377 384 0
-378 384 0
-2 -378 0
-3 385 0
-379 385 0
-3 -379 386 0
-380 386 0
-3 -380 387 0
-381 387 0
-3 -381 388 0
-382 388 0
-3 -382 389 0
-383 389 0
-3 -383 390 0
-384 390 0
-3 -384 0
-4 391 0
-385 391 0
-4 -385 392 0
-386 392 0
-4 -386 393 0
-387 393 0
-4 -387 394 0
-388 394 0
-4 -388 395 0
-389 395 0
-4 -389 396 0
-390 396 0
-4 -390 0
-5 397 0
-391 397 0
-5 -391 398 0
-392 398 0
-5 -392 399 0
-393 399 0
-5 -393 400 0
-394 400 0
-5 -394 401 0
-395 401 0
-5 -395 402 0
-396 402 0
-5 -396 0
-6 403 0
-397 403 0
-6 -397 404 0
-398 404 0
-6 -398 405 0
-399 405 0
-6 -399 406 0
-400 406 0
-6 -400 407 0
-401 407 0
-6 -401 408 0
-402 408 0
-6 -402 0
-7 409 0
-403 409 0
-7 -403 410 0
-404 410 0
-7 -404 411 0
-405 411 0
-7 -405 412 0
-406 412 0
-7 -406 413 0
-407 413 0
-7 -407 414 0
-408 414 0
-7 -408 0
-8 415 0
-409 415 0
-8 -409 416 0
-410 416 0
-8 -410 417 0
-411 417 0
-8 -411 418 0
-412 418 0
-8 -412 419 0
-413 419 0
-8 -413 420 0
-414 420 0
-8 -414 0
-9 421 0
-415 421 0
-9 -415 422 0
-416 422 0
-9 -416 423 0
-417 423 0
-9 -417 424 0
-418 424 0
-9 -418 425 0
-419 425 0
-9 -419 426 0
-420 426 0
-9 -420 0
-10 427 0
-421 427 0
-10 -421 428 0
-422 428 0
-10 -422 429 0
-423 429 0
-10 -423 430 0
-424 430 0
-10 -424 431 0
-425 431 0
-10 -425 432 0
-426 432 0
-10 -426 0
-11 433 0
-427 433 0
-11 -427 434 0
-428 434 0
-11 -428 435 0
-429 435 0
-11 -429 436 0
-430 436 0
-11 -430 437 0
-431 437 0
-11 -431 438 0
-432 438 0
-11 -432 0
-12 439 0
-433 439 0
-12 -433 440 0
-434 440 0
-12 -434 441 0
-435 441 0
-12 -435 442 0
-436 442 0
-12 -436 443 0
-437 443 0
-12 -437 444 0
-438 444 0
-12 -438 0
-13 445 0
-439 445 0
-13 -439 446 0
-440 446 0
-13 -440 447 0
-441 447 0
-13 -441 448 0
-442 448 0
-13 -442 449 0
-443 449 0
-13 -443 450 0
-444 450 0
-13 -444 0
-14 451 0
-445 451 0
-14 -445 452 0
-446 452 0
-14 -446 453 0
-447 453 0
-14 -447 454 0
-448 454 0
-14 -448 455 0
-449 455 0
-14 -449 456 0
-450 456 0
-14 -450 0
-15 457 0
-451 457 0
-15 -451 458 0
-452 458 0
-15 -452 459 0
-453 459 0
-15 -453 460 0
-454 460 0
-15 -454 461 0
-455 461 0
-15 -455 462 0
-456 462 0
-15 -456 0
-16 463 0
-457 463 0
-16 -457 464 0
-458 464 0
-16 -458 465 0
-459 465 0
-16 -459 466 0
-460 466 0
-16 -460 467 0
-461 467 0
-16 -461 468 0
-462 468 0
-16 -462 0
-17 469 0
-463 469 0
-17 -463 470 0
-464 470 0
-17 -464 471 0
-465 471 0
-17 -465 472 0
-466 472 0
-17 -466 473 0
-467 473 0
-17 -467 474 0
-468 474 0
-17 -468 0
-18 475 0
-469 475 0
-18 -469 476 0
-470 476 0
-18 -470 477 0
-471 477 0
-18 -471 478 0
-472 478 0
-18 -472 479 0
-473 479 0
-18 -473 480 0
-474 480 0
-18 -474 0
-19 481 0
-475 481 0
-19 -475 482 0
-476 482 0
-19 -476 483 0
-477 483 0
-19 -477 484 0
-478 484 0
-19 -478 485 0
-479 485 0
-19 -479 486 0
-480 486 0
-19 -480 0
-20 487 0
-481 487 0
-20 -481 488 0
-482 488 0
-20 -482 489 0
-483 489 0
-20 -483 490 0
-484 490 0
-20 -484 491 0
-485 491 0
-20 -485 492 0
-486 492 0
-20 -486 0
-21 493 0
-487 493 0
-21 -487 494 0
-488 494 0
-21 -488 495 0
-489 495 0
-21 -489 496 0
-490 496 0
-21 -490 497 0
-491 497 0
-21 -491 498 0
-492 498 0
-21 -492 0
-22 499 0
-493 499 0
-22 -493 500 0
-494 500 0
-22 -494 501 0
-495 501 0
-22 -495 502 0
-496 502 0
-22 -496 503 0
-497 503 0
-22 -497 504 0
-498 504 0
-22 -498 0
-23 505 0
-499 505 0
-23 -499 506 0
-500 506 0
-23 -500 507 0
-501 507 0
-23 -501 508 0
-502 508 0
-23 -502 509 0
-503 509 0
-23 -503 510 0
-504 510 0
-23 -504 0
-24 511 0
-505 511 0
-24 -505 512 0
-506 512 0
-24 -506 513 0
-507 513 0
-24 -507 514 0
-508 514 0
-24 -508 515 0
-509 515 0
-24 -509 516 0
-510 516 0
-24 -510 0
-25 517 0
-511 517 0
-25 -511 518 0
-512 518 0
-25 -512 519 0
-513 519 0
-25 -513 520 0
-514 520 0
-25 -514 521 0
-515 521 0
-25 -515 522 0
-516 522 0
-25 -516 0
-26 523 0
-517 523 0
-26 -517 524 0
-518 524 0
-26 -518 525 0
-519 525 0
-26 -519 526 0
-520 526 0
-26 -520 527 0
-521 527 0
-26 -521 528 0
-522 528 0
-26 -522 0
-27 529 0
-523 529 0
-27 -523 530 0
-524 530 0
-27 -524 531 0
-525 531 0
-27 -525 532 0
-526 532 0
-27 -526 533 0
-527 533 0
-27 -527 534 0
-528 534 0
-27 -528 0
-28 535 0
-529 535 0
-28 -529 536 0
-530 536 0
-28 -530 537 0
-531 537 0
-28 -531 538 0
-532 538 0
-28 -532 539 0
-533 539 0
-28 -533 540 0
-534 540 0
-28 -534 0
-29 541 0
-535 541 0
-29 -535 542 0
-536 542 0
-29 -536 543 0
-537 543 0
-29 -537 544 0
-538 544 0
-29 -538 545 0
-539 545 0
-29 -539 546 0
-540 546 0
-29 -540 0
-30 547 0
-541 547 0
-30 -541 548 0
-542 548 0
-30 -542 549 0
-543 549 0
-30 -543 550 0
-544 550 0
-30 -544 551 0
-545 551 0
-30 -545 552 0
-546 552 0
-30 -546 0
-31 553 0
-547 553 0
-31 -547 554 0
-548 554 0
-31 -548 555 0
-549 555 0
-31 -549 556 0
-550 556 0
-31 -550 557 0
-551 557 0
-31 -551 558 0
-552 558 0
-31 -552 0
-32 559 0
-553 559 0
-32 -553 560 0
-554 560 0
-32 -554 561 0
-555 561 0
-32 -555 562 0
-556 562 0
-32 -556 563 0
-557 563 0
-32 -557 564 0
-558 564 0
-32 -558 0
-33 565 0
-559 565 0
-33 -559 566 0
-560 566 0
-33 -560 567 0
-561 567 0
-33 -561 568 0
-562 568 0
-33 -562 569 0
-563 569 0
-33 -563 570 0
-564 570 0
-33 -564 0
-34 571 0
-565 571 0
-34 -565 572 0
-566 572 0
-34 -566 573 0
-567 573 0
-34 -567 574 0
-568 574 0
-34 -568 575 0
-569 575 0
-34 -569 576 0
-570 576 0
-34 -570 0
-35 577 0
-571 577 0
-35 -571 578 0
-572 578 0
-35 -572 579 0
-573 579 0
-35 -573 580 0
-574 580 0
-35 -574 581 0
-575 581 0
-35 -575 582 0
-576 582 0
-35 -576 0
-36 583 0
-577 583 0
-36 -577 584 0
-578 584 0
-36 -578 585 0
-579 585 0
-36 -579 586 0
-580 586 0
-36 -580 587 0
-581 587 0
-36 -581 588 0
-582 588 0
-36 -582 0
-37 589 0
-583 589 0
-37 -583 590 0
-584 590 0
-37 -584 591 0
-585 591 0
-37 -585 592 0
-586 592 0
-37 -586 593 0
-587 593 0
-37 -587 594 0
-588 594 0
-37 -588 0
-38 595 0
-589 595 0
-38 -589 596 0
-590 596 0
-38 -590 597 0
-591 597 0
-38 -591 598 0
-592 598 0
-38 -592 599 0
-593 599 0
-38 -593 600 0
-594 600 0
-38 -594 0
-39 601 0
-595 601 0
-39 -595 602 0
-596 602 0
-39 -596 603 0
-597 603 0
-39 -597 604 0
-598 604 0
-39 -598 605 0
-599 605 0
-39 -599 606 0
-600 606 0
-39 -600 0
-40 607 0
-601 607 0
-40 -601 608 0
-602 608 0
-40 -602 609 0
-603 609 0
-40 -603 610 0
-604 610 0
-40 -604 611 0
-605 611 0
-40 -605 612 0
-606 612 0
-40 -606 0
-41 613 0
-607 613 0
-41 -607 614 0
-608 614 0
-41 -608 615 0
-609 615 0
-41 -609 616 0
-610 616 0
-41 -610 617 0
-611 617 0
-41 -611 618 0
-612 618 0
-41 -612 0
-42 619 0
-613 619 0
-42 -613 620 0
-614 620 0
-42 -614 621 0
-615 621 0
-42 -615 622 0
-616 622 0
-42 -616 623 0
-617 623 0
-42 -617 624 0
-618 624 0
-42 -618 0
-43 625 0
-619 625 0
-43 -619 626 0
-620 626 0
-43 -620 627 0
-621 627 0
-43 -621 628 0
-622 628 0
-43 -622 629 0
-623 629 0
-43 -623 630 0
-624 630 0
-43 -624 0
-44 631 0
-625 631 0
-44 -625 632 0
-626 632 0
-44 -626 633 0
-627 633 0
-44 -627 634 0
-628 634 0
-44 -628 635 0
-629 635 0
-44 -629 636 0
-630 636 0
-44 -630 0
-45 637 0
-631 637 0
-45 -631 638 0
-632 638 0
-45 -632 639 0
-633 639 0
-45 -633 640 0
-634 640 0
-45 -634 641 0
-635 641 0
-45 -635 642 0
-636 642 0
-45 -636 0
-46 643 0
-637 643 0
-46 -637 644 0
-638 644 0
-46 -638 645 0
-639 645 0
-46 -639 646 0
-640 646 0
-46 -640 647 0
-641 647 0
-46 -641 648 0
-642 648 0
-46 -642 0
-47 649 0
-643 649 0
-47 -643 650 0
-644 650 0
-47 -644 651 0
-645 651 0
-47 -645 652 0
-646 652 0
-47 -646 653 0
-647 653 0
-47 -647 654 0
-648 654 0
-47 -648 0
-48 655 0
-649 655 0
-48 -649 656 0
-650 656 0
-48 -650 657 0
-651 657 0
-48 -651 658 0
-652 658 0
-48 -652 659 0
-653 659 0
-48 -653 660 0
-654 660 0
-48 -654 0
-49 661 0
-655 661 0
-49 -655 662 0
-656 662 0
-49 -656 663 0
-657 663 0
-49 -657 664 0
-658 664 0
-49 -658 665 0
-659 665 0
-49 -659 666 0
-660 666 0
-49 -660 0
-50 667 0
-661 667 0
-50 -661 668 0
-662 668 0
-50 -662 669 0
-663 669 0
-50 -663 670 0
-664 670 0
-50 -664 671 0
-665 671 0
-50 -665 672 0
-666 672 0
-50 -666 0
-51 673 0
-667 673 0
-51 -667 674 0
-668 674 0
-51 -668 675 0
-669 675 0
-51 -669 676 0
-670 676 0
-51 -670 677 0
-671 677 0
-51 -671 678 0
-672 678 0
-51 -672 0
-52 679 0
-673 679 0
-52 -673 680 0
-674 680 0
-52 -674 681 0
-675 681 0
-52 -675 682 0
-676 682 0
-52 -676 683 0
-677 683 0
-52 -677 684 0
-678 684 0
-52 -678 0
-53 685 0
-679 685 0
-53 -679 686 0
-680 686 0
-53 -680 687 0
-681 687 0
-53 -681 688 0
-682 688 0
-53 -682 689 0
-683 689 0
-53 -683 690 0
-684 690 0
-53 -684 0
-54 691 0
-685 691 0
-54 -685 692 0
-686 692 0
-54 -686 693 0
-687 693 0
-54 -687 694 0
-688 694 0
-54 -688 695 0
-689 695 0
-54 -689 696 0
-690 696 0
-54 -690 0
-55 697 0
-691 697 0
-55 -691 698 0
-692 698 0
-55 -692 699 0
-693 699 0
-55 -693 700 0
-694 700 0
-55 -694 701 0
-695 701 0
-55 -695 702 0
-696 702 0
-55 -696 0
-56 703 0
-697 703 0
-56 -697 704 0
-698 704 0
-56 -698 705 0
-699 705 0
-56 -699 706 0
-700 706 0
-56 -700 707 0
-701 707 0
-56 -701 708 0
-702 708 0
-56 -702 0
-57 709 0
-703 709 0
-57 -703 710 0
-704 710 0
-57 -704 711 0
-705 711 0
-57 -705 712 0
-706 712 0
-57 -706 713 0
-707 713 0
-57 -707 714 0
-708 714 0
-57 -708 0
-58 715 0
-709 715 0
-58 -709 716 0
-710 716 0
-58 -710 717 0
-711 717 0
-58 -711 718 0
-712 718 0
-58 -712 719 0
-713 719 0
-58 -713 720 0
-714 720 0
-58 -714 0
-59 721 0
-715 721 0
-59 -715 722 0
-716 722 0
-59 -716 723 0
-717 723 0
-59 -717 724 0
-718 724 0
-59 -718 725 0
-719 725 0
-59 -719 726 0
-720 726 0
-59 -720 0
-60 727 0
-721 727 0
-60 -721 728 0
-722 728 0
-60 -722 729 0
-723 729 0
-60 -723 730 0
-724 730 0
-60 -724 731 0
-725 731 0
-60 -725 732 0
-726 732 0
-60 -726 0
-61 733 0
-727 733 0
-61 -727 734 0
-728 734 0
-61 -728 735 0
-729 735 0
-61 -729 736 0
-730 736 0
-61 -730 737 0
-731 737 0
-61 -731 738 0
-732 738 0
-61 -732 0
-62 739 0
-733 739 0
-62 -733 740 0
-734 740 0
-62 -734 741 0
-735 741 0
-62 -735 742 0
-736 742 0
-62 -736 743 0
-737 743 0
-62 -737 744 0
-738 744 0
-62 -738 0
-63 745 0
-739 745 0
-63 -739 746 0
-740 746 0
-63 -740 747 0
-741 747 0
-63 -741 748 0
-742 748 0
-63 -742 749 0
-743 749 0
-63 -743 750 0
-744 750 0
-63 -744 0
-64 751 0
-745 751 0
-64 -745 752 0
-746 752 0
-64 -746 753 0
-747 753 0
-64 -747 754 0
-748 754 0
-64 -748 755 0
-749 755 0
-64 -749 756 0
-750 756 0
-64 -750 0
-65 757 0
-751 757 0
-65 -751 758 0
-752 758 0
-65 -752 759 0
-753 759 0
-65 -753 760 0
-754 760 0
-65 -754 761 0
-755 761 0
-65 -755 762 0
-756 762 0
-65 -756 0
-66 763 0
-757 763 0
-66 -757 764 0
-758 764 0
-66 -758 765 0
-759 765 0
-66 -759 766 0
-760 766 0
-66 -760 767 0
-761 767 0
-66 -761 768 0
-762 768 0
-66 -762 0
-67 769 0
-763 769 0
-67 -763 770 0
-764 770 0
-67 -764 771 0
-765 771 0
-67 -765 772 0
-766 772 0
-67 -766 773 0
-767 773 0
-67 -767 774 0
-768 774 0
-67 -768 0
-68 775 0
-769 775 0
-68 -769 776 0
-770 776 0
-68 -770 777 0
-771 777 0
-68 -771 778 0
-772 778 0
-68 -772 779 0
-773 779 0
-68 -773 780 0
-774 780 0
-68 -774 0
-69 781 0
-775 781 0
-69 -775 782 0
-776 782 0
-69 -776 783 0
-777 783 0
-69 -777 784 0
-778 784 0
-69 -778 785 0
-779 785 0
-69 -779 786 0
-780 786 0
-69 -780 0
-70 787 0
-781 787 0
-70 -781 788 0
-782 788 0
-70 -782 789 0
-783 789 0
-70 -783 790 0
-784 790 0
-70 -784 791 0
-785 791 0
-70 -785 792 0
-786 792 0
-70 -786 0
-71 793 0
-787 793 0
-71 -787 794 0
-788 794 0
-71 -788 795 0
-789 795 0
-71 -789 796 0
-790 796 0
-71 -790 797 0
-791 797 0
-71 -791 798 0
-792 798 0
-71 -792 0
-72 -798 0
