p cnf 780 2082
-73 2 3 0
-73 -2 -3 0
73 -2 3 0
73 2 -3 0
-74 73 19 0
-74 -73 -19 0
74 -73 19 0
74 73 -19 0
-75 74 40 0
-75 -74 -40 0
75 -74 40 0
75 74 -40 0
-76 75 43 0
-76 -75 -43 0
76 -75 43 0
76 75 -43 0
-77 76 49 0
-77 -76 -49 0
77 -76 49 0
77 76 -49 0
-77 0
-78 3 4 0
-78 -3 -4 0
78 -3 4 0
78 3 -4 0
-79 78 20 0
-79 -78 -20 0
79 -78 20 0
79 78 -20 0
-80 79 41 0
-80 -79 -41 0
80 -79 41 0
80 79 -41 0
-81 80 44 0
-81 -80 -44 0
81 -80 44 0
81 80 -44 0
-82 81 50 0
-82 -81 -50 0
82 -81 50 0
82 81 -50 0
-82 0
-83 4 5 0
-83 -4 -5 0
83 -4 5 0
83 4 -5 0
-84 83 21 0
-84 -83 -21 0
84 -83 21 0
84 83 -21 0
-85 84 42 0
-85 -84 -42 0
85 -84 42 0
85 84 -42 0
-86 85 45 0
-86 -85 -45 0
86 -85 45 0
86 85 -45 0
-87 86 51 0
-87 -86 -51 0
87 -86 51 0
87 86 -51 0
-87 0
-88 5 6 0
-88 -5 -6 0
88 -5 6 0
88 5 -6 0
-89 88 22 0
-89 -88 -22 0
89 -88 22 0
89 88 -22 0
-90 89 37 0
-90 -89 -37 0
90 -89 37 0
90 89 -37 0
-91 90 46 0
-91 -90 -46 0
91 -90 46 0
91 90 -46 0
-92 91 52 0
-92 -91 -52 0
92 -91 52 0
92 91 -52 0
-92 0
-93 1 6 0
-93 -1 -6 0
93 -1 6 0
93 1 -6 0
-94 93 23 0
-94 -93 -23 0
94 -93 23 0
94 93 -23 0
-95 94 38 0
-95 -94 -38 0
95 -94 38 0
95 94 -38 0
-96 95 47 0
-96 -95 -47 0
96 -95 47 0
96 95 -47 0
-97 96 53 0
-97 -96 -53 0
97 -96 53 0
97 96 -53 0
-97 0
-98 1 2 0
-98 -1 -2 0
98 -1 2 0
98 1 -2 0
-99 98 24 0
-99 -98 -24 0
99 -98 24 0
99 98 -24 0
-100 99 39 0
-100 -99 -39 0
100 -99 39 0
100 99 -39 0
-101 100 48 0
-101 -100 -48 0
101 -100 48 0
101 100 -48 0
-102 101 54 0
-102 -101 -54 0
102 -101 54 0
102 101 -54 0
-102 0
-103 8 9 0
-103 -8 -9 0
103 -8 9 0
103 8 -9 0
-104 103 25 0
-104 -103 -25 0
104 -103 25 0
104 103 -25 0
-105 104 46 0
-105 -104 -46 0
105 -104 46 0
105 104 -46 0
-106 105 49 0
-106 -105 -49 0
106 -105 49 0
106 105 -49 0
-107 106 55 0
-107 -106 -55 0
107 -106 55 0
107 106 -55 0
-107 0
-108 9 10 0
-108 -9 -10 0
108 -9 10 0
108 9 -10 0
-109 108 26 0
-109 -108 -26 0
109 -108 26 0
109 108 -26 0
-110 109 47 0
-110 -109 -47 0
110 -109 47 0
110 109 -47 0
-111 110 50 0
-111 -110 -50 0
111 -110 50 0
111 110 -50 0
-112 111 56 0
-112 -111 -56 0
112 -111 56 0
112 111 -56 0
-112 0
-113 10 11 0
-113 -10 -11 0
113 -10 11 0
113 10 -11 0
-114 113 27 0
-114 -113 -27 0
114 -113 27 0
114 113 -27 0
-115 114 48 0
-115 -114 -48 0
115 -114 48 0
115 114 -48 0
-116 115 51 0
-116 -115 -51 0
116 -115 51 0
116 115 -51 0
-117 116 57 0
-117 -116 -57 0
117 -116 57 0
117 116 -57 0
-117 0
-118 11 12 0
-118 -11 -12 0
118 -11 12 0
118 11 -12 0
-119 118 28 0
-119 -118 -28 0
119 -118 28 0
119 118 -28 0
-120 119 43 0
-120 -119 -43 0
120 -119 43 0
120 119 -43 0
-121 120 52 0
-121 -120 -52 0
121 -120 52 0
121 120 -52 0
-122 121 58 0
-122 -121 -58 0
122 -121 58 0
122 121 -58 0
-122 0
-123 7 12 0
-123 -7 -12 0
123 -7 12 0
123 7 -12 0
-124 123 29 0
-124 -123 -29 0
124 -123 29 0
124 123 -29 0
-125 124 44 0
-125 -124 -44 0
125 -124 44 0
125 124 -44 0
-126 125 53 0
-126 -125 -53 0
126 -125 53 0
126 125 -53 0
-127 126 59 0
-127 -126 -59 0
127 -126 59 0
127 126 -59 0
-127 0
-128 7 8 0
-128 -7 -8 0
128 -7 8 0
128 7 -8 0
-129 128 30 0
-129 -128 -30 0
129 -128 30 0
129 128 -30 0
-130 129 45 0
-130 -129 -45 0
130 -129 45 0
130 129 -45 0
-131 130 54 0
-131 -130 -54 0
131 -130 54 0
131 130 -54 0
-132 131 60 0
-132 -131 -60 0
132 -131 60 0
132 131 -60 0
-132 0
-133 14 15 0
-133 -14 -15 0
133 -14 15 0
133 14 -15 0
-134 133 31 0
-134 -133 -31 0
134 -133 31 0
134 133 -31 0
-135 134 52 0
-135 -134 -52 0
135 -134 52 0
135 134 -52 0
-136 135 55 0
-136 -135 -55 0
136 -135 55 0
136 135 -55 0
-137 136 61 0
-137 -136 -61 0
137 -136 61 0
137 136 -61 0
-137 0
-138 15 16 0
-138 -15 -16 0
138 -15 16 0
138 15 -16 0
-139 138 32 0
-139 -138 -32 0
139 -138 32 0
139 138 -32 0
-140 139 53 0
-140 -139 -53 0
140 -139 53 0
140 139 -53 0
-141 140 56 0
-141 -140 -56 0
141 -140 56 0
141 140 -56 0
-142 141 62 0
-142 -141 -62 0
142 -141 62 0
142 141 -62 0
-142 0
-143 16 17 0
-143 -16 -17 0
143 -16 17 0
143 16 -17 0
-144 143 33 0
-144 -143 -33 0
144 -143 33 0
144 143 -33 0
-145 144 54 0
-145 -144 -54 0
145 -144 54 0
145 144 -54 0
-146 145 57 0
-146 -145 -57 0
146 -145 57 0
146 145 -57 0
-147 146 63 0
-147 -146 -63 0
147 -146 63 0
147 146 -63 0
-147 0
-148 17 18 0
-148 -17 -18 0
148 -17 18 0
148 17 -18 0
-149 148 34 0
-149 -148 -34 0
149 -148 34 0
149 148 -34 0
-150 149 49 0
-150 -149 -49 0
150 -149 49 0
150 149 -49 0
-151 150 58 0
-151 -150 -58 0
151 -150 58 0
151 150 -58 0
-152 151 64 0
-152 -151 -64 0
152 -151 64 0
152 151 -64 0
-152 0
-153 13 18 0
-153 -13 -18 0
153 -13 18 0
153 13 -18 0
-154 153 35 0
-154 -153 -35 0
154 -153 35 0
154 153 -35 0
-155 154 50 0
-155 -154 -50 0
155 -154 50 0
155 154 -50 0
-156 155 59 0
-156 -155 -59 0
156 -155 59 0
156 155 -59 0
-157 156 65 0
-157 -156 -65 0
157 -156 65 0
157 156 -65 0
-157 0
-158 13 14 0
-158 -13 -14 0
158 -13 14 0
158 13 -14 0
-159 158 36 0
-159 -158 -36 0
159 -158 36 0
159 158 -36 0
-160 159 51 0
-160 -159 -51 0
160 -159 51 0
160 159 -51 0
-161 160 60 0
-161 -160 -60 0
161 -160 60 0
161 160 -60 0
-162 161 66 0
-162 -161 -66 0
162 -161 66 0
162 161 -66 0
-162 0
-163 1 20 0
-163 -1 -20 0
163 -1 20 0
163 1 -20 0
-164 163 21 0
-164 -163 -21 0
164 -163 21 0
164 163 -21 0
-165 164 58 0
-165 -164 -58 0
165 -164 58 0
165 164 -58 0
-166 165 61 0
-166 -165 -61 0
166 -165 61 0
166 165 -61 0
-167 166 67 0
-167 -166 -67 0
167 -166 67 0
167 166 -67 0
-167 0
-168 2 21 0
-168 -2 -21 0
168 -2 21 0
168 2 -21 0
-169 168 22 0
-169 -168 -22 0
169 -168 22 0
169 168 -22 0
-170 169 59 0
-170 -169 -59 0
170 -169 59 0
170 169 -59 0
-171 170 62 0
-171 -170 -62 0
171 -170 62 0
171 170 -62 0
-172 171 68 0
-172 -171 -68 0
172 -171 68 0
172 171 -68 0
-172 0
-173 3 22 0
-173 -3 -22 0
173 -3 22 0
173 3 -22 0
-174 173 23 0
-174 -173 -23 0
174 -173 23 0
174 173 -23 0
-175 174 60 0
-175 -174 -60 0
175 -174 60 0
175 174 -60 0
-176 175 63 0
-176 -175 -63 0
176 -175 63 0
176 175 -63 0
-177 176 69 0
-177 -176 -69 0
177 -176 69 0
177 176 -69 0
-177 0
-178 4 23 0
-178 -4 -23 0
178 -4 23 0
178 4 -23 0
-179 178 24 0
-179 -178 -24 0
179 -178 24 0
179 178 -24 0
-180 179 55 0
-180 -179 -55 0
180 -179 55 0
180 179 -55 0
-181 180 64 0
-181 -180 -64 0
181 -180 64 0
181 180 -64 0
-182 181 70 0
-182 -181 -70 0
182 -181 70 0
182 181 -70 0
-182 0
-183 5 19 0
-183 -5 -19 0
183 -5 19 0
183 5 -19 0
-184 183 24 0
-184 -183 -24 0
184 -183 24 0
184 183 -24 0
-185 184 56 0
-185 -184 -56 0
185 -184 56 0
185 184 -56 0
-186 185 65 0
-186 -185 -65 0
186 -185 65 0
186 185 -65 0
-187 186 71 0
-187 -186 -71 0
187 -186 71 0
187 186 -71 0
-187 0
-188 6 19 0
-188 -6 -19 0
188 -6 19 0
188 6 -19 0
-189 188 20 0
-189 -188 -20 0
189 -188 20 0
189 188 -20 0
-190 189 57 0
-190 -189 -57 0
190 -189 57 0
190 189 -57 0
-191 190 66 0
-191 -190 -66 0
191 -190 66 0
191 190 -66 0
-192 191 72 0
-192 -191 -72 0
192 -191 72 0
192 191 -72 0
-192 0
-193 7 26 0
-193 -7 -26 0
193 -7 26 0
193 7 -26 0
-194 193 27 0
-194 -193 -27 0
194 -193 27 0
194 193 -27 0
-195 194 37 0
-195 -194 -37 0
195 -194 37 0
195 194 -37 0
-196 195 64 0
-196 -195 -64 0
196 -195 64 0
196 195 -64 0
-197 196 67 0
-197 -196 -67 0
197 -196 67 0
197 196 -67 0
-197 0
-198 8 27 0
-198 -8 -27 0
198 -8 27 0
198 8 -27 0
-199 198 28 0
-199 -198 -28 0
199 -198 28 0
199 198 -28 0
-200 199 38 0
-200 -199 -38 0
200 -199 38 0
200 199 -38 0
-201 200 65 0
-201 -200 -65 0
201 -200 65 0
201 200 -65 0
-202 201 68 0
-202 -201 -68 0
202 -201 68 0
202 201 -68 0
-202 0
-203 9 28 0
-203 -9 -28 0
203 -9 28 0
203 9 -28 0
-204 203 29 0
-204 -203 -29 0
204 -203 29 0
204 203 -29 0
-205 204 39 0
-205 -204 -39 0
205 -204 39 0
205 204 -39 0
-206 205 66 0
-206 -205 -66 0
206 -205 66 0
206 205 -66 0
-207 206 69 0
-207 -206 -69 0
207 -206 69 0
207 206 -69 0
-207 0
-208 10 29 0
-208 -10 -29 0
208 -10 29 0
208 10 -29 0
-209 208 30 0
-209 -208 -30 0
209 -208 30 0
209 208 -30 0
-210 209 40 0
-210 -209 -40 0
210 -209 40 0
210 209 -40 0
-211 210 61 0
-211 -210 -61 0
211 -210 61 0
211 210 -61 0
-212 211 70 0
-212 -211 -70 0
212 -211 70 0
212 211 -70 0
-212 0
-213 11 25 0
-213 -11 -25 0
213 -11 25 0
213 11 -25 0
-214 213 30 0
-214 -213 -30 0
214 -213 30 0
214 213 -30 0
-215 214 41 0
-215 -214 -41 0
215 -214 41 0
215 214 -41 0
-216 215 62 0
-216 -215 -62 0
216 -215 62 0
216 215 -62 0
-217 216 71 0
-217 -216 -71 0
217 -216 71 0
217 216 -71 0
-217 0
-218 12 25 0
-218 -12 -25 0
218 -12 25 0
218 12 -25 0
-219 218 26 0
-219 -218 -26 0
219 -218 26 0
219 218 -26 0
-220 219 42 0
-220 -219 -42 0
220 -219 42 0
220 219 -42 0
-221 220 63 0
-221 -220 -63 0
221 -220 63 0
221 220 -63 0
-222 221 72 0
-222 -221 -72 0
222 -221 72 0
222 221 -72 0
-222 0
-223 13 32 0
-223 -13 -32 0
223 -13 32 0
223 13 -32 0
-224 223 33 0
-224 -223 -33 0
224 -223 33 0
224 223 -33 0
-225 224 37 0
-225 -224 -37 0
225 -224 37 0
225 224 -37 0
-226 225 43 0
-226 -225 -43 0
226 -225 43 0
226 225 -43 0
-227 226 70 0
-227 -226 -70 0
227 -226 70 0
227 226 -70 0
-227 0
-228 14 33 0
-228 -14 -33 0
228 -14 33 0
228 14 -33 0
-229 228 34 0
-229 -228 -34 0
229 -228 34 0
229 228 -34 0
-230 229 38 0
-230 -229 -38 0
230 -229 38 0
230 229 -38 0
-231 230 44 0
-231 -230 -44 0
231 -230 44 0
231 230 -44 0
-232 231 71 0
-232 -231 -71 0
232 -231 71 0
232 231 -71 0
-232 0
-233 15 34 0
-233 -15 -34 0
233 -15 34 0
233 15 -34 0
-234 233 35 0
-234 -233 -35 0
234 -233 35 0
234 233 -35 0
-235 234 39 0
-235 -234 -39 0
235 -234 39 0
235 234 -39 0
-236 235 45 0
-236 -235 -45 0
236 -235 45 0
236 235 -45 0
-237 236 72 0
-237 -236 -72 0
237 -236 72 0
237 236 -72 0
-237 0
-238 16 35 0
-238 -16 -35 0
238 -16 35 0
238 16 -35 0
-239 238 36 0
-239 -238 -36 0
239 -238 36 0
239 238 -36 0
-240 239 40 0
-240 -239 -40 0
240 -239 40 0
240 239 -40 0
-241 240 46 0
-241 -240 -46 0
241 -240 46 0
241 240 -46 0
-242 241 67 0
-242 -241 -67 0
242 -241 67 0
242 241 -67 0
-242 0
-243 17 31 0
-243 -17 -31 0
243 -17 31 0
243 17 -31 0
-244 243 36 0
-244 -243 -36 0
244 -243 36 0
244 243 -36 0
-245 244 41 0
-245 -244 -41 0
245 -244 41 0
245 244 -41 0
-246 245 47 0
-246 -245 -47 0
246 -245 47 0
246 245 -47 0
-247 246 68 0
-247 -246 -68 0
247 -246 68 0
247 246 -68 0
-247 0
-248 18 31 0
-248 -18 -31 0
248 -18 31 0
248 18 -31 0
-249 248 32 0
-249 -248 -32 0
249 -248 32 0
249 248 -32 0
-250 249 42 0
-250 -249 -42 0
250 -249 42 0
250 249 -42 0
-251 250 48 0
-251 -250 -48 0
251 -250 48 0
251 250 -48 0
-252 251 69 0
-252 -251 -69 0
252 -251 69 0
252 251 -69 0
-252 0
-253 4 7 0
-253 -4 -7 0
253 -4 7 0
253 4 -7 0
-254 253 13 0
-254 -253 -13 0
254 -253 13 0
254 253 -13 0
-255 254 16 0
-255 -254 -16 0
255 -254 16 0
255 254 -16 0
-256 255 19 0
-256 -255 -19 0
256 -255 19 0
256 255 -19 0
-257 256 25 0
-257 -256 -25 0
257 -256 25 0
257 256 -25 0
-258 5 8 0
-258 -5 -8 0
258 -5 8 0
258 5 -8 0
-259 258 14 0
-259 -258 -14 0
259 -258 14 0
259 258 -14 0
-260 259 17 0
-260 -259 -17 0
260 -259 17 0
260 259 -17 0
-261 260 20 0
-261 -260 -20 0
261 -260 20 0
261 260 -20 0
-262 261 26 0
-262 -261 -26 0
262 -261 26 0
262 261 -26 0
-263 6 9 0
-263 -6 -9 0
263 -6 9 0
263 6 -9 0
-264 263 15 0
-264 -263 -15 0
264 -263 15 0
264 263 -15 0
-265 264 18 0
-265 -264 -18 0
265 -264 18 0
265 264 -18 0
-266 265 21 0
-266 -265 -21 0
266 -265 21 0
266 265 -21 0
-267 266 27 0
-267 -266 -27 0
267 -266 27 0
267 266 -27 0
-268 1 10 0
-268 -1 -10 0
268 -1 10 0
268 1 -10 0
-269 268 13 0
-269 -268 -13 0
269 -268 13 0
269 268 -13 0
-270 269 16 0
-270 -269 -16 0
270 -269 16 0
270 269 -16 0
-271 270 22 0
-271 -270 -22 0
271 -270 22 0
271 270 -22 0
-272 271 28 0
-272 -271 -28 0
272 -271 28 0
272 271 -28 0
-273 4 7 0
-273 -4 -7 0
273 -4 7 0
273 4 -7 0
-274 273 10 0
-274 -273 -10 0
274 -273 10 0
274 273 -10 0
-275 274 16 0
-275 -274 -16 0
275 -274 16 0
275 274 -16 0
-276 275 22 0
-276 -275 -22 0
276 -275 22 0
276 275 -22 0
-277 276 31 0
-277 -276 -31 0
277 -276 31 0
277 276 -31 0
-278 5 8 0
-278 -5 -8 0
278 -5 8 0
278 5 -8 0
-279 278 11 0
-279 -278 -11 0
279 -278 11 0
279 278 -11 0
-280 279 17 0
-280 -279 -17 0
280 -279 17 0
280 279 -17 0
-281 280 23 0
-281 -280 -23 0
281 -280 23 0
281 280 -23 0
-282 281 32 0
-282 -281 -32 0
282 -281 32 0
282 281 -32 0
-283 1 2 0
-283 -1 -2 0
283 -1 2 0
283 1 -2 0
-284 283 4 0
-284 -283 -4 0
284 -283 4 0
284 283 -4 0
-285 284 5 0
-285 -284 -5 0
285 -284 5 0
285 284 -5 0
-286 285 7 0
-286 -285 -7 0
286 -285 7 0
286 285 -7 0
-287 286 8 0
-287 -286 -8 0
287 -286 8 0
287 286 -8 0
-288 287 10 0
-288 -287 -10 0
288 -287 10 0
288 287 -10 0
-289 288 11 0
-289 -288 -11 0
289 -288 11 0
289 288 -11 0
-290 289 37 0
-290 -289 -37 0
290 -289 37 0
290 289 -37 0
-291 290 38 0
-291 -290 -38 0
291 -290 38 0
291 290 -38 0
-292 291 40 0
-292 -291 -40 0
292 -291 40 0
292 291 -40 0
-293 292 41 0
-293 -292 -41 0
293 -292 41 0
293 292 -41 0
-294 1 3 0
-294 -1 -3 0
294 -1 3 0
294 1 -3 0
-295 294 4 0
-295 -294 -4 0
295 -294 4 0
295 294 -4 0
-296 295 6 0
-296 -295 -6 0
296 -295 6 0
296 295 -6 0
-297 296 7 0
-297 -296 -7 0
297 -296 7 0
297 296 -7 0
-298 297 9 0
-298 -297 -9 0
298 -297 9 0
298 297 -9 0
-299 298 10 0
-299 -298 -10 0
299 -298 10 0
299 298 -10 0
-300 299 12 0
-300 -299 -12 0
300 -299 12 0
300 299 -12 0
-301 300 37 0
-301 -300 -37 0
301 -300 37 0
301 300 -37 0
-302 301 39 0
-302 -301 -39 0
302 -301 39 0
302 301 -39 0
-303 302 40 0
-303 -302 -40 0
303 -302 40 0
303 302 -40 0
-304 303 42 0
-304 -303 -42 0
304 -303 42 0
304 303 -42 0
-305 1 2 0
-305 -1 -2 0
305 -1 2 0
305 1 -2 0
-306 305 3 0
-306 -305 -3 0
306 -305 3 0
306 305 -3 0
-307 306 6 0
-307 -306 -6 0
307 -306 6 0
307 306 -6 0
-308 307 7 0
-308 -307 -7 0
308 -307 7 0
308 307 -7 0
-309 308 8 0
-309 -308 -8 0
309 -308 8 0
309 308 -8 0
-310 309 9 0
-310 -309 -9 0
310 -309 9 0
310 309 -9 0
-311 310 10 0
-311 -310 -10 0
311 -310 10 0
311 310 -10 0
-312 311 13 0
-312 -311 -13 0
312 -311 13 0
312 311 -13 0
-313 312 15 0
-313 -312 -15 0
313 -312 15 0
313 312 -15 0
-314 313 38 0
-314 -313 -38 0
314 -313 38 0
314 313 -38 0
-315 314 40 0
-315 -314 -40 0
315 -314 40 0
315 314 -40 0
-316 315 43 0
-316 -315 -43 0
316 -315 43 0
316 315 -43 0
-317 316 45 0
-317 -316 -45 0
317 -316 45 0
317 316 -45 0
-318 3 5 0
-318 -3 -5 0
318 -3 5 0
318 3 -5 0
-319 318 7 0
-319 -318 -7 0
319 -318 7 0
319 318 -7 0
-320 319 9 0
-320 -319 -9 0
320 -319 9 0
320 319 -9 0
-321 320 14 0
-321 -320 -14 0
321 -320 14 0
321 320 -14 0
-322 321 16 0
-322 -321 -16 0
322 -321 16 0
322 321 -16 0
-323 322 37 0
-323 -322 -37 0
323 -322 37 0
323 322 -37 0
-324 323 38 0
-324 -323 -38 0
324 -323 38 0
324 323 -38 0
-325 324 39 0
-325 -324 -39 0
325 -324 39 0
325 324 -39 0
-326 325 40 0
-326 -325 -40 0
326 -325 40 0
326 325 -40 0
-327 326 44 0
-327 -326 -44 0
327 -326 44 0
327 326 -44 0
-328 327 46 0
-328 -327 -46 0
328 -327 46 0
328 327 -46 0
-329 3 5 0
-329 -3 -5 0
329 -3 5 0
329 3 -5 0
-330 329 8 0
-330 -329 -8 0
330 -329 8 0
330 329 -8 0
-331 330 9 0
-331 -330 -9 0
331 -330 9 0
331 330 -9 0
-332 331 10 0
-332 -331 -10 0
332 -331 10 0
332 331 -10 0
-333 332 11 0
-333 -332 -11 0
333 -332 11 0
333 332 -11 0
-334 333 13 0
-334 -333 -13 0
334 -333 13 0
334 333 -13 0
-335 334 17 0
-335 -334 -17 0
335 -334 17 0
335 334 -17 0
-336 335 37 0
-336 -335 -37 0
336 -335 37 0
336 335 -37 0
-337 336 38 0
-337 -336 -38 0
337 -336 38 0
337 336 -38 0
-338 337 39 0
-338 -337 -39 0
338 -337 39 0
338 337 -39 0
-339 338 40 0
-339 -338 -40 0
339 -338 40 0
339 338 -40 0
-340 339 43 0
-340 -339 -43 0
340 -339 43 0
340 339 -43 0
-341 340 47 0
-341 -340 -47 0
341 -340 47 0
341 340 -47 0
-342 1 2 0
-342 -1 -2 0
342 -1 2 0
342 1 -2 0
-343 342 5 0
-343 -342 -5 0
343 -342 5 0
343 342 -5 0
-344 343 6 0
-344 -343 -6 0
344 -343 6 0
344 343 -6 0
-345 344 7 0
-345 -344 -7 0
345 -344 7 0
345 344 -7 0
-346 345 8 0
-346 -345 -8 0
346 -345 8 0
346 345 -8 0
-347 346 9 0
-347 -346 -9 0
347 -346 9 0
347 346 -9 0
-348 347 12 0
-348 -347 -12 0
348 -347 12 0
348 347 -12 0
-349 348 14 0
-349 -348 -14 0
349 -348 14 0
349 348 -14 0
-350 349 18 0
-350 -349 -18 0
350 -349 18 0
350 349 -18 0
-351 350 37 0
-351 -350 -37 0
351 -350 37 0
351 350 -37 0
-352 351 39 0
-352 -351 -39 0
352 -351 39 0
352 351 -39 0
-353 352 44 0
-353 -352 -44 0
353 -352 44 0
353 352 -44 0
-354 353 48 0
-354 -353 -48 0
354 -353 48 0
354 353 -48 0
257 262 267 272 277 282 293 304 317 328 341 354 0
-1 355 0
-356 0
-357 0
-358 0
-359 0
-360 0
-2 361 0
-355 361 0
-2 -355 362 0
-356 362 0
-2 -356 363 0
-357 363 0
-2 -357 364 0
-358 364 0
-2 -358 365 0
-359 365 0
-2 -359 366 0
-360 366 0
-2 -360 0
-3 367 0
-361 367 0
-3 -361 368 0
-362 368 0
-3 -362 369 0
-363 369 0
-3 -363 370 0
-364 370 0
-3 -364 371 0
-365 371 0
-3 -365 372 0
-366 372 0
-3 -366 0
-4 373 0
-367 373 0
-4 -367 374 0
-368 374 0
-4 -368 375 0
-369 375 0
-4 -369 376 0
-370 376 0
-4 -370 377 0
-371 377 0
-4 -371 378 0
-372 378 0
-4 -372 0
-5 379 0
-373 379 0
-5 -373 380 0
-374 380 0
-5 -374 381 0
-375 381 0
-5 -375 382 0
-376 382 0
-5 -376 383 0
-377 383 0
-5 -377 384 0
-378 384 0
-5 -378 0
-6 385 0
-379 385 0
-6 -379 386 0
-380 386 0
-6 -380 387 0
-381 387 0
-6 -381 388 0
-382 388 0
-6 -382 389 0
-383 389 0
-6 -383 390 0
-384 390 0
-6 -384 0
-7 391 0
-385 391 0
-7 -385 392 0
-386 392 0
-7 -386 393 0
-387 393 0
-7 -387 394 0
-388 394 0
-7 -388 395 0
-389 395 0
-7 -389 396 0
-390 396 0
-7 -390 0
-8 397 0
-391 397 0
-8 -391 398 0
-392 398 0
-8 -392 399 0
-393 399 0
-8 -393 400 0
-394 400 0
-8 -394 401 0
-395 401 0
-8 -395 402 0
-396 402 0
-8 -396 0
-9 403 0
-397 403 0
-9 -397 404 0
-398 404 0
-9 -398 405 0
-399 405 0
-9 -399 406 0
-400 406 0
-9 -400 407 0
-401 407 0
-9 -401 408 0
-402 408 0
-9 -402 0
-10 409 0
-403 409 0
-10 -403 410 0
-404 410 0
-10 -404 411 0
-405 411 0
-10 -405 412 0
-406 412 0
-10 -406 413 0
-407 413 0
-10 -407 414 0
-408 414 0
-10 -408 0
-11 415 0
-409 415 0
-11 -409 416 0
-410 416 0
-11 -410 417 0
-411 417 0
-11 -411 418 0
-412 418 0
-11 -412 419 0
-413 419 0
-11 -413 420 0
-414 420 0
-11 -414 0
-12 421 0
-415 421 0
-12 -415 422 0
-416 422 0
-12 -416 423 0
-417 423 0
-12 -417 424 0
-418 424 0
-12 -418 425 0
-419 425 0
-12 -419 426 0
-420 426 0
-12 -420 0
-13 427 0
-421 427 0
-13 -421 428 0
-422 428 0
-13 -422 429 0
-423 429 0
-13 -423 430 0
-424 430 0
-13 -424 431 0
-425 431 0
-13 -425 432 0
-426 432 0
-13 -426 0
-14 433 0
-427 433 0
-14 -427 434 0
-428 434 0
-14 -428 435 0
-429 435 0
-14 -429 436 0
-430 436 0
-14 -430 437 0
-431 437 0
-14 -431 438 0
-432 438 0
-14 -432 0
-15 439 0
-433 439 0
-15 -433 440 0
-434 440 0
-15 -434 441 0
-435 441 0
-15 -435 442 0
-436 442 0
-15 -436 443 0
-437 443 0
-15 -437 444 0
-438 444 0
-15 -438 0
-16 445 0
-439 445 0
-16 -439 446 0
-440 446 0
-16 -440 447 0
-441 447 0
-16 -441 448 0
-442 448 0
-16 -442 449 0
-443 449 0
-16 -443 450 0
-444 450 0
-16 -444 0
-17 451 0
-445 451 0
-17 -445 452 0
-446 452 0
-17 -446 453 0
-447 453 0
-17 -447 454 0
-448 454 0
-17 -448 455 0
-449 455 0
-17 -449 456 0
-450 456 0
-17 -450 0
-18 457 0
-451 457 0
-18 -451 458 0
-452 458 0
-18 -452 459 0
-453 459 0
-18 -453 460 0
-454 460 0
-18 -454 461 0
-455 461 0
-18 -455 462 0
-456 462 0
-18 -456 0
-19 463 0
-457 463 0
-19 -457 464 0
-458 464 0
-19 -458 465 0
-459 465 0
-19 -459 466 0
-460 466 0
-19 -460 467 0
-461 467 0
-19 -461 468 0
-462 468 0
-19 -462 0
-20 469 0
-463 469 0
-20 -463 470 0
-464 470 0
-20 -464 471 0
-465 471 0
-20 -465 472 0
-466 472 0
-20 -466 473 0
-467 473 0
-20 -467 474 0
-468 474 0
-20 -468 0
-21 475 0
-469 475 0
-21 -469 476 0
-470 476 0
-21 -470 477 0
-471 477 0
-21 -471 478 0
-472 478 0
-21 -472 479 0
-473 479 0
-21 -473 480 0
-474 480 0
-21 -474 0
-22 481 0
-475 481 0
-22 -475 482 0
-476 482 0
-22 -476 483 0
-477 483 0
-22 -477 484 0
-478 484 0
-22 -478 485 0
-479 485 0
-22 -479 486 0
-480 486 0
-22 -480 0
-23 487 0
-481 487 0
-23 -481 488 0
-482 488 0
-23 -482 489 0
-483 489 0
-23 -483 490 0
-484 490 0
-23 -484 491 0
-485 491 0
-23 -485 492 0
-486 492 0
-23 -486 0
-24 493 0
-487 493 0
-24 -487 494 0
-488 494 0
-24 -488 495 0
-489 495 0
-24 -489 496 0
-490 496 0
-24 -490 497 0
-491 497 0
-24 -491 498 0
-492 498 0
-24 -492 0
-25 499 0
-493 499 0
-25 -493 500 0
-494 500 0
-25 -494 501 0
-495 501 0
-25 -495 502 0
-496 502 0
-25 -496 503 0
-497 503 0
-25 -497 504 0
-498 504 0
-25 -498 0
-26 505 0
-499 505 0
-26 -499 506 0
-500 506 0
-26 -500 507 0
-501 507 0
-26 -501 508 0
-502 508 0
-26 -502 509 0
-503 509 0
-26 -503 510 0
-504 510 0
-26 -504 0
-27 511 0
-505 511 0
-27 -505 512 0
-506 512 0
-27 -506 513 0
-507 513 0
-27 -507 514 0
-508 514 0
-27 -508 515 0
-509 515 0
-27 -509 516 0
-510 516 0
-27 -510 0
-28 517 0
-511 517 0
-28 -511 518 0
-512 518 0
-28 -512 519 0
-513 519 0
-28 -513 520 0
-514 520 0
-28 -514 521 0
-515 521 0
-28 -515 522 0
-516 522 0
-28 -516 0
-29 523 0
-517 523 0
-29 -517 524 0
-518 524 0
-29 -518 525 0
-519 525 0
-29 -519 526 0
-520 526 0
-29 -520 527 0
-521 527 0
-29 -521 528 0
-522 528 0
-29 -522 0
-30 529 0
-523 529 0
-30 -523 530 0
-524 530 0
-30 -524 531 0
-525 531 0
-30 -525 532 0
-526 532 0
-30 -526 533 0
-527 533 0
-30 -527 534 0
-528 534 0
-30 -528 0
-31 535 0
-529 535 0
-31 -529 536 0
-530 536 0
-31 -530 537 0
-531 537 0
-31 -531 538 0
-532 538 0
-31 -532 539 0
-533 539 0
-31 -533 540 0
-534 540 0
-31 -534 0
-32 541 0
-535 541 0
-32 -535 542 0
-536 542 0
-32 -536 543 0
-537 543 0
-32 -537 544 0
-538 544 0
-32 -538 545 0
-539 545 0
-32 -539 546 0
-540 546 0
-32 -540 0
-33 547 0
-541 547 0
-33 -541 548 0
-542 548 0
-33 -542 549 0
-543 549 0
-33 -543 550 0
-544 550 0
-33 -544 551 0
-545 551 0
-33 -545 552 0
-546 552 0
-33 -546 0
-34 553 0
-547 553 0
-34 -547 554 0
-548 554 0
-34 -548 555 0
-549 555 0
-34 -549 556 0
-550 556 0
-34 -550 557 0
-551 557 0
-34 -551 558 0
-552 558 0
-34 -552 0
-35 559 0
-553 559 0
-35 -553 560 0
-554 560 0
-35 -554 561 0
-555 561 0
-35 -555 562 0
-556 562 0
-35 -556 563 0
-557 563 0
-35 -557 564 0
-558 564 0
-35 -558 0
-36 565 0
-559 565 0
-36 -559 566 0
-560 566 0
-36 -560 567 0
-561 567 0
-36 -561 568 0
-562 568 0
-36 -562 569 0
-563 569 0
-36 -563 570 0
-564 570 0
-36 -564 0
-37 571 0
-565 571 0
-37 -565 572 0
-566 572 0
-37 -566 573 0
-567 573 0
-37 -567 574 0
-568 574 0
-37 -568 575 0
-569 575 0
-37 -569 576 0
-570 576 0
-37 -570 0
-38 577 0
-571 577 0
-38 -571 578 0
-572 578 0
-38 -572 579 0
-573 579 0
-38 -573 580 0
-574 580 0
-38 -574 581 0
-575 581 0
-38 -575 582 0
-576 582 0
-38 -576 0
-39 583 0
-577 583 0
-39 -577 584 0
-578 584 0
-39 -578 585 0
-579 585 0
-39 -579 586 0
-580 586 0
-39 -580 587 0
-581 587 0
-39 -581 588 0
-582 588 0
-39 -582 0
-40 589 0
-583 589 0
-40 -583 590 0
-584 590 0
-40 -584 591 0
-585 591 0
-40 -585 592 0
-586 592 0
-40 -586 593 0
-587 593 0
-40 -587 594 0
-588 594 0
-40 -588 0
-41 595 0
-589 595 0
-41 -589 596 0
-590 596 0
-41 -590 597 0
-591 597 0
-41 -591 598 0
-592 598 0
-41 -592 599 0
-593 599 0
-41 -593 600 0
-594 600 0
-41 -594 0
-42 601 0
-595 601 0
-42 -595 602 0
-596 602 0
-42 -596 603 0
-597 603 0
-42 -597 604 0
-598 604 0
-42 -598 605 0
-599 605 0
-42 -599 606 0
-600 606 0
-42 -600 0
-43 607 0
-601 607 0
-43 -601 608 0
-602 608 0
-43 -602 609 0
-603 609 0
-43 -603 610 0
-604 610 0
-43 -604 611 0
-605 611 0
-43 -605 612 0
-606 612 0
-43 -606 0
-44 613 0
-607 613 0
-44 -607 614 0
-608 614 0
-44 -608 615 0
-609 615 0
-44 -609 616 0
-610 616 0
-44 -610 617 0
-611 617 0
-44 -611 618 0
-612 618 0
-44 -612 0
-45 619 0
-613 619 0
-45 -613 620 0
-614 620 0
-45 -614 621 0
-615 621 0
-45 -615 622 0
-616 622 0
-45 -616 623 0
-617 623 0
-45 -617 624 0
-618 624 0
-45 -618 0
-46 625 0
-619 625 0
-46 -619 626 0
-620 626 0
-46 -620 627 0
-621 627 0
-46 -621 628 0
-622 628 0
-46 -622 629 0
-623 629 0
-46 -623 630 0
-624 630 0
-46 -624 0
-47 631 0
-625 631 0
-47 -625 632 0
-626 632 0
-47 -626 633 0
-627 633 0
-47 -627 634 0
-628 634 0
-47 -628 635 0
-629 635 0
-47 -629 636 0
-630 636 0
-47 -630 0
-48 637 0
-631 637 0
-48 -631 638 0
-632 638 0
-48 -632 639 0
-633 639 0
-48 -633 640 0
-634 640 0
-48 -634 641 0
-635 641 0
-48 -635 642 0
-636 642 0
-48 -636 0
-49 643 0
-637 643 0
-49 -637 644 0
-638 644 0
-49 -638 645 0
-639 645 0
-49 -639 646 0
-640 646 0
-49 -640 647 0
-641 647 0
-49 -641 648 0
-642 648 0
-49 -642 0
-50 649 0
-643 649 0
-50 -643 650 0
-644 650 0
-50 -644 651 0
-645 651 0
-50 -645 652 0
-646 652 0
-50 -646 653 0
-647 653 0
-50 -647 654 0
-648 654 0
-50 -648 0
-51 655 0
-649 655 0
-51 -649 656 0
-650 656 0
-51 -650 657 0
-651 657 0
-51 -651 658 0
-652 658 0
-51 -652 659 0
-653 659 0
-51 -653 660 0
-654 660 0
-51 -654 0
-52 661 0
-655 661 0
-52 -655 662 0
-656 662 0
-52 -656 663 0
-657 663 0
-52 -657 664 0
-658 664 0
-52 -658 665 0
-659 665 0
-52 -659 666 0
-660 666 0
-52 -660 0
-53 667 0
-661 667 0
-53 -661 668 0
-662 668 0
-53 -662 669 0
-663 669 0
-53 -663 670 0
-664 670 0
-53 -664 671 0
-665 671 0
-53 -665 672 0
-666 672 0
-53 -666 0
-54 673 0
-667 673 0
-54 -667 674 0
-668 674 0
-54 -668 675 0
-669 675 0
-54 -669 676 0
-670 676 0
-54 -670 677 0
-671 677 0
-54 -671 678 0
-672 678 0
-54 -672 0
-55 679 0
-673 679 0
-55 -673 680 0
-674 680 0
-55 -674 681 0
-675 681 0
-55 -675 682 0
-676 682 0
-55 -676 683 0
-677 683 0
-55 -677 684 0
-678 684 0
-55 -678 0
-56 685 0
-679 685 0
-56 -679 686 0
-680 686 0
-56 -680 687 0
-681 687 0
-56 -681 688 0
-682 688 0
-56 -682 689 0
-683 689 0
-56 -683 690 0
-684 690 0
-56 -684 0
-57 691 0
-685 691 0
-57 -685 692 0
-686 692 0
-57 -686 693 0
-687 693 0
-57 -687 694 0
-688 694 0
-57 -688 695 0
-689 695 0
-57 -689 696 0
-690 696 0
-57 -690 0
-58 697 0
-691 697 0
-58 -691 698 0
-692 698 0
-58 -692 699 0
-693 699 0
-58 -693 700 0
-694 700 0
-58 -694 701 0
-695 701 0
-58 -695 702 0
-696 702 0
-58 -696 0
-59 703 0
-697 703 0
-59 -697 704 0
-698 704 0
-59 -698 705 0
-699 705 0
-59 -699 706 0
-700 706 0
-59 -700 707 0
-701 707 0
-59 -701 708 0
-702 708 0
-59 -702 0
-60 709 0
-703 709 0
-60 -703 710 0
-704 710 0
-60 -704 711 0
-705 711 0
-60 -705 712 0
-706 712 0
-60 -706 713 0
-707 713 0
-60 -707 714 0
-708 714 0
-60 -708 0
-61 715 0
-709 715 0
-61 -709 716 0
-710 716 0
-61 -710 717 0
-711 717 0
-61 -711 718 0
-712 718 0
-61 -712 719 0
-713 719 0
-61 -713 720 0
-714 720 0
-61 -714 0
-62 721 0
-715 721 0
-62 -715 722 0
-716 722 0
-62 -716 723 0
-717 723 0
-62 -717 724 0
-718 724 0
-62 -718 725 0
-719 725 0
-62 -719 726 0
-720 726 0
-62 -720 0
-63 727 0
-721 727 0
-63 -721 728 0
-722 728 0
-63 -722 729 0
-723 729 0
-63 -723 730 0
-724 730 0
-63 -724 731 0
-725 731 0
-63 -725 732 0
-726 732 0
-63 -726 0
-64 733 0
-727 733 0
-64 -727 734 0
-728 734 0
-64 -728 735 0
-729 735 0
-64 -729 736 0
-730 736 0
-64 -730 737 0
-731 737 0
-64 -731 738 0
-732 738 0
-64 -732 0
-65 739 0
-733 739 0
-65 -733 740 0
-734 740 0
-65 -734 741 0
-735 741 0
-65 -735 742 0
-736 742 0
-65 -736 743 0
-737 743 0
-65 -737 744 0
-738 744 0
-65 -738 0
-66 745 0
-739 745 0
-66 -739 746 0
-740 746 0
-66 -740 747 0
-741 747 0
-66 -741 748 0
-742 748 0
-66 -742 749 0
-743 749 0
-66 -743 750 0
-744 750 0
-66 -744 0
-67 751 0
-745 751 0
-67 -745 752 0
-746 752 0
-67 -746 753 0
-747 753 0
-67 -747 754 0
-748 754 0
-67 -748 755 0
-749 755 0
-67 -749 756 0
-750 756 0
-67 -750 0
-68 757 0
-751 757 0
-68 -751 758 0
-752 758 0
-68 -752 759 0
-753 759 0
-68 -753 760 0
-754 760 0
-68 -754 761 0
-755 761 0
-68 -755 762 0
-756 762 0
-68 -756 0
-69 763 0
-757 763 0
-69 -757 764 0
-758 764 0
-69 -758 765 0
-759 765 0
-69 -759 766 0
-760 766 0
-69 -760 767 0
-761 767 0
-69 -761 768 0
-762 768 0
-69 -762 0
-70 769 0
-763 769 0
-70 -763 770 0
-764 770 0
-70 -764 771 0
-765 771 0
-70 -765 772 0
-766 772 0
-70 -766 773 0
-767 773 0
-70 -767 774 0
-768 774 0
-70 -768 0
-71 775 0
-769 775 0
-71 -769 776 0
-770 776 0
-71 -770 777 0
-771 777 0
-71 -771 778 0
-772 778 0
-71 -772 779 0
-773 779 0
-71 -773 780 0
-774 780 0
-71 -774 0
-72 -780 0
